240
Lattice="22.4434 0.0 0.0 -11.221699999999995 19.436554547295675 0.0 0.0 0.0 12.11034" Properties=species:S:1:pos:R:3:id:I:1:type:I:1 comment="(written by ASE)" pbc="T T T"
Li       3.65827420      -0.00000000       0.00000000        1        1
Li       7.56342580      -0.00000000       0.00000000        2        1
Li      -1.82913710       3.16815839       0.00000000        3        1
Li      -3.78171290       6.55011888       0.00000000        4        1
Li       3.78171290       6.55011888       0.00000000        5        1
Li       3.72560440      -0.00000000       3.02758500        6        1
Li       7.49609560      -0.00000000       3.02758500        7        1
Li      -1.86280220       3.22646805       3.02758500        8        1
Li      -3.74804780       6.49180922       3.02758500        9        1
Y        0.00000000       0.00000000       0.00000000       10        2
Y       -0.00000561       6.47885476       3.02758500       11        2
Y        5.61085561       3.23942252       3.02758500       12        2
Cl      -3.70372208       8.61719646       4.73938156       13        3
Cl       9.31457209       1.10108082       1.31578844       14        3
Cl       0.00000000       2.20216163       4.73938156       15        3
Cl       5.61085000       7.51611564       1.31578844       16        3
Cl       3.70372209       8.61719646       4.73938156       17        3
Cl       1.90712791       1.10108082       1.31578844       18        3
Cl      -2.01541732       7.64245325       1.55072904       19        3
Cl       7.62626732       2.07582403       4.50444096       20        3
Cl       0.00000000       4.15164805       1.55072904       21        3
Cl       5.61085000       5.56662922       4.50444096       22        3
Cl       2.01541732       7.64245325       1.55072904       23        3
Cl       3.59543268       2.07582403       4.50444096       24        3
Cl       1.73992459       5.47430559       4.51776234       25        3
Cl       3.87092542       4.24397169       1.53740766       26        3
Cl       0.00000000       8.48794337       4.51776234       27        3
Cl       5.61085000       1.23033390       1.53740766       28        3
Cl      -1.73992458       5.47430559       4.51776234       29        3
Cl       7.35077459       4.24397169       1.53740766       30        3
Li       3.65827420      -0.00000000       6.05517000       31        1
Li       7.56342580      -0.00000000       6.05517000       32        1
Li      -1.82913710       3.16815839       6.05517000       33        1
Li      -3.78171290       6.55011888       6.05517000       34        1
Li       3.78171290       6.55011888       6.05517000       35        1
Li       3.72560440      -0.00000000       9.08275500       36        1
Li       7.49609560      -0.00000000       9.08275500       37        1
Li      -1.86280220       3.22646805       9.08275500       38        1
Li      -3.74804780       6.49180922       9.08275500       39        1
Y        0.00000000       0.00000000       6.05517000       40        2
Y       -0.00000561       6.47885476       9.08275500       41        2
Y        5.61085561       3.23942252       9.08275500       42        2
Cl      -3.70372208       8.61719646      10.79455156       43        3
Cl       9.31457209       1.10108082       7.37095844       44        3
Cl       0.00000000       2.20216163      10.79455156       45        3
Cl       5.61085000       7.51611564       7.37095844       46        3
Cl       3.70372209       8.61719646      10.79455156       47        3
Cl       1.90712791       1.10108082       7.37095844       48        3
Cl      -2.01541732       7.64245325       7.60589904       49        3
Cl       7.62626732       2.07582403      10.55961096       50        3
Cl       0.00000000       4.15164805       7.60589904       51        3
Cl       5.61085000       5.56662922      10.55961096       52        3
Cl       2.01541732       7.64245325       7.60589904       53        3
Cl       3.59543268       2.07582403      10.55961096       54        3
Cl       1.73992459       5.47430559      10.57293234       55        3
Cl       3.87092542       4.24397169       7.59257766       56        3
Cl       0.00000000       8.48794337      10.57293234       57        3
Cl       5.61085000       1.23033390       7.59257766       58        3
Cl      -1.73992458       5.47430559      10.57293234       59        3
Cl       7.35077459       4.24397169       7.59257766       60        3
Li      -1.95257580       9.71827727       0.00000000       61        1
Li       1.95257580       9.71827727       0.00000000       62        1
Li      -7.43998710      12.88643566       0.00000000       63        1
Li      -9.39256290      16.26839616       0.00000000       64        1
Li      -1.82913710      16.26839616       0.00000000       65        1
Li      -1.88524560       9.71827727       3.02758500       66        1
Li       1.88524560       9.71827727       3.02758500       67        1
Li      -7.47365220      12.94474533       3.02758500       68        1
Li      -9.35889780      16.21008649       3.02758500       69        1
Y       -5.61085000       9.71827727       0.00000000       70        2
Y       -5.61085561      16.19713203       3.02758500       71        2
Y        0.00000561      12.95769979       3.02758500       72        2
Cl      -9.31457208      18.33547373       4.73938156       73        3
Cl       3.70372209      10.81935809       1.31578844       74        3
Cl      -5.61085000      11.92043890       4.73938156       75        3
Cl       0.00000000      17.23439292       1.31578844       76        3
Cl      -1.90712791      18.33547373       4.73938156       77        3
Cl      -3.70372208      10.81935809       1.31578844       78        3
Cl      -7.62626732      17.36073052       1.55072904       79        3
Cl       2.01541732      11.79410130       4.50444096       80        3
Cl      -5.61085000      13.86992532       1.55072904       81        3
Cl       0.00000000      15.28490650       4.50444096       82        3
Cl      -3.59543268      17.36073052       1.55072904       83        3
Cl      -2.01541732      11.79410130       4.50444096       84        3
Cl      -3.87092541      15.19258286       4.51776234       85        3
Cl      -1.73992458      13.96224896       1.53740766       86        3
Cl      -5.61085000      18.20622064       4.51776234       87        3
Cl       0.00000000      10.94861118       1.53740766       88        3
Cl      -7.35077458      15.19258286       4.51776234       89        3
Cl       1.73992459      13.96224896       1.53740766       90        3
Li      -1.95257580       9.71827727       6.05517000       91        1
Li       1.95257580       9.71827727       6.05517000       92        1
Li      -7.43998710      12.88643566       6.05517000       93        1
Li      -9.39256290      16.26839616       6.05517000       94        1
Li      -1.82913710      16.26839616       6.05517000       95        1
Li      -1.88524560       9.71827727       9.08275500       96        1
Li       1.88524560       9.71827727       9.08275500       97        1
Li      -7.47365220      12.94474533       9.08275500       98        1
Li      -9.35889780      16.21008649       9.08275500       99        1
Y       -5.61085000       9.71827727       6.05517000      100        2
Y       -5.61085561      16.19713203       9.08275500      101        2
Y        0.00000561      12.95769979       9.08275500      102        2
Cl      -9.31457208      18.33547373      10.79455156      103        3
Cl       3.70372209      10.81935809       7.37095844      104        3
Cl      -5.61085000      11.92043890      10.79455156      105        3
Cl       0.00000000      17.23439292       7.37095844      106        3
Cl      -1.90712791      18.33547373      10.79455156      107        3
Cl      -3.70372208      10.81935809       7.37095844      108        3
Cl      -7.62626732      17.36073052       7.60589904      109        3
Cl       2.01541732      11.79410130      10.55961096      110        3
Cl      -5.61085000      13.86992532       7.60589904      111        3
Cl       0.00000000      15.28490650      10.55961096      112        3
Cl      -3.59543268      17.36073052       7.60589904      113        3
Cl      -2.01541732      11.79410130      10.55961096      114        3
Cl      -3.87092541      15.19258286      10.57293234      115        3
Cl      -1.73992458      13.96224896       7.59257766      116        3
Cl      -5.61085000      18.20622064      10.57293234      117        3
Cl       0.00000000      10.94861118       7.59257766      118        3
Cl      -7.35077458      15.19258286      10.57293234      119        3
Cl       1.73992459      13.96224896       7.59257766      120        3
Li      14.87997420      -0.00000000       0.00000000      121        1
Li      18.78512580      -0.00000000       0.00000000      122        1
Li       9.39256290       3.16815839       0.00000000      123        1
Li       7.43998710       6.55011888       0.00000000      124        1
Li      15.00341290       6.55011888       0.00000000      125        1
Li      14.94730440      -0.00000000       3.02758500      126        1
Li      18.71779560      -0.00000000       3.02758500      127        1
Li       9.35889780       3.22646805       3.02758500      128        1
Li       7.47365220       6.49180922       3.02758500      129        1
Y       11.22170000      -0.00000000       0.00000000      130        2
Y       11.22169439       6.47885476       3.02758500      131        2
Y       16.83255561       3.23942252       3.02758500      132        2
Cl       7.51797792       8.61719646       4.73938156      133        3
Cl      20.53627209       1.10108082       1.31578844      134        3
Cl      11.22170000       2.20216163       4.73938156      135        3
Cl      16.83255000       7.51611564       1.31578844      136        3
Cl      14.92542209       8.61719646       4.73938156      137        3
Cl      13.12882792       1.10108082       1.31578844      138        3
Cl       9.20628268       7.64245325       1.55072904      139        3
Cl      18.84796732       2.07582403       4.50444096      140        3
Cl      11.22170000       4.15164805       1.55072904      141        3
Cl      16.83255000       5.56662922       4.50444096      142        3
Cl      13.23711732       7.64245325       1.55072904      143        3
Cl      14.81713268       2.07582403       4.50444096      144        3
Cl      12.96162459       5.47430559       4.51776234      145        3
Cl      15.09262542       4.24397169       1.53740766      146        3
Cl      11.22170000       8.48794337       4.51776234      147        3
Cl      16.83255000       1.23033390       1.53740766      148        3
Cl       9.48177542       5.47430559       4.51776234      149        3
Cl      18.57247459       4.24397169       1.53740766      150        3
Li      14.87997420      -0.00000000       6.05517000      151        1
Li      18.78512580      -0.00000000       6.05517000      152        1
Li       9.39256290       3.16815839       6.05517000      153        1
Li       7.43998710       6.55011888       6.05517000      154        1
Li      15.00341290       6.55011888       6.05517000      155        1
Li      14.94730440      -0.00000000       9.08275500      156        1
Li      18.71779560      -0.00000000       9.08275500      157        1
Li       9.35889780       3.22646805       9.08275500      158        1
Li       7.47365220       6.49180922       9.08275500      159        1
Y       11.22170000      -0.00000000       6.05517000      160        2
Y       11.22169439       6.47885476       9.08275500      161        2
Y       16.83255561       3.23942252       9.08275500      162        2
Cl       7.51797792       8.61719646      10.79455156      163        3
Cl      20.53627209       1.10108082       7.37095844      164        3
Cl      11.22170000       2.20216163      10.79455156      165        3
Cl      16.83255000       7.51611564       7.37095844      166        3
Cl      14.92542209       8.61719646      10.79455156      167        3
Cl      13.12882792       1.10108082       7.37095844      168        3
Cl       9.20628268       7.64245325       7.60589904      169        3
Cl      18.84796732       2.07582403      10.55961096      170        3
Cl      11.22170000       4.15164805       7.60589904      171        3
Cl      16.83255000       5.56662922      10.55961096      172        3
Cl      13.23711732       7.64245325       7.60589904      173        3
Cl      14.81713268       2.07582403      10.55961096      174        3
Cl      12.96162459       5.47430559      10.57293234      175        3
Cl      15.09262542       4.24397169       7.59257766      176        3
Cl      11.22170000       8.48794337      10.57293234      177        3
Cl      16.83255000       1.23033390       7.59257766      178        3
Cl       9.48177542       5.47430559      10.57293234      179        3
Cl      18.57247459       4.24397169       7.59257766      180        3
Li       9.26912420       9.71827727       0.00000000      181        1
Li      13.17427580       9.71827727       0.00000000      182        1
Li       3.78171290      12.88643566       0.00000000      183        1
Li       1.82913710      16.26839616       0.00000000      184        1
Li       9.39256290      16.26839616       0.00000000      185        1
Li       9.33645440       9.71827727       3.02758500      186        1
Li      13.10694560       9.71827727       3.02758500      187        1
Li       3.74804780      12.94474533       3.02758500      188        1
Li       1.86280220      16.21008649       3.02758500      189        1
Y        5.61085000       9.71827727       0.00000000      190        2
Y        5.61084439      16.19713203       3.02758500      191        2
Y       11.22170561      12.95769979       3.02758500      192        2
Cl       1.90712792      18.33547373       4.73938156      193        3
Cl      14.92542209      10.81935809       1.31578844      194        3
Cl       5.61085000      11.92043890       4.73938156      195        3
Cl      11.22170000      17.23439292       1.31578844      196        3
Cl       9.31457209      18.33547373       4.73938156      197        3
Cl       7.51797792      10.81935809       1.31578844      198        3
Cl       3.59543268      17.36073052       1.55072904      199        3
Cl      13.23711732      11.79410130       4.50444096      200        3
Cl       5.61085000      13.86992532       1.55072904      201        3
Cl      11.22170000      15.28490650       4.50444096      202        3
Cl       7.62626732      17.36073052       1.55072904      203        3
Cl       9.20628268      11.79410130       4.50444096      204        3
Cl       7.35077459      15.19258286       4.51776234      205        3
Cl       9.48177542      13.96224896       1.53740766      206        3
Cl       5.61085000      18.20622064       4.51776234      207        3
Cl      11.22170000      10.94861118       1.53740766      208        3
Cl       3.87092542      15.19258286       4.51776234      209        3
Cl      12.96162459      13.96224896       1.53740766      210        3
Li       9.26912420       9.71827727       6.05517000      211        1
Li      13.17427580       9.71827727       6.05517000      212        1
Li       3.78171290      12.88643566       6.05517000      213        1
Li       1.82913710      16.26839616       6.05517000      214        1
Li       9.39256290      16.26839616       6.05517000      215        1
Li       9.33645440       9.71827727       9.08275500      216        1
Li      13.10694560       9.71827727       9.08275500      217        1
Li       3.74804780      12.94474533       9.08275500      218        1
Li       1.86280220      16.21008649       9.08275500      219        1
Y        5.61085000       9.71827727       6.05517000      220        2
Y        5.61084439      16.19713203       9.08275500      221        2
Y       11.22170561      12.95769979       9.08275500      222        2
Cl       1.90712792      18.33547373      10.79455156      223        3
Cl      14.92542209      10.81935809       7.37095844      224        3
Cl       5.61085000      11.92043890      10.79455156      225        3
Cl      11.22170000      17.23439292       7.37095844      226        3
Cl       9.31457209      18.33547373      10.79455156      227        3
Cl       7.51797792      10.81935809       7.37095844      228        3
Cl       3.59543268      17.36073052       7.60589904      229        3
Cl      13.23711732      11.79410130      10.55961096      230        3
Cl       5.61085000      13.86992532       7.60589904      231        3
Cl      11.22170000      15.28490650      10.55961096      232        3
Cl       7.62626732      17.36073052       7.60589904      233        3
Cl       9.20628268      11.79410130      10.55961096      234        3
Cl       7.35077459      15.19258286      10.57293234      235        3
Cl       9.48177542      13.96224896       7.59257766      236        3
Cl       5.61085000      18.20622064      10.57293234      237        3
Cl      11.22170000      10.94861118       7.59257766      238        3
Cl       3.87092542      15.19258286      10.57293234      239        3
Cl      12.96162459      13.96224896       7.59257766      240        3
