240
Lattice="22.4434 0.0 0.0 -11.221699999999997 19.43655454729567 0.0 0.0 0.0 12.11034" Properties=species:S:1:pos:R:3 material=Li3YCl6 role="ordered 2x2x2 simulation input" display_name="Li₃YCl₆ — 240-atom ordered 2×2×2 initial structure" report_figures="01_Li3YCl6_three_model_MSD; 03_Li3YCl6_Arrhenius" pbc="T T T"
Li       3.65827420       0.00000000       0.00000000
Li       7.56342580       0.00000000       0.00000000
Li      -1.82913710       3.16815839       0.00000000
Li      -3.78171290       6.55011888       0.00000000
Li       3.78171290       6.55011888       0.00000000
Li       3.72560440       0.00000000       3.02758500
Li       7.49609560       0.00000000       3.02758500
Li      -1.86280220       3.22646805       3.02758500
Li       1.86280220       3.22646805       3.02758500
Y        0.00000000       0.00000000       0.00000000
Y       -0.00000561       6.47885476       3.02758500
Y        5.61085561       3.23942252       3.02758500
Cl      -3.70372208       8.61719646       4.73938156
Cl       9.31457209       1.10108082       1.31578844
Cl       0.00000000       2.20216163       4.73938156
Cl       5.61085000       7.51611564       1.31578844
Cl       3.70372209       8.61719646       4.73938156
Cl       1.90712791       1.10108082       1.31578844
Cl      -2.01541732       7.64245325       1.55072904
Cl       7.62626732       2.07582403       4.50444096
Cl       0.00000000       4.15164805       1.55072904
Cl       5.61085000       5.56662922       4.50444096
Cl       2.01541732       7.64245325       1.55072904
Cl       3.59543268       2.07582403       4.50444096
Cl       1.73992459       5.47430559       4.51776234
Cl       3.87092542       4.24397169       1.53740766
Cl       0.00000000       8.48794337       4.51776234
Cl       5.61085000       1.23033390       1.53740766
Cl      -1.73992458       5.47430559       4.51776234
Cl       7.35077459       4.24397169       1.53740766
Li       3.65827420       0.00000000       6.05517000
Li       7.56342580       0.00000000       6.05517000
Li      -1.82913710       3.16815839       6.05517000
Li      -3.78171290       6.55011888       6.05517000
Li       3.78171290       6.55011888       6.05517000
Li       3.72560440       0.00000000       9.08275500
Li       7.49609560       0.00000000       9.08275500
Li      -1.86280220       3.22646805       9.08275500
Li       1.86280220       3.22646805       9.08275500
Y        0.00000000       0.00000000       6.05517000
Y       -0.00000561       6.47885476       9.08275500
Y        5.61085561       3.23942252       9.08275500
Cl      -3.70372208       8.61719646      10.79455156
Cl       9.31457209       1.10108082       7.37095844
Cl       0.00000000       2.20216163      10.79455156
Cl       5.61085000       7.51611564       7.37095844
Cl       3.70372209       8.61719646      10.79455156
Cl       1.90712791       1.10108082       7.37095844
Cl      -2.01541732       7.64245325       7.60589904
Cl       7.62626732       2.07582403      10.55961096
Cl       0.00000000       4.15164805       7.60589904
Cl       5.61085000       5.56662922      10.55961096
Cl       2.01541732       7.64245325       7.60589904
Cl       3.59543268       2.07582403      10.55961096
Cl       1.73992459       5.47430559      10.57293234
Cl       3.87092542       4.24397169       7.59257766
Cl       0.00000000       8.48794337      10.57293234
Cl       5.61085000       1.23033390       7.59257766
Cl      -1.73992458       5.47430559      10.57293234
Cl       7.35077459       4.24397169       7.59257766
Li      -1.95257580       9.71827727       0.00000000
Li       1.95257580       9.71827727       0.00000000
Li      -7.43998710      12.88643566       0.00000000
Li      -9.39256290      16.26839616       0.00000000
Li      -1.82913710      16.26839616       0.00000000
Li      -1.88524560       9.71827727       3.02758500
Li       1.88524560       9.71827727       3.02758500
Li      -7.47365220      12.94474533       3.02758500
Li      -3.74804780      12.94474533       3.02758500
Y       -5.61085000       9.71827727       0.00000000
Y       -5.61085561      16.19713203       3.02758500
Y        0.00000561      12.95769979       3.02758500
Cl      -9.31457208      18.33547373       4.73938156
Cl       3.70372209      10.81935809       1.31578844
Cl      -5.61085000      11.92043890       4.73938156
Cl       0.00000000      17.23439292       1.31578844
Cl      -1.90712791      18.33547373       4.73938156
Cl      -3.70372208      10.81935809       1.31578844
Cl      -7.62626732      17.36073052       1.55072904
Cl       2.01541732      11.79410130       4.50444096
Cl      -5.61085000      13.86992532       1.55072904
Cl       0.00000000      15.28490650       4.50444096
Cl      -3.59543268      17.36073052       1.55072904
Cl      -2.01541732      11.79410130       4.50444096
Cl      -3.87092541      15.19258286       4.51776234
Cl      -1.73992458      13.96224896       1.53740766
Cl      -5.61085000      18.20622064       4.51776234
Cl       0.00000000      10.94861118       1.53740766
Cl      -7.35077458      15.19258286       4.51776234
Cl       1.73992459      13.96224896       1.53740766
Li      -1.95257580       9.71827727       6.05517000
Li       1.95257580       9.71827727       6.05517000
Li      -7.43998710      12.88643566       6.05517000
Li      -9.39256290      16.26839616       6.05517000
Li      -1.82913710      16.26839616       6.05517000
Li      -1.88524560       9.71827727       9.08275500
Li       1.88524560       9.71827727       9.08275500
Li      -7.47365220      12.94474533       9.08275500
Li      -3.74804780      12.94474533       9.08275500
Y       -5.61085000       9.71827727       6.05517000
Y       -5.61085561      16.19713203       9.08275500
Y        0.00000561      12.95769979       9.08275500
Cl      -9.31457208      18.33547373      10.79455156
Cl       3.70372209      10.81935809       7.37095844
Cl      -5.61085000      11.92043890      10.79455156
Cl       0.00000000      17.23439292       7.37095844
Cl      -1.90712791      18.33547373      10.79455156
Cl      -3.70372208      10.81935809       7.37095844
Cl      -7.62626732      17.36073052       7.60589904
Cl       2.01541732      11.79410130      10.55961096
Cl      -5.61085000      13.86992532       7.60589904
Cl       0.00000000      15.28490650      10.55961096
Cl      -3.59543268      17.36073052       7.60589904
Cl      -2.01541732      11.79410130      10.55961096
Cl      -3.87092541      15.19258286      10.57293234
Cl      -1.73992458      13.96224896       7.59257766
Cl      -5.61085000      18.20622064      10.57293234
Cl       0.00000000      10.94861118       7.59257766
Cl      -7.35077458      15.19258286      10.57293234
Cl       1.73992459      13.96224896       7.59257766
Li      14.87997420       0.00000000       0.00000000
Li      18.78512580       0.00000000       0.00000000
Li       9.39256290       3.16815839       0.00000000
Li       7.43998710       6.55011888       0.00000000
Li      15.00341290       6.55011888       0.00000000
Li      14.94730440       0.00000000       3.02758500
Li      18.71779560       0.00000000       3.02758500
Li       9.35889780       3.22646805       3.02758500
Li      13.08450220       3.22646805       3.02758500
Y       11.22170000       0.00000000       0.00000000
Y       11.22169439       6.47885476       3.02758500
Y       16.83255561       3.23942252       3.02758500
Cl       7.51797792       8.61719646       4.73938156
Cl      20.53627209       1.10108082       1.31578844
Cl      11.22170000       2.20216163       4.73938156
Cl      16.83255000       7.51611564       1.31578844
Cl      14.92542209       8.61719646       4.73938156
Cl      13.12882791       1.10108082       1.31578844
Cl       9.20628268       7.64245325       1.55072904
Cl      18.84796732       2.07582403       4.50444096
Cl      11.22170000       4.15164805       1.55072904
Cl      16.83255000       5.56662922       4.50444096
Cl      13.23711732       7.64245325       1.55072904
Cl      14.81713268       2.07582403       4.50444096
Cl      12.96162458       5.47430559       4.51776234
Cl      15.09262542       4.24397169       1.53740766
Cl      11.22170000       8.48794337       4.51776234
Cl      16.83255000       1.23033390       1.53740766
Cl       9.48177542       5.47430559       4.51776234
Cl      18.57247458       4.24397169       1.53740766
Li      14.87997420       0.00000000       6.05517000
Li      18.78512580       0.00000000       6.05517000
Li       9.39256290       3.16815839       6.05517000
Li       7.43998710       6.55011888       6.05517000
Li      15.00341290       6.55011888       6.05517000
Li      14.94730440       0.00000000       9.08275500
Li      18.71779560       0.00000000       9.08275500
Li       9.35889780       3.22646805       9.08275500
Li      13.08450220       3.22646805       9.08275500
Y       11.22170000       0.00000000       6.05517000
Y       11.22169439       6.47885476       9.08275500
Y       16.83255561       3.23942252       9.08275500
Cl       7.51797792       8.61719646      10.79455156
Cl      20.53627209       1.10108082       7.37095844
Cl      11.22170000       2.20216163      10.79455156
Cl      16.83255000       7.51611564       7.37095844
Cl      14.92542209       8.61719646      10.79455156
Cl      13.12882791       1.10108082       7.37095844
Cl       9.20628268       7.64245325       7.60589904
Cl      18.84796732       2.07582403      10.55961096
Cl      11.22170000       4.15164805       7.60589904
Cl      16.83255000       5.56662922      10.55961096
Cl      13.23711732       7.64245325       7.60589904
Cl      14.81713268       2.07582403      10.55961096
Cl      12.96162458       5.47430559      10.57293234
Cl      15.09262542       4.24397169       7.59257766
Cl      11.22170000       8.48794337      10.57293234
Cl      16.83255000       1.23033390       7.59257766
Cl       9.48177542       5.47430559      10.57293234
Cl      18.57247458       4.24397169       7.59257766
Li       9.26912420       9.71827727       0.00000000
Li      13.17427580       9.71827727       0.00000000
Li       3.78171290      12.88643566       0.00000000
Li       1.82913710      16.26839616       0.00000000
Li       9.39256290      16.26839616       0.00000000
Li       9.33645440       9.71827727       3.02758500
Li      13.10694560       9.71827727       3.02758500
Li       3.74804780      12.94474533       3.02758500
Li       7.47365220      12.94474533       3.02758500
Y        5.61085000       9.71827727       0.00000000
Y        5.61084439      16.19713203       3.02758500
Y       11.22170561      12.95769979       3.02758500
Cl       1.90712792      18.33547373       4.73938156
Cl      14.92542209      10.81935809       1.31578844
Cl       5.61085000      11.92043890       4.73938156
Cl      11.22170000      17.23439292       1.31578844
Cl       9.31457209      18.33547373       4.73938156
Cl       7.51797792      10.81935809       1.31578844
Cl       3.59543268      17.36073052       1.55072904
Cl      13.23711732      11.79410130       4.50444096
Cl       5.61085000      13.86992532       1.55072904
Cl      11.22170000      15.28490650       4.50444096
Cl       7.62626732      17.36073052       1.55072904
Cl       9.20628268      11.79410130       4.50444096
Cl       7.35077458      15.19258286       4.51776234
Cl       9.48177542      13.96224896       1.53740766
Cl       5.61085000      18.20622064       4.51776234
Cl      11.22170000      10.94861118       1.53740766
Cl       3.87092542      15.19258286       4.51776234
Cl      12.96162459      13.96224896       1.53740766
Li       9.26912420       9.71827727       6.05517000
Li      13.17427580       9.71827727       6.05517000
Li       3.78171290      12.88643566       6.05517000
Li       1.82913710      16.26839616       6.05517000
Li       9.39256290      16.26839616       6.05517000
Li       9.33645440       9.71827727       9.08275500
Li      13.10694560       9.71827727       9.08275500
Li       3.74804780      12.94474533       9.08275500
Li       7.47365220      12.94474533       9.08275500
Y        5.61085000       9.71827727       6.05517000
Y        5.61084439      16.19713203       9.08275500
Y       11.22170561      12.95769979       9.08275500
Cl       1.90712792      18.33547373      10.79455156
Cl      14.92542209      10.81935809       7.37095844
Cl       5.61085000      11.92043890      10.79455156
Cl      11.22170000      17.23439292       7.37095844
Cl       9.31457209      18.33547373      10.79455156
Cl       7.51797792      10.81935809       7.37095844
Cl       3.59543268      17.36073052       7.60589904
Cl      13.23711732      11.79410130      10.55961096
Cl       5.61085000      13.86992532       7.60589904
Cl      11.22170000      15.28490650      10.55961096
Cl       7.62626732      17.36073052       7.60589904
Cl       9.20628268      11.79410130      10.55961096
Cl       7.35077458      15.19258286      10.57293234
Cl       9.48177542      13.96224896       7.59257766
Cl       5.61085000      18.20622064      10.57293234
Cl      11.22170000      10.94861118       7.59257766
Cl       3.87092542      15.19258286      10.57293234
Cl      12.96162459      13.96224896       7.59257766
