LAMMPS (10 Sep 2025)
KOKKOS mode with Kokkos version 4.6.2 is enabled
  using double precision
  using view layout = legacy
  will use up to 1 GPU(s) per node
  using 1 OpenMP thread(s) per MPI task
package kokkos
package kokkos newton on neigh half
# Two literature-derived candidates; geometry and MACE validity require checking.
# No transport production and no automatic scientific acceptance.
units metal
atom_style atomic
boundary p p p
atom_modify map yes
read_data input.data
Reading data file ...
  triclinic box = (0 0 0) to (24.909354 21.815299 9.6193019) with tilt (0.40926159 0.019207506 5.7044945)
WARNING: Triclinic box skew is large. LAMMPS will run inefficiently. (src/domain.cpp:221)
  1 by 1 by 1 MPI processor grid
  reading atoms ...
  192 atoms
  read_data CPU = 0.021 seconds
pair_style mliap unified ${model} 0
pair_style mliap unified /gs/fs/tgj-26ICP/uf03782/yang/li-research/models/mace/mace-mpa-0-medium.model-mliap_lammps.pt 0
pair_coeff * * Li Zr O Cl
neighbor 2.0 bin
neigh_modify delay 0 every 1 check yes
min_style cg/kk
minimize 0 0.01 10000 30000
Neighbor list info ...
  update: every = 1 steps, delay = 0 steps, check = yes
  max neighbors/atom: 2000, page size: 100000
  master list distance cutoff = 8
  ghost atom cutoff = 8
  binsize = 8, bins = 4 4 2
  1 neighbor lists, perpetual/occasional/extra = 1 0 0
  (1) pair mliap/kk, perpetual
      attributes: full, newton on, kokkos_device
      pair build: full/bin/kk/device
      stencil: full/bin/3d
      bin: kk/device
WARNING: Fix MINIMIZE/kk not compatible with sending data in Kokkos communication (src/KOKKOS/comm_kokkos.cpp:741)
WARNING: Fix with atom-based arrays not compatible with sending data in Kokkos communication, switching to legacy exchange/border communication (src/KOKKOS/comm_kokkos.cpp:754)
WARNING: Fix MINIMIZE/kk not compatible with Kokkos sorting on device (src/KOKKOS/atom_kokkos.cpp:217)
WARNING: Fix with atom-based arrays not compatible with Kokkos sorting on device, switching to legacy host sorting (src/KOKKOS/atom_kokkos.cpp:223)
Per MPI rank memory allocation (min/avg/max) = 42.64 | 42.64 | 42.64 Mbytes
   Step          Temp          E_pair         E_mol          TotEng         Press     
         0   0             -882.93198      0             -882.93198     -10601.168    
      1113   0             -909.46166      0             -909.46166      2232.239     
Loop time of 61.7512 on 1 procs for 1113 steps with 192 atoms

99.0% CPU use with 1 MPI tasks x 1 OpenMP threads

Minimization stats:
  Stopping criterion = force tolerance
  Energy initial, next-to-last, final = 
     -882.931984482101  -909.461653602353  -909.461656996585
  Force two-norm initial, final = 13.252638 0.0093394625
  Force max component initial, final = 3.0377604 0.0027774734
  Final line search alpha, max atom move = 1 0.0027774734
  Iterations, force evaluations = 1113 2196

MPI task timing breakdown:
Section |  min time  |  avg time  |  max time  |%varavg| %total
---------------------------------------------------------------
Pair    | 61.315     | 61.315     | 61.315     |   0.0 | 99.29
Neigh   | 0.0049556  | 0.0049556  | 0.0049556  |   0.0 |  0.01
Comm    | 0.066528   | 0.066528   | 0.066528   |   0.0 |  0.11
Output  | 0          | 0          | 0          |   0.0 |  0.00
Modify  | 0          | 0          | 0          |   0.0 |  0.00
Other   |            | 0.3648     |            |       |  0.59

Nlocal:            192 ave         192 max         192 min
Histogram: 1 0 0 0 0 0 0 0 0 0
Nghost:           1329 ave        1329 max        1329 min
Histogram: 1 0 0 0 0 0 0 0 0 0
Neighs:              0 ave           0 max           0 min
Histogram: 1 0 0 0 0 0 0 0 0 0
FullNghs:        15070 ave       15070 max       15070 min
Histogram: 1 0 0 0 0 0 0 0 0 0

Total # of neighbors = 15070
Ave neighs/atom = 78.489583
Neighbor list builds = 18
Dangerous builds = 0
write_data initial_minimized.data
System init for write_data ...
velocity all create 1500 20260911 mom yes rot yes dist gaussian
reset_timestep 0
timestep 0.0005
thermo 100
thermo_style custom step time atoms temp pe ke etotal press vol density lx ly lz fmax
thermo_modify flush yes lost error
dump traj all custom 100 candidate.lammpstrj id type element x y z xu yu zu ix iy iz
dump_modify traj element Li Zr O Cl sort id
restart 20000 checkpoint.a.restart checkpoint.b.restart
# 0–10 ps: high-temperature mixing; new thermal velocities after initial minimization.
fix mix all nvt temp 1500 1500 0.1
run 20000
Per MPI rank memory allocation (min/avg/max) = 47.2 | 47.2 | 47.2 Mbytes
   Step          Time         Atoms         Temp          PotEng         KinEng         TotEng         Press          Volume        Density           Lx             Ly             Lz            Fmax     
         0   0                    192   1500          -909.46166      37.033032     -872.42863      9799.5427      5227.1769      2.1329099      24.909354      21.815299      9.6193019      0.0027774734 
       100   0.05                 192   794.12022     -890.67138      19.605786     -871.0656       3345.5617      5227.1769      2.1329099      24.909354      21.815299      9.6193019      3.3484904    
       200   0.1                  192   832.43788     -888.80544      20.551799     -868.25365      17468.357      5227.1769      2.1329099      24.909354      21.815299      9.6193019      3.9759856    
       300   0.15                 192   846.50268     -885.77904      20.89904      -864.88         9275.8957      5227.1769      2.1329099      24.909354      21.815299      9.6193019      3.0830517    
       400   0.2                  192   1012.4575     -885.68457      24.996248     -860.68832      16263.731      5227.1769      2.1329099      24.909354      21.815299      9.6193019      3.7440428    
       500   0.25                 192   1004.9156     -880.97655      24.810048     -856.1665       12047.115      5227.1769      2.1329099      24.909354      21.815299      9.6193019      3.2452004    
       600   0.3                  192   1093.0359     -878.34967      26.985623     -851.36405      19422.463      5227.1769      2.1329099      24.909354      21.815299      9.6193019      7.2253767    
       700   0.35                 192   1153.6408     -875.06146      28.481876     -846.57959      16306.606      5227.1769      2.1329099      24.909354      21.815299      9.6193019      3.8426644    
       800   0.4                  192   1435.9101     -876.86269      35.450735     -841.41195      14008.944      5227.1769      2.1329099      24.909354      21.815299      9.6193019      3.0791733    
       900   0.45                 192   1432.73       -872.37504      35.372224     -837.00282      19343.615      5227.1769      2.1329099      24.909354      21.815299      9.6193019      3.1209149    
      1000   0.5                  192   1511.9782     -870.29754      37.328758     -832.96879      22700.638      5227.1769      2.1329099      24.909354      21.815299      9.6193019      4.0315922    
      1100   0.55                 192   1567.2654     -868.05733      38.693725     -829.36361      16886.14       5227.1769      2.1329099      24.909354      21.815299      9.6193019      5.8163203    
      1200   0.6                  192   1580.8917     -865.8389       39.030142     -826.80876      22041.315      5227.1769      2.1329099      24.909354      21.815299      9.6193019      4.6970521    
      1300   0.65                 192   1615.8904     -865.17252      39.894214     -825.2783       25303.262      5227.1769      2.1329099      24.909354      21.815299      9.6193019      4.5275727    
      1400   0.7                  192   1459.2772     -861.4071       36.027638     -825.37946      24043.079      5227.1769      2.1329099      24.909354      21.815299      9.6193019      6.2677781    
      1500   0.75                 192   1621.1774     -866.42085      40.024743     -826.3961       19001.408      5227.1769      2.1329099      24.909354      21.815299      9.6193019      5.3286476    
      1600   0.8                  192   1545.5979     -866.88477      38.158783     -828.72599      13380.34       5227.1769      2.1329099      24.909354      21.815299      9.6193019      4.6652885    
      1700   0.85                 192   1572.8846     -869.94454      38.832456     -831.11208      19187.097      5227.1769      2.1329099      24.909354      21.815299      9.6193019      4.0498119    
      1800   0.9                  192   1443.189      -868.48457      35.630443     -832.85412      15703.289      5227.1769      2.1329099      24.909354      21.815299      9.6193019      3.3651448    
      1900   0.95                 192   1467.3116     -870.02784      36.225997     -833.80185      21265.432      5227.1769      2.1329099      24.909354      21.815299      9.6193019      5.2652547    
      2000   1                    192   1389.131      -868.37276      34.295823     -834.07694      13836.231      5227.1769      2.1329099      24.909354      21.815299      9.6193019      4.0866679    
      2100   1.05                 192   1453.4972     -869.20349      35.884939     -833.31855      26179.211      5227.1769      2.1329099      24.909354      21.815299      9.6193019      7.706011     
      2200   1.1                  192   1379.9435     -866.33587      34.068994     -832.26688      16854.693      5227.1769      2.1329099      24.909354      21.815299      9.6193019      4.0048136    
      2300   1.15                 192   1566.1049     -868.84132      38.665074     -830.17625      21774.477      5227.1769      2.1329099      24.909354      21.815299      9.6193019      3.067473     
      2400   1.2                  192   1550.3452     -866.64945      38.275987     -828.37346      18706.032      5227.1769      2.1329099      24.909354      21.815299      9.6193019      3.8150167    
      2500   1.25                 192   1675.6127     -868.80679      41.36868      -827.43811      19060.302      5227.1769      2.1329099      24.909354      21.815299      9.6193019      3.777986     
      2600   1.3                  192   1563.6454     -866.64957      38.604354     -828.04522      24296.115      5227.1769      2.1329099      24.909354      21.815299      9.6193019      4.3186779    
      2700   1.35                 192   1488.804      -866.55756      36.756616     -829.80094      25448.674      5227.1769      2.1329099      24.909354      21.815299      9.6193019      4.0529279    
      2800   1.4                  192   1535.97       -869.66186      37.921085     -831.74078      18883.887      5227.1769      2.1329099      24.909354      21.815299      9.6193019      3.8120345    
      2900   1.45                 192   1419.268      -868.66754      35.039865     -833.62768      20925.631      5227.1769      2.1329099      24.909354      21.815299      9.6193019      4.5313329    
      3000   1.5                  192   1328.1634     -867.70537      32.790611     -834.91476      18036.246      5227.1769      2.1329099      24.909354      21.815299      9.6193019      3.7492276    
      3100   1.55                 192   1410.8083     -869.81334      34.831006     -834.98233      24365.927      5227.1769      2.1329099      24.909354      21.815299      9.6193019      4.6349544    
      3200   1.6                  192   1519.5015     -871.42382      37.514499     -833.90932      21427.872      5227.1769      2.1329099      24.909354      21.815299      9.6193019      5.6357982    
      3300   1.65                 192   1523.2516     -869.64149      37.607084     -832.03441      19001.374      5227.1769      2.1329099      24.909354      21.815299      9.6193019      3.0271655    
      3400   1.7                  192   1451.298      -865.58973      35.830644     -829.75908      13164.137      5227.1769      2.1329099      24.909354      21.815299      9.6193019      3.7816758    
      3500   1.75                 192   1673.7801     -869.42492      41.323433     -828.10149      19152.577      5227.1769      2.1329099      24.909354      21.815299      9.6193019      4.1547428    
      3600   1.8                  192   1567.1775     -866.6795       38.691555     -827.98795      24745.835      5227.1769      2.1329099      24.909354      21.815299      9.6193019      3.3960714    
      3700   1.85                 192   1592.2822     -867.94425      39.311359     -828.63289      21503.448      5227.1769      2.1329099      24.909354      21.815299      9.6193019      3.3389707    
      3800   1.9                  192   1513.7859     -867.58399      37.373386     -830.2106       16819.805      5227.1769      2.1329099      24.909354      21.815299      9.6193019      4.3159603    
      3900   1.95                 192   1371.9606     -865.998        33.871907     -832.12609      19631.918      5227.1769      2.1329099      24.909354      21.815299      9.6193019      4.7261602    
      4000   2                    192   1549.446      -871.09106      38.253789     -832.83727      15811.178      5227.1769      2.1329099      24.909354      21.815299      9.6193019      3.0066764    
      4100   2.05                 192   1434.3373     -868.62125      35.411907     -833.20935      20504.342      5227.1769      2.1329099      24.909354      21.815299      9.6193019      4.2515679    
      4200   2.1                  192   1425.1461     -868.44646      35.184986     -833.26147      18669.746      5227.1769      2.1329099      24.909354      21.815299      9.6193019      3.2744628    
      4300   2.15                 192   1459.9343     -868.80325      36.043861     -832.75939      14163.791      5227.1769      2.1329099      24.909354      21.815299      9.6193019      3.233831     
      4400   2.2                  192   1484.6253     -868.48028      36.65345      -831.82683      19822.375      5227.1769      2.1329099      24.909354      21.815299      9.6193019      5.1163021    
      4500   2.25                 192   1455.9568     -866.64972      35.945662     -830.70406      16298.685      5227.1769      2.1329099      24.909354      21.815299      9.6193019      4.2165763    
      4600   2.3                  192   1446.0825     -864.98413      35.701879     -829.28225      21483.842      5227.1769      2.1329099      24.909354      21.815299      9.6193019      5.4434809    
      4700   2.35                 192   1607.8944     -867.47816      39.696802     -827.78136      22152.671      5227.1769      2.1329099      24.909354      21.815299      9.6193019      4.4497737    
      4800   2.4                  192   1524.901      -864.67922      37.647804     -827.03141      18440.563      5227.1769      2.1329099      24.909354      21.815299      9.6193019      4.1625758    
      4900   2.45                 192   1576.4442     -866.15713      38.920337     -827.23679      17877.088      5227.1769      2.1329099      24.909354      21.815299      9.6193019      5.2989843    
      5000   2.5                  192   1515.2295     -867.17434      37.409027     -829.76531      16989.792      5227.1769      2.1329099      24.909354      21.815299      9.6193019      3.2021872    
      5100   2.55                 192   1442.5546     -869.23411      35.61478      -833.61933      18187.073      5227.1769      2.1329099      24.909354      21.815299      9.6193019      4.7930805    
      5200   2.6                  192   1355.5557     -868.57695      33.466892     -835.11005      15563.116      5227.1769      2.1329099      24.909354      21.815299      9.6193019      4.2725164    
      5300   2.65                 192   1426.6104     -870.26297      35.221137     -835.04183      18510.569      5227.1769      2.1329099      24.909354      21.815299      9.6193019      3.687687     
      5400   2.7                  192   1395.3215     -869.02399      34.448657     -834.57534      22160.106      5227.1769      2.1329099      24.909354      21.815299      9.6193019      5.0837526    
      5500   2.75                 192   1437.9516     -868.86456      35.501138     -833.36342      14519.64       5227.1769      2.1329099      24.909354      21.815299      9.6193019      5.6754845    
      5600   2.8                  192   1606.0243     -870.95009      39.650632     -831.29946      30589.083      5227.1769      2.1329099      24.909354      21.815299      9.6193019      4.6298145    
      5700   2.85                 192   1360.0656     -863.80699      33.578235     -830.22876      6535.6143      5227.1769      2.1329099      24.909354      21.815299      9.6193019      4.7718216    
      5800   2.9                  192   1525.1768     -866.062        37.654614     -828.40739      26629.581      5227.1769      2.1329099      24.909354      21.815299      9.6193019      4.8884856    
      5900   2.95                 192   1643.7599     -867.28876      40.582274     -826.70649      12443.992      5227.1769      2.1329099      24.909354      21.815299      9.6193019      3.4841992    
      6000   3                    192   1488.1708     -862.98258      36.740983     -826.2416       18819.671      5227.1769      2.1329099      24.909354      21.815299      9.6193019      4.9759743    
      6100   3.05                 192   1519.7188     -863.62038      37.519862     -826.10052      25398.712      5227.1769      2.1329099      24.909354      21.815299      9.6193019      5.3148028    
      6200   3.1                  192   1562.7833     -865.61017      38.583069     -827.0271       19455.783      5227.1769      2.1329099      24.909354      21.815299      9.6193019      4.5169525    
      6300   3.15                 192   1499.8747     -866.83626      37.029939     -829.80632      14681.663      5227.1769      2.1329099      24.909354      21.815299      9.6193019      4.224928     
      6400   3.2                  192   1441.1966     -867.57467      35.581253     -831.99342      18377.067      5227.1769      2.1329099      24.909354      21.815299      9.6193019      5.4223422    
      6500   3.25                 192   1347.8169     -866.20388      33.275831     -832.92805      23268.58       5227.1769      2.1329099      24.909354      21.815299      9.6193019      4.1295877    
      6600   3.3                  192   1448.884      -868.36109      35.771046     -832.59005      19059.507      5227.1769      2.1329099      24.909354      21.815299      9.6193019      6.3745353    
      6700   3.35                 192   1548.8994     -869.86161      38.240295     -831.62132      16006.86       5227.1769      2.1329099      24.909354      21.815299      9.6193019      3.8912773    
      6800   3.4                  192   1323.4674     -863.12775      32.674673     -830.45308      15542.681      5227.1769      2.1329099      24.909354      21.815299      9.6193019      4.8425217    
      6900   3.45                 192   1496.1895     -864.74903      36.938956     -827.81008      21309.309      5227.1769      2.1329099      24.909354      21.815299      9.6193019      5.0624711    
      7000   3.5                  192   1591.0554     -865.17373      39.281071     -825.89266      20472.487      5227.1769      2.1329099      24.909354      21.815299      9.6193019      9.3739435    
      7100   3.55                 192   1631.8016     -865.94936      40.287039     -825.66232      15312.204      5227.1769      2.1329099      24.909354      21.815299      9.6193019      6.5232425    
      7200   3.6                  192   1532.6517     -864.30751      37.83916      -826.46835      19931.049      5227.1769      2.1329099      24.909354      21.815299      9.6193019      5.4363394    
      7300   3.65                 192   1561.5534     -866.29868      38.552705     -827.74597      17478.99       5227.1769      2.1329099      24.909354      21.815299      9.6193019      6.0877636    
      7400   3.7                  192   1601.1673     -869.56152      39.530719     -830.0308       16245.944      5227.1769      2.1329099      24.909354      21.815299      9.6193019      5.8324919    
      7500   3.75                 192   1532.8117     -869.71873      37.84311      -831.87562      19002.711      5227.1769      2.1329099      24.909354      21.815299      9.6193019      8.95428      
      7600   3.8                  192   1459.1061     -868.36123      36.023415     -832.33781      13848.562      5227.1769      2.1329099      24.909354      21.815299      9.6193019      3.8961747    
      7700   3.85                 192   1435.0792     -867.60577      35.430221     -832.17555      21876.664      5227.1769      2.1329099      24.909354      21.815299      9.6193019      7.5014066    
      7800   3.9                  192   1526.7386     -869.30388      37.693173     -831.61071      19736.685      5227.1769      2.1329099      24.909354      21.815299      9.6193019      7.798005     
      7900   3.95                 192   1557.9648     -869.61374      38.464107     -831.14964      17705.457      5227.1769      2.1329099      24.909354      21.815299      9.6193019      7.5100567    
      8000   4                    192   1439.4406     -866.51528      35.537899     -830.97738      20288.498      5227.1769      2.1329099      24.909354      21.815299      9.6193019      3.9625381    
      8100   4.05                 192   1456.9794     -865.79006      35.97091      -829.81915      15098.8        5227.1769      2.1329099      24.909354      21.815299      9.6193019      4.2669428    
      8200   4.1                  192   1676.8409     -868.28502      41.399        -826.88602      19107.47       5227.1769      2.1329099      24.909354      21.815299      9.6193019      4.417175     
      8300   4.15                 192   1553.4254     -863.11803      38.352035     -824.766        14562.11       5227.1769      2.1329099      24.909354      21.815299      9.6193019      4.2266578    
      8400   4.2                  192   1544.1468     -862.11383      38.122959     -823.99087      19789.884      5227.1769      2.1329099      24.909354      21.815299      9.6193019      4.097921     
      8500   4.25                 192   1676.0427     -866.59157      41.379294     -825.21227      24374.184      5227.1769      2.1329099      24.909354      21.815299      9.6193019      3.4231999    
      8600   4.3                  192   1669.4004     -868.90439      41.215305     -827.68909      9527.8697      5227.1769      2.1329099      24.909354      21.815299      9.6193019      4.8662447    
      8700   4.35                 192   1516.236      -867.14176      37.433878     -829.70789      22065.68       5227.1769      2.1329099      24.909354      21.815299      9.6193019      5.1423127    
      8800   4.4                  192   1524.966      -868.1732       37.649409     -830.52379      14559.5        5227.1769      2.1329099      24.909354      21.815299      9.6193019      2.9945714    
      8900   4.45                 192   1415.8639     -866.14211      34.955822     -831.18628      19278.296      5227.1769      2.1329099      24.909354      21.815299      9.6193019      4.5181784    
      9000   4.5                  192   1388.645      -865.59229      34.283823     -831.30847      20750.115      5227.1769      2.1329099      24.909354      21.815299      9.6193019      4.009631     
      9100   4.55                 192   1558.6066     -869.1596       38.479952     -830.67965      24942.777      5227.1769      2.1329099      24.909354      21.815299      9.6193019      3.5914321    
      9200   4.6                  192   1416.4876     -864.69246      34.971219     -829.72124      12921.48       5227.1769      2.1329099      24.909354      21.815299      9.6193019      3.0303179    
      9300   4.65                 192   1526.8628     -865.62735      37.696238     -827.93111      19779.284      5227.1769      2.1329099      24.909354      21.815299      9.6193019      3.8840915    
      9400   4.7                  192   1582.1881     -865.31301      39.062148     -826.25086      20910.948      5227.1769      2.1329099      24.909354      21.815299      9.6193019      4.2170594    
      9500   4.75                 192   1676.2979     -867.05767      41.385596     -825.67208      21330.565      5227.1769      2.1329099      24.909354      21.815299      9.6193019      3.7371398    
      9600   4.8                  192   1464.5257     -863.03683      36.157218     -826.87961      14899.871      5227.1769      2.1329099      24.909354      21.815299      9.6193019      3.6886096    
      9700   4.85                 192   1468.2179     -865.45959      36.248372     -829.21121      18670.881      5227.1769      2.1329099      24.909354      21.815299      9.6193019      3.4219518    
      9800   4.9                  192   1446.3552     -867.48546      35.708613     -831.77684      18764.101      5227.1769      2.1329099      24.909354      21.815299      9.6193019      4.1266637    
      9900   4.95                 192   1332.584      -866.24717      32.899749     -833.34742      12777.023      5227.1769      2.1329099      24.909354      21.815299      9.6193019      4.6601039    
     10000   5                    192   1399.2566     -867.49846      34.545808     -832.95265      11855.453      5227.1769      2.1329099      24.909354      21.815299      9.6193019      3.6109378    
     10100   5.05                 192   1521.2276     -868.91173      37.557114     -831.35461      14729.423      5227.1769      2.1329099      24.909354      21.815299      9.6193019      4.4866098    
     10200   5.1                  192   1517.1889     -867.48122      37.457404     -830.02382      20366.078      5227.1769      2.1329099      24.909354      21.815299      9.6193019      3.5948784    
     10300   5.15                 192   1505.0509     -866.47261      37.157732     -829.31487      18190.472      5227.1769      2.1329099      24.909354      21.815299      9.6193019      4.5445197    
     10400   5.2                  192   1476.9746     -865.5589       36.464565     -829.09434      22410.725      5227.1769      2.1329099      24.909354      21.815299      9.6193019      4.6474618    
     10500   5.25                 192   1384.9677     -862.99016      34.193035     -828.79713      18524.42       5227.1769      2.1329099      24.909354      21.815299      9.6193019      4.7437026    
     10600   5.3                  192   1530.4631     -866.04754      37.785125     -828.26242      19869.696      5227.1769      2.1329099      24.909354      21.815299      9.6193019      3.7435713    
     10700   5.35                 192   1629.0075     -868.2979       40.218057     -828.07984      14765.336      5227.1769      2.1329099      24.909354      21.815299      9.6193019      4.4693298    
     10800   5.4                  192   1424.7063     -864.0293       35.174129     -828.85517      18574.67       5227.1769      2.1329099      24.909354      21.815299      9.6193019      4.9730626    
     10900   5.45                 192   1494.8172     -866.56515      36.905074     -829.66008      13000.125      5227.1769      2.1329099      24.909354      21.815299      9.6193019      3.2694048    
     11000   5.5                  192   1393.3385     -865.60272      34.3997       -831.20302      18086.691      5227.1769      2.1329099      24.909354      21.815299      9.6193019      3.9818459    
     11100   5.55                 192   1525.3699     -870.64528      37.65938      -832.9859       20207.872      5227.1769      2.1329099      24.909354      21.815299      9.6193019      3.3166869    
     11200   5.6                  192   1520.5417     -872.75012      37.54018      -835.20994      16257.11       5227.1769      2.1329099      24.909354      21.815299      9.6193019      4.0284233    
     11300   5.65                 192   1278.5365     -868.32975      31.565387     -836.76436      22626.624      5227.1769      2.1329099      24.909354      21.815299      9.6193019      4.2600134    
     11400   5.7                  192   1408.1208     -871.06017      34.764655     -836.29551      10174.5        5227.1769      2.1329099      24.909354      21.815299      9.6193019      5.0935468    
     11500   5.75                 192   1504.0922     -871.29986      37.134062     -834.1658       18311.633      5227.1769      2.1329099      24.909354      21.815299      9.6193019      4.530134     
     11600   5.8                  192   1628.1286     -871.47223      40.196358     -831.27587      17648.74       5227.1769      2.1329099      24.909354      21.815299      9.6193019      3.9674887    
     11700   5.85                 192   1579.8453     -868.88646      39.004308     -829.88215      21077.588      5227.1769      2.1329099      24.909354      21.815299      9.6193019      5.0955604    
     11800   5.9                  192   1570.6226     -868.62698      38.776611     -829.85037      19386.261      5227.1769      2.1329099      24.909354      21.815299      9.6193019      4.3344311    
     11900   5.95                 192   1594.614      -870.11789      39.368926     -830.74897      23543.929      5227.1769      2.1329099      24.909354      21.815299      9.6193019      5.2239937    
     12000   6                    192   1480.4112     -868.8341       36.549409     -832.28469      12095.324      5227.1769      2.1329099      24.909354      21.815299      9.6193019      5.5429156    
     12100   6.05                 192   1510.0342     -870.62367      37.280763     -833.34291      19845.601      5227.1769      2.1329099      24.909354      21.815299      9.6193019      4.7650112    
     12200   6.1                  192   1400.8098     -869.20444      34.584157     -834.62028      16136.053      5227.1769      2.1329099      24.909354      21.815299      9.6193019      4.0434423    
     12300   6.15                 192   1488.2023     -872.13748      36.741761     -835.39572      23029.493      5227.1769      2.1329099      24.909354      21.815299      9.6193019      3.8186505    
     12400   6.2                  192   1434.1597     -871.48682      35.407521     -836.0793       16858.519      5227.1769      2.1329099      24.909354      21.815299      9.6193019      4.2690793    
     12500   6.25                 192   1351.6092     -869.52566      33.369456     -836.1562       24744.539      5227.1769      2.1329099      24.909354      21.815299      9.6193019      3.9466115    
     12600   6.3                  192   1477.795      -870.49231      36.484819     -834.00749      18262.584      5227.1769      2.1329099      24.909354      21.815299      9.6193019      3.8900295    
     12700   6.35                 192   1649.4991     -871.10145      40.723967     -830.37748      19092.746      5227.1769      2.1329099      24.909354      21.815299      9.6193019      4.4425124    
     12800   6.4                  192   1619.539      -868.90823      39.984292     -828.92394      13242.743      5227.1769      2.1329099      24.909354      21.815299      9.6193019      5.2527379    
     12900   6.45                 192   1598.8965     -868.66484      39.474655     -829.19018      24356.732      5227.1769      2.1329099      24.909354      21.815299      9.6193019      4.6426541    
     13000   6.5                  192   1448.2409     -866.28595      35.755168     -830.53078      17655.194      5227.1769      2.1329099      24.909354      21.815299      9.6193019      4.5283448    
     13100   6.55                 192   1539.5087     -870.02588      38.008449     -832.01743      11160.243      5227.1769      2.1329099      24.909354      21.815299      9.6193019      3.9854869    
     13200   6.6                  192   1457.8445     -870.05721      35.992266     -834.06495      23068.32       5227.1769      2.1329099      24.909354      21.815299      9.6193019      4.8133056    
     13300   6.65                 192   1438.573      -871.22433      35.51648      -835.70786      14381.839      5227.1769      2.1329099      24.909354      21.815299      9.6193019      3.8744028    
     13400   6.7                  192   1399.3216     -870.85452      34.547414     -836.30711      14057.426      5227.1769      2.1329099      24.909354      21.815299      9.6193019      4.436951     
     13500   6.75                 192   1495.1591     -872.83236      36.913516     -835.91884      21122.414      5227.1769      2.1329099      24.909354      21.815299      9.6193019      7.0226734    
     13600   6.8                  192   1507.3215     -872.88696      37.213789     -835.67317      17660.65       5227.1769      2.1329099      24.909354      21.815299      9.6193019      4.6700503    
     13700   6.85                 192   1514.8254     -872.80038      37.399051     -835.40133      20714.417      5227.1769      2.1329099      24.909354      21.815299      9.6193019      4.9105867    
     13800   6.9                  192   1362.5487     -868.42606      33.63954      -834.78652      6880.2315      5227.1769      2.1329099      24.909354      21.815299      9.6193019      3.3104151    
     13900   6.95                 192   1558.0862     -871.06627      38.467103     -832.59917      18577.69       5227.1769      2.1329099      24.909354      21.815299      9.6193019      3.751582     
     14000   7                    192   1527.7281     -868.62054      37.717601     -830.90294      12222.459      5227.1769      2.1329099      24.909354      21.815299      9.6193019      5.1873172    
     14100   7.05                 192   1682.998      -871.79533      41.551013     -830.24432      17724.348      5227.1769      2.1329099      24.909354      21.815299      9.6193019      3.9270948    
     14200   7.1                  192   1466.8634     -867.88763      36.214933     -831.67269      15816.567      5227.1769      2.1329099      24.909354      21.815299      9.6193019      4.2670218    
     14300   7.15                 192   1446.6726     -869.24593      35.716448     -833.52948      18199.058      5227.1769      2.1329099      24.909354      21.815299      9.6193019      3.668796     
     14400   7.2                  192   1527.1011     -872.80517      37.702122     -835.10305      21472.318      5227.1769      2.1329099      24.909354      21.815299      9.6193019      4.8026155    
     14500   7.25                 192   1519.6925     -874.52027      37.519213     -837.00105      19009.947      5227.1769      2.1329099      24.909354      21.815299      9.6193019      4.6531926    
     14600   7.3                  192   1318.7112     -870.82628      32.557249     -838.26903      15789.734      5227.1769      2.1329099      24.909354      21.815299      9.6193019      3.7426048    
     14700   7.35                 192   1363.0786     -871.39282      33.652622     -837.7402       17700.936      5227.1769      2.1329099      24.909354      21.815299      9.6193019      4.1270681    
     14800   7.4                  192   1455.9503     -871.73284      35.945501     -835.78733      14120.811      5227.1769      2.1329099      24.909354      21.815299      9.6193019      3.6436726    
     14900   7.45                 192   1582.1671     -873.03402      39.061631     -833.97239      17859.173      5227.1769      2.1329099      24.909354      21.815299      9.6193019      3.8093331    
     15000   7.5                  192   1516.6874     -870.96534      37.445021     -833.52032      21419.052      5227.1769      2.1329099      24.909354      21.815299      9.6193019      5.3633101    
     15100   7.55                 192   1479.9946     -870.04434      36.539124     -833.50521      20838.144      5227.1769      2.1329099      24.909354      21.815299      9.6193019      4.708382     
     15200   7.6                  192   1454.8506     -869.22732      35.918352     -833.30897      19468.787      5227.1769      2.1329099      24.909354      21.815299      9.6193019      4.6844442    
     15300   7.65                 192   1456.7474     -868.77854      35.965181     -832.81336      14947.4        5227.1769      2.1329099      24.909354      21.815299      9.6193019      4.3025851    
     15400   7.7                  192   1540.6042     -870.08485      38.035495     -832.04936      17274.886      5227.1769      2.1329099      24.909354      21.815299      9.6193019      4.8888464    
     15500   7.75                 192   1449.1633     -866.9601       35.777941     -831.18216      21318.762      5227.1769      2.1329099      24.909354      21.815299      9.6193019      4.8534996    
     15600   7.8                  192   1583.089      -868.21809      39.084389     -829.13371      20660.867      5227.1769      2.1329099      24.909354      21.815299      9.6193019      5.333882     
     15700   7.85                 192   1602.2032     -866.17246      39.556294     -826.61617      20986.541      5227.1769      2.1329099      24.909354      21.815299      9.6193019      4.0872462    
     15800   7.9                  192   1654.571      -866.03588      40.849187     -825.1867       16094.572      5227.1769      2.1329099      24.909354      21.815299      9.6193019      4.3658682    
     15900   7.95                 192   1706.1536     -867.79055      42.122693     -825.66786      22954.749      5227.1769      2.1329099      24.909354      21.815299      9.6193019      3.2420892    
     16000   8                    192   1575.3433     -868.92463      38.893159     -830.03148      26395.117      5227.1769      2.1329099      24.909354      21.815299      9.6193019      4.323938     
     16100   8.05                 192   1421.0728     -868.43836      35.084422     -833.35394      22342.126      5227.1769      2.1329099      24.909354      21.815299      9.6193019      4.3915124    
     16200   8.1                  192   1376.9947     -868.21066      33.996191     -834.21447      20854.065      5227.1769      2.1329099      24.909354      21.815299      9.6193019      3.3364704    
     16300   8.15                 192   1356.4813     -867.90743      33.489743     -834.41769      18481.484      5227.1769      2.1329099      24.909354      21.815299      9.6193019      4.6720466    
     16400   8.2                  192   1419.4426     -868.85041      35.044176     -833.80623      18666.227      5227.1769      2.1329099      24.909354      21.815299      9.6193019      3.8520717    
     16500   8.25                 192   1485.5504     -868.54734      36.676291     -831.87104      15351.139      5227.1769      2.1329099      24.909354      21.815299      9.6193019      4.5044698    
     16600   8.3                  192   1557.0667     -868.13069      38.441933     -829.68876      18961.513      5227.1769      2.1329099      24.909354      21.815299      9.6193019      3.6901084    
     16700   8.35                 192   1408.0555     -863.80537      34.763042     -829.04233      19619.98       5227.1769      2.1329099      24.909354      21.815299      9.6193019      3.5926509    
     16800   8.4                  192   1473.4831     -865.08674      36.378363     -828.70837      15988.482      5227.1769      2.1329099      24.909354      21.815299      9.6193019      4.8973204    
     16900   8.45                 192   1548.672      -866.96505      38.234678     -828.73037      23233.223      5227.1769      2.1329099      24.909354      21.815299      9.6193019      4.2552898    
     17000   8.5                  192   1571.1103     -868.69488      38.788651     -829.90622      21065.322      5227.1769      2.1329099      24.909354      21.815299      9.6193019      4.155646     
     17100   8.55                 192   1481.3336     -870.26026      36.572181     -833.68808      23393.857      5227.1769      2.1329099      24.909354      21.815299      9.6193019      4.2791511    
     17200   8.6                  192   1451.93       -871.96123      35.846245     -836.11499      13768.899      5227.1769      2.1329099      24.909354      21.815299      9.6193019      5.0734392    
     17300   8.65                 192   1472.6995     -872.92568      36.359017     -836.56666      17083.706      5227.1769      2.1329099      24.909354      21.815299      9.6193019      3.9310945    
     17400   8.7                  192   1518.5543     -873.51802      37.491112     -836.02691      13579.094      5227.1769      2.1329099      24.909354      21.815299      9.6193019      3.8220819    
     17500   8.75                 192   1416.9559     -869.823        34.982781     -834.84022      14766.795      5227.1769      2.1329099      24.909354      21.815299      9.6193019      3.7755201    
     17600   8.8                  192   1526.024      -870.5455       37.675531     -832.86997      21606.235      5227.1769      2.1329099      24.909354      21.815299      9.6193019      4.4582464    
     17700   8.85                 192   1491.7535     -868.18735      36.829437     -831.35791      22699.288      5227.1769      2.1329099      24.909354      21.815299      9.6193019      4.358742     
     17800   8.9                  192   1459.3292     -866.21916      36.028922     -830.19024      23969.46       5227.1769      2.1329099      24.909354      21.815299      9.6193019      5.6755659    
     17900   8.95                 192   1509.39       -866.79256      37.264859     -829.5277       22574.468      5227.1769      2.1329099      24.909354      21.815299      9.6193019      6.1201895    
     18000   9                    192   1464.6404     -865.73451      36.16005      -829.57446      22968.024      5227.1769      2.1329099      24.909354      21.815299      9.6193019      4.5506564    
     18100   9.05                 192   1633.2528     -869.76873      40.322868     -829.44586      17240.597      5227.1769      2.1329099      24.909354      21.815299      9.6193019      3.266043     
     18200   9.1                  192   1515.9013     -867.38085      37.425614     -829.95524      22720.534      5227.1769      2.1329099      24.909354      21.815299      9.6193019      4.84051      
     18300   9.15                 192   1544.6082     -869.69437      38.134349     -831.56002      15295.844      5227.1769      2.1329099      24.909354      21.815299      9.6193019      3.797363     
     18400   9.2                  192   1412.238      -871.23242      34.866303     -836.36612      23432.364      5227.1769      2.1329099      24.909354      21.815299      9.6193019      3.9371576    
     18500   9.25                 192   1456.2321     -874.73042      35.952461     -838.77796      10994.34       5227.1769      2.1329099      24.909354      21.815299      9.6193019      3.0594568    
     18600   9.3                  192   1383.3083     -873.24494      34.152066     -839.09287      17300.528      5227.1769      2.1329099      24.909354      21.815299      9.6193019      4.1259205    
     18700   9.35                 192   1433.1107     -873.57491      35.381623     -838.19329      13536.439      5227.1769      2.1329099      24.909354      21.815299      9.6193019      3.4069372    
     18800   9.4                  192   1458.9251     -872.30573      36.018946     -836.28679      17993.281      5227.1769      2.1329099      24.909354      21.815299      9.6193019      5.266396     
     18900   9.45                 192   1526.5773     -871.9181       37.689191     -834.22891      20063.945      5227.1769      2.1329099      24.909354      21.815299      9.6193019      3.9996614    
     19000   9.5                  192   1504.142      -870.16067      37.135292     -833.02537      18551.211      5227.1769      2.1329099      24.909354      21.815299      9.6193019      3.7269769    
     19100   9.55                 192   1636.1344     -872.43596      40.394012     -832.04195      16647.999      5227.1769      2.1329099      24.909354      21.815299      9.6193019      3.3074136    
     19200   9.6                  192   1487.41       -868.74972      36.7222       -832.02752      26310.212      5227.1769      2.1329099      24.909354      21.815299      9.6193019      5.785945     
     19300   9.65                 192   1516.7193     -870.03997      37.445809     -832.59416      15134.039      5227.1769      2.1329099      24.909354      21.815299      9.6193019      4.685414     
     19400   9.7                  192   1455.0873     -869.97927      35.924196     -834.05507      20011.665      5227.1769      2.1329099      24.909354      21.815299      9.6193019      3.8247278    
     19500   9.75                 192   1436.3816     -872.09812      35.462377     -836.63574      14366.141      5227.1769      2.1329099      24.909354      21.815299      9.6193019      5.4241068    
     19600   9.8                  192   1487.0336     -875.67737      36.712909     -838.96447      19648.265      5227.1769      2.1329099      24.909354      21.815299      9.6193019      4.1854027    
     19700   9.85                 192   1365.6699     -874.01419      33.716597     -840.2976       11924.242      5227.1769      2.1329099      24.909354      21.815299      9.6193019      3.6541072    
     19800   9.9                  192   1342.7498     -872.98624      33.15073      -839.83551      12920.756      5227.1769      2.1329099      24.909354      21.815299      9.6193019      3.4651213    
     19900   9.95                 192   1429.7664     -873.15921      35.299056     -837.86015      21902.373      5227.1769      2.1329099      24.909354      21.815299      9.6193019      4.092491     
     20000   10                   192   1470.6535     -872.14891      36.308504     -835.84041      17382.981      5227.1769      2.1329099      24.909354      21.815299      9.6193019      3.8698784    
Loop time of 525.473 on 1 procs for 20000 steps with 192 atoms

Performance: 1.644 ns/day, 14.596 hours/ns, 38.061 timesteps/s, 7.308 katom-step/s
99.3% CPU use with 1 MPI tasks x 1 OpenMP threads

MPI task timing breakdown:
Section |  min time  |  avg time  |  max time  |%varavg| %total
---------------------------------------------------------------
Pair    | 521.11     | 521.11     | 521.11     |   0.0 | 99.17
Neigh   | 0.1024     | 0.1024     | 0.1024     |   0.0 |  0.02
Comm    | 0.75424    | 0.75424    | 0.75424    |   0.0 |  0.14
Output  | 0.12608    | 0.12608    | 0.12608    |   0.0 |  0.02
Modify  | 2.3726     | 2.3726     | 2.3726     |   0.0 |  0.45
Other   |            | 1.005      |            |       |  0.19

Nlocal:            192 ave         192 max         192 min
Histogram: 1 0 0 0 0 0 0 0 0 0
Nghost:           1304 ave        1304 max        1304 min
Histogram: 1 0 0 0 0 0 0 0 0 0
Neighs:              0 ave           0 max           0 min
Histogram: 1 0 0 0 0 0 0 0 0 0
FullNghs:        14966 ave       14966 max       14966 min
Histogram: 1 0 0 0 0 0 0 0 0 0

Total # of neighbors = 14966
Ave neighs/atom = 77.947917
Neighbor list builds = 399
Dangerous builds = 0
unfix mix
write_data mixed.data
System init for write_data ...
# 10–40 ps: 40 K/ps cooling, fixed volume.
fix cool all nvt temp 1500 300 0.1
run 60000
Per MPI rank memory allocation (min/avg/max) = 48.33 | 48.33 | 48.33 Mbytes
   Step          Time         Atoms         Temp          PotEng         KinEng         TotEng         Press          Volume        Density           Lx             Ly             Lz            Fmax     
     20000   10                   192   1470.6535     -872.14891      36.308504     -835.84041      17382.981      5227.1769      2.1329099      24.909354      21.815299      9.6193019      3.8698784    
     20100   10.05                192   1375.352      -869.528        33.955636     -835.57236      22142.278      5227.1769      2.1329099      24.909354      21.815299      9.6193019      4.4907704    
     20200   10.1                 192   1511.1901     -871.7669       37.309301     -834.4576       11989.557      5227.1769      2.1329099      24.909354      21.815299      9.6193019      4.7867482    
     20300   10.15                192   1502.7651     -869.79683      37.101299     -832.69553      18718.373      5227.1769      2.1329099      24.909354      21.815299      9.6193019      4.3829039    
     20400   10.2                 192   1667.8279     -871.07645      41.176483     -829.89997      19231.534      5227.1769      2.1329099      24.909354      21.815299      9.6193019      4.8574571    
     20500   10.25                192   1514.6714     -865.50519      37.39525      -828.10994      13016.741      5227.1769      2.1329099      24.909354      21.815299      9.6193019      4.7887006    
     20600   10.3                 192   1746.9532     -869.99317      43.129983     -826.86318      16962.609      5227.1769      2.1329099      24.909354      21.815299      9.6193019      4.7079641    
     20700   10.35                192   1596.7433     -867.72692      39.421497     -828.30542      18780.924      5227.1769      2.1329099      24.909354      21.815299      9.6193019      5.7657953    
     20800   10.4                 192   1449.7336     -868.18917      35.792021     -832.39715      24268.308      5227.1769      2.1329099      24.909354      21.815299      9.6193019      5.182062     
     20900   10.45                192   1463.6063     -870.58649      36.134519     -834.45197      16942.585      5227.1769      2.1329099      24.909354      21.815299      9.6193019      4.6907319    
     21000   10.5                 192   1571.2565     -874.10212      38.792262     -835.30985      21947.956      5227.1769      2.1329099      24.909354      21.815299      9.6193019      4.7697112    
     21100   10.55                192   1540.2921     -874.77715      38.027791     -836.74936      18950.699      5227.1769      2.1329099      24.909354      21.815299      9.6193019      4.0231741    
     21200   10.6                 192   1472.1921     -875.05148      36.346492     -838.70499      17335.877      5227.1769      2.1329099      24.909354      21.815299      9.6193019      3.523784     
     21300   10.65                192   1370.076      -873.97944      33.825379     -840.15407      20733.683      5227.1769      2.1329099      24.909354      21.815299      9.6193019      5.1616299    
     21400   10.7                 192   1452.7073     -876.26889      35.865436     -840.40345      20511.502      5227.1769      2.1329099      24.909354      21.815299      9.6193019      4.1704179    
     21500   10.75                192   1394.6265     -874.48302      34.431497     -840.05153      11714.055      5227.1769      2.1329099      24.909354      21.815299      9.6193019      5.2134352    
     21600   10.8                 192   1434.5698     -874.21063      35.417646     -838.79298      20266.035      5227.1769      2.1329099      24.909354      21.815299      9.6193019      4.8000231    
     21700   10.85                192   1497.7486     -873.09604      36.977447     -836.1186       20103.357      5227.1769      2.1329099      24.909354      21.815299      9.6193019      5.6882902    
     21800   10.9                 192   1509.7452     -870.91703      37.273627     -833.6434       26740.17       5227.1769      2.1329099      24.909354      21.815299      9.6193019      3.9626632    
     21900   10.95                192   1435.8916     -867.94324      35.450278     -832.49297      17100.112      5227.1769      2.1329099      24.909354      21.815299      9.6193019      7.2278085    
     22000   11                   192   1578.4129     -870.90763      38.968943     -831.93869      18204.027      5227.1769      2.1329099      24.909354      21.815299      9.6193019      3.5147897    
     22100   11.05                192   1549.8876     -870.28455      38.264692     -832.01986      22845.274      5227.1769      2.1329099      24.909354      21.815299      9.6193019      5.8175183    
     22200   11.1                 192   1439.6951     -868.29847      35.544182     -832.75429      18822.414      5227.1769      2.1329099      24.909354      21.815299      9.6193019      4.2936268    
     22300   11.15                192   1469.1481     -869.72335      36.271337     -833.45201      21983.084      5227.1769      2.1329099      24.909354      21.815299      9.6193019      4.5055531    
     22400   11.2                 192   1411.1435     -869.32448      34.83928      -834.4852       19755.212      5227.1769      2.1329099      24.909354      21.815299      9.6193019      4.3226116    
     22500   11.25                192   1474.1645     -872.17076      36.395186     -835.77558      22930.484      5227.1769      2.1329099      24.909354      21.815299      9.6193019      4.561657     
     22600   11.3                 192   1509.6011     -874.89907      37.27007      -837.629        15981.561      5227.1769      2.1329099      24.909354      21.815299      9.6193019      3.8801226    
     22700   11.35                192   1479.9094     -876.21077      36.537022     -839.67375      17728.821      5227.1769      2.1329099      24.909354      21.815299      9.6193019      3.6434232    
     22800   11.4                 192   1280.6861     -872.72908      31.618459     -841.11062      20473.651      5227.1769      2.1329099      24.909354      21.815299      9.6193019      3.7429265    
     22900   11.45                192   1357.0485     -874.35558      33.503745     -840.85183      17164.466      5227.1769      2.1329099      24.909354      21.815299      9.6193019      4.1500086    
     23000   11.5                 192   1448.0663     -875.8113       35.750857     -840.06044      16526.324      5227.1769      2.1329099      24.909354      21.815299      9.6193019      4.9206607    
     23100   11.55                192   1462.1768     -875.67397      36.099225     -839.57475      21085.2        5227.1769      2.1329099      24.909354      21.815299      9.6193019      4.5491567    
     23200   11.6                 192   1444.7708     -875.08565      35.669494     -839.41616      19424.814      5227.1769      2.1329099      24.909354      21.815299      9.6193019      4.2777675    
     23300   11.65                192   1449.9496     -875.31315      35.797353     -839.5158       16984.003      5227.1769      2.1329099      24.909354      21.815299      9.6193019      3.7720535    
     23400   11.7                 192   1398.5835     -874.33083      34.52919      -839.80164      19763.117      5227.1769      2.1329099      24.909354      21.815299      9.6193019      3.9600124    
     23500   11.75                192   1289.8406     -871.68957      31.844472     -839.8451       19329.758      5227.1769      2.1329099      24.909354      21.815299      9.6193019      4.2649901    
     23600   11.8                 192   1470.198      -874.33158      36.297259     -838.03432      14922.114      5227.1769      2.1329099      24.909354      21.815299      9.6193019      4.3780266    
     23700   11.85                192   1578.047      -874.1979       38.95991      -835.23799      20725.952      5227.1769      2.1329099      24.909354      21.815299      9.6193019      4.9823199    
     23800   11.9                 192   1589.0684     -873.14161      39.232015     -833.9096       15609.778      5227.1769      2.1329099      24.909354      21.815299      9.6193019      4.0680979    
     23900   11.95                192   1590.166      -873.79274      39.259111     -834.53363      21760.383      5227.1769      2.1329099      24.909354      21.815299      9.6193019      4.1735905    
     24000   12                   192   1442.7194     -872.67044      35.618849     -837.05159      19933.606      5227.1769      2.1329099      24.909354      21.815299      9.6193019      5.2753721    
     24100   12.05                192   1468.0771     -875.74111      36.244898     -839.49621      12825.49       5227.1769      2.1329099      24.909354      21.815299      9.6193019      3.5820315    
     24200   12.1                 192   1367.376      -874.76093      33.758719     -841.00221      20304.768      5227.1769      2.1329099      24.909354      21.815299      9.6193019      4.4525563    
     24300   12.15                192   1455.7472     -877.51918      35.940487     -841.57869      25595.818      5227.1769      2.1329099      24.909354      21.815299      9.6193019      5.9374123    
     24400   12.2                 192   1358.8876     -875.79195      33.54915      -842.2428       11280.167      5227.1769      2.1329099      24.909354      21.815299      9.6193019      3.6466711    
     24500   12.25                192   1352.0571     -875.46635      33.380515     -842.08583      17551.28       5227.1769      2.1329099      24.909354      21.815299      9.6193019      3.2248076    
     24600   12.3                 192   1316.3831     -873.58125      32.499771     -841.08148      19925.65       5227.1769      2.1329099      24.909354      21.815299      9.6193019      6.6876776    
     24700   12.35                192   1427.9674     -874.32581      35.254642     -839.07117      19967.411      5227.1769      2.1329099      24.909354      21.815299      9.6193019      3.5774267    
     24800   12.4                 192   1441.9148     -872.50683      35.598984     -836.90784      19565.59       5227.1769      2.1329099      24.909354      21.815299      9.6193019      5.0972081    
     24900   12.45                192   1393.357      -869.69052      34.400156     -835.29036      20077.612      5227.1769      2.1329099      24.909354      21.815299      9.6193019      5.4406611    
     25000   12.5                 192   1408.717      -868.8753       34.779373     -834.09593      20850.722      5227.1769      2.1329099      24.909354      21.815299      9.6193019      4.458236     
     25100   12.55                192   1496.6557     -870.79447      36.950466     -833.84401      19747.343      5227.1769      2.1329099      24.909354      21.815299      9.6193019      6.8200686    
     25200   12.6                 192   1504.4661     -872.90823      37.143294     -835.76493      17005.005      5227.1769      2.1329099      24.909354      21.815299      9.6193019      3.2006435    
     25300   12.65                192   1397.742      -873.5794       34.508417     -839.07098      17445.044      5227.1769      2.1329099      24.909354      21.815299      9.6193019      3.2540383    
     25400   12.7                 192   1366.5838     -874.73021      33.739161     -840.99105      20457.584      5227.1769      2.1329099      24.909354      21.815299      9.6193019      4.3929865    
     25500   12.75                192   1280.1121     -873.53996      31.604287     -841.93568      15334.446      5227.1769      2.1329099      24.909354      21.815299      9.6193019      3.8733779    
     25600   12.8                 192   1361.8812     -875.77645      33.623058     -842.15339      23166.404      5227.1769      2.1329099      24.909354      21.815299      9.6193019      7.1983942    
     25700   12.85                192   1377.8316     -876.17353      34.016854     -842.15667      10172.307      5227.1769      2.1329099      24.909354      21.815299      9.6193019      4.1436879    
     25800   12.9                 192   1315.6589     -874.10704      32.481892     -841.62515      21979.513      5227.1769      2.1329099      24.909354      21.815299      9.6193019      4.5630978    
     25900   12.95                192   1321.9325     -872.48054      32.636779     -839.84376      17355.942      5227.1769      2.1329099      24.909354      21.815299      9.6193019      4.5042777    
     26000   13                   192   1465.3963     -873.33039      36.178712     -837.15168      17321.529      5227.1769      2.1329099      24.909354      21.815299      9.6193019      5.2757629    
     26100   13.05                192   1531.5946     -873.73395      37.813061     -835.92089      19474.553      5227.1769      2.1329099      24.909354      21.815299      9.6193019      3.5942505    
     26200   13.1                 192   1472.6165     -872.51309      36.356969     -836.15612      15725.35       5227.1769      2.1329099      24.909354      21.815299      9.6193019      3.2187289    
     26300   13.15                192   1529.3712     -874.917        37.758168     -837.15883      18734.285      5227.1769      2.1329099      24.909354      21.815299      9.6193019      3.0846918    
     26400   13.2                 192   1418.8426     -874.12151      35.029361     -839.09215      21321.723      5227.1769      2.1329099      24.909354      21.815299      9.6193019      6.4521232    
     26500   13.25                192   1324.6343     -873.08384      32.703483     -840.38036      19781.463      5227.1769      2.1329099      24.909354      21.815299      9.6193019      3.2169941    
     26600   13.3                 192   1352.2003     -873.92228      33.384052     -840.53823      16289.112      5227.1769      2.1329099      24.909354      21.815299      9.6193019      3.4846013    
     26700   13.35                192   1263.6211     -871.37921      31.197147     -840.18206      13811.834      5227.1769      2.1329099      24.909354      21.815299      9.6193019      3.8220822    
     26800   13.4                 192   1391.9073     -873.96447      34.364363     -839.6001       18714.54       5227.1769      2.1329099      24.909354      21.815299      9.6193019      4.2974988    
     26900   13.45                192   1435.6669     -874.77452      35.444732     -839.32979      11577.885      5227.1769      2.1329099      24.909354      21.815299      9.6193019      4.1375765    
     27000   13.5                 192   1329.1744     -872.2934       32.815571     -839.47783      16743.22       5227.1769      2.1329099      24.909354      21.815299      9.6193019      5.1618864    
     27100   13.55                192   1406.6345     -874.37793      34.727959     -839.64997      14562.286      5227.1769      2.1329099      24.909354      21.815299      9.6193019      3.1665582    
     27200   13.6                 192   1350.9667     -873.80245      33.353596     -840.44886      19275.598      5227.1769      2.1329099      24.909354      21.815299      9.6193019      4.2016955    
     27300   13.65                192   1388.5978     -876.87434      34.282659     -842.59168      13531.391      5227.1769      2.1329099      24.909354      21.815299      9.6193019      3.9881526    
     27400   13.7                 192   1256.7219     -876.24225      31.026815     -845.21544      18037.845      5227.1769      2.1329099      24.909354      21.815299      9.6193019      3.5869256    
     27500   13.75                192   1284.6119     -878.02607      31.715382     -846.31069      14122.341      5227.1769      2.1329099      24.909354      21.815299      9.6193019      5.4811248    
     27600   13.8                 192   1254.9555     -877.62442      30.983205     -846.64121      15486.521      5227.1769      2.1329099      24.909354      21.815299      9.6193019      3.9647031    
     27700   13.85                192   1283.5263     -878.04509      31.688581     -846.35651      12022.339      5227.1769      2.1329099      24.909354      21.815299      9.6193019      2.7448551    
     27800   13.9                 192   1334.5073     -878.04573      32.947234     -845.09849      13947.707      5227.1769      2.1329099      24.909354      21.815299      9.6193019      3.0403882    
     27900   13.95                192   1385.8357     -877.231        34.214464     -843.01654      11510.568      5227.1769      2.1329099      24.909354      21.815299      9.6193019      4.1869076    
     28000   14                   192   1373.982      -874.81925      33.921813     -840.89744      13413.848      5227.1769      2.1329099      24.909354      21.815299      9.6193019      4.1847873    
     28100   14.05                192   1395.6761     -874.18246      34.457411     -839.72504      19812.003      5227.1769      2.1329099      24.909354      21.815299      9.6193019      4.1349578    
     28200   14.1                 192   1316.5871     -872.05115      32.504808     -839.54634      15024.774      5227.1769      2.1329099      24.909354      21.815299      9.6193019      4.7803802    
     28300   14.15                192   1343.3576     -872.74438      33.165737     -839.57865      15585.572      5227.1769      2.1329099      24.909354      21.815299      9.6193019      3.0852246    
     28400   14.2                 192   1329.8652     -872.51644      32.832628     -839.68381      15360.374      5227.1769      2.1329099      24.909354      21.815299      9.6193019      5.8417094    
     28500   14.25                192   1427.4878     -875.28633      35.242801     -840.04353      22526.532      5227.1769      2.1329099      24.909354      21.815299      9.6193019      5.2251501    
     28600   14.3                 192   1402.6382     -875.70758      34.629297     -841.07828      14597.255      5227.1769      2.1329099      24.909354      21.815299      9.6193019      4.1366837    
     28700   14.35                192   1407.2122     -877.11715      34.742222     -842.37493      16112.322      5227.1769      2.1329099      24.909354      21.815299      9.6193019      4.0586919    
     28800   14.4                 192   1273.7901     -874.91162      31.448207     -843.46342      9520.5262      5227.1769      2.1329099      24.909354      21.815299      9.6193019      4.0851724    
     28900   14.45                192   1349.8037     -877.15225      33.324883     -843.82736      17474.617      5227.1769      2.1329099      24.909354      21.815299      9.6193019      4.0460487    
     29000   14.5                 192   1289.3019     -876.02153      31.831173     -844.19036      16543.834      5227.1769      2.1329099      24.909354      21.815299      9.6193019      3.7438524    
     29100   14.55                192   1377.3871     -878.10982      34.00588      -844.10394      16499.362      5227.1769      2.1329099      24.909354      21.815299      9.6193019      3.4585802    
     29200   14.6                 192   1375.0781     -877.97463      33.948875     -844.02576      13544.687      5227.1769      2.1329099      24.909354      21.815299      9.6193019      4.6956427    
     29300   14.65                192   1269.8859     -875.52749      31.351817     -844.17567      17247.844      5227.1769      2.1329099      24.909354      21.815299      9.6193019      4.5637063    
     29400   14.7                 192   1379.3373     -877.72305      34.054028     -843.66902      17984.404      5227.1769      2.1329099      24.909354      21.815299      9.6193019      3.1454282    
     29500   14.75                192   1434.3806     -878.52303      35.412975     -843.11005      12795.434      5227.1769      2.1329099      24.909354      21.815299      9.6193019      3.0406595    
     29600   14.8                 192   1300.9995     -875.17119      32.11997      -843.05122      20222.738      5227.1769      2.1329099      24.909354      21.815299      9.6193019      3.2788861    
     29700   14.85                192   1230.814      -873.20485      30.387182     -842.81767      15111.843      5227.1769      2.1329099      24.909354      21.815299      9.6193019      6.1780282    
     29800   14.9                 192   1396.9504     -877.04673      34.488872     -842.55785      17382.578      5227.1769      2.1329099      24.909354      21.815299      9.6193019      4.1547034    
     29900   14.95                192   1438.104      -878.62773      35.5049       -843.12283      15337.29       5227.1769      2.1329099      24.909354      21.815299      9.6193019      5.3401777    
     30000   15                   192   1337.7983     -878.02437      33.028484     -844.99589      19144.846      5227.1769      2.1329099      24.909354      21.815299      9.6193019      7.395316     
     30100   15.05                192   1294.6651     -878.81853      31.963582     -846.85495      15526.937      5227.1769      2.1329099      24.909354      21.815299      9.6193019      3.4481388    
     30200   15.1                 192   1242.7046     -878.57906      30.680745     -847.89831      11726.426      5227.1769      2.1329099      24.909354      21.815299      9.6193019      4.0713857    
     30300   15.15                192   1281.0286     -879.99081      31.626915     -848.36389      14003.238      5227.1769      2.1329099      24.909354      21.815299      9.6193019      4.8880506    
     30400   15.2                 192   1329.2224     -881.61336      32.816756     -848.79661      21044.882      5227.1769      2.1329099      24.909354      21.815299      9.6193019      4.4044865    
     30500   15.25                192   1263.5909     -880.69174      31.196401     -849.49534      7796.9802      5227.1769      2.1329099      24.909354      21.815299      9.6193019      3.7982668    
     30600   15.3                 192   1210.8767     -879.91433      29.894957     -850.01937      15550.534      5227.1769      2.1329099      24.909354      21.815299      9.6193019      4.6525416    
     30700   15.35                192   1268.9672     -881.47357      31.329136     -850.14443      11609.273      5227.1769      2.1329099      24.909354      21.815299      9.6193019      3.3335744    
     30800   15.4                 192   1221.5664     -880.08978      30.158871     -849.93091      13032.773      5227.1769      2.1329099      24.909354      21.815299      9.6193019      3.8722853    
     30900   15.45                192   1278.4568     -880.57097      31.563421     -849.00755      14805.726      5227.1769      2.1329099      24.909354      21.815299      9.6193019      4.3467758    
     31000   15.5                 192   1247.4653     -878.44916      30.798282     -847.65088      12674.392      5227.1769      2.1329099      24.909354      21.815299      9.6193019      4.0234078    
     31100   15.55                192   1257.2141     -877.26489      31.038966     -846.22592      21680.741      5227.1769      2.1329099      24.909354      21.815299      9.6193019      6.2987183    
     31200   15.6                 192   1295.7672     -876.81766      31.990792     -844.82686      9133.214       5227.1769      2.1329099      24.909354      21.815299      9.6193019      4.1060992    
     31300   15.65                192   1451.609      -879.54874      35.83832      -843.71042      14810.9        5227.1769      2.1329099      24.909354      21.815299      9.6193019      4.7712088    
     31400   15.7                 192   1349.8031     -877.36734      33.324868     -844.04248      14956.676      5227.1769      2.1329099      24.909354      21.815299      9.6193019      3.9673554    
     31500   15.75                192   1321.2268     -878.36328      32.619357     -845.74393      15766.73       5227.1769      2.1329099      24.909354      21.815299      9.6193019      4.000475     
     31600   15.8                 192   1179.8637     -877.21093      29.129287     -848.08164      13095.828      5227.1769      2.1329099      24.909354      21.815299      9.6193019      3.7581457    
     31700   15.85                192   1244.312      -880.12193      30.720431     -849.4015       18474.62       5227.1769      2.1329099      24.909354      21.815299      9.6193019      3.104604     
     31800   15.9                 192   1164.0068     -878.76536      28.737799     -850.02756      14312.054      5227.1769      2.1329099      24.909354      21.815299      9.6193019      2.9608687    
     31900   15.95                192   1194.1095     -879.45649      29.480996     -849.97549      11234.64       5227.1769      2.1329099      24.909354      21.815299      9.6193019      3.4008562    
     32000   16                   192   1292.3778     -881.5239       31.907113     -849.61678      15464.56       5227.1769      2.1329099      24.909354      21.815299      9.6193019      3.397267     
     32100   16.05                192   1301.3708     -881.49836      32.129138     -849.36922      16175.79       5227.1769      2.1329099      24.909354      21.815299      9.6193019      3.8937751    
     32200   16.1                 192   1176.3497     -878.37232      29.042531     -849.32979      16384.385      5227.1769      2.1329099      24.909354      21.815299      9.6193019      3.6219438    
     32300   16.15                192   1185.1053     -878.0726       29.258695     -848.81391      14756.85       5227.1769      2.1329099      24.909354      21.815299      9.6193019      4.6478818    
     32400   16.2                 192   1209.1381     -877.55527      29.852033     -847.70323      12854.487      5227.1769      2.1329099      24.909354      21.815299      9.6193019      4.6788234    
     32500   16.25                192   1355.9636     -879.68621      33.476961     -846.20925      14084.429      5227.1769      2.1329099      24.909354      21.815299      9.6193019      3.4011023    
     32600   16.3                 192   1290.6647     -876.32446      31.864818     -844.45965      16571.53       5227.1769      2.1329099      24.909354      21.815299      9.6193019      3.5494391    
     32700   16.35                192   1414.283      -876.70296      34.916791     -841.78617      21136.362      5227.1769      2.1329099      24.909354      21.815299      9.6193019      3.3722124    
     32800   16.4                 192   1419.349      -875.69978      35.041863     -840.65792      16039.841      5227.1769      2.1329099      24.909354      21.815299      9.6193019      4.6105048    
     32900   16.45                192   1322.9028     -874.35232      32.660734     -841.69158      21278.07       5227.1769      2.1329099      24.909354      21.815299      9.6193019      4.7762156    
     33000   16.5                 192   1287.8722     -876.84695      31.795875     -845.05107      14920.063      5227.1769      2.1329099      24.909354      21.815299      9.6193019      5.3531901    
     33100   16.55                192   1209.8129     -877.28148      29.868692     -847.41278      17861.493      5227.1769      2.1329099      24.909354      21.815299      9.6193019      3.9823162    
     33200   16.6                 192   1178.0598     -877.1762       29.08475      -848.09145      17291.491      5227.1769      2.1329099      24.909354      21.815299      9.6193019      4.5822448    
     33300   16.65                192   1319.0358     -880.92624      32.565264     -848.36098      11284.282      5227.1769      2.1329099      24.909354      21.815299      9.6193019      5.5535824    
     33400   16.7                 192   1254.1599     -880.17049      30.963562     -849.20693      17579.534      5227.1769      2.1329099      24.909354      21.815299      9.6193019      3.938171     
     33500   16.75                192   1218.63       -880.52993      30.086376     -850.44355      16536.56       5227.1769      2.1329099      24.909354      21.815299      9.6193019      5.1839205    
     33600   16.8                 192   1109.3316     -879.01894      27.387941     -851.631        12652.129      5227.1769      2.1329099      24.909354      21.815299      9.6193019      4.7945877    
     33700   16.85                192   1200.7273     -881.6523       29.644381     -852.00792      15667.772      5227.1769      2.1329099      24.909354      21.815299      9.6193019      4.3955573    
     33800   16.9                 192   1175.6726     -881.12824      29.025813     -852.10243      10536.876      5227.1769      2.1329099      24.909354      21.815299      9.6193019      3.4074593    
     33900   16.95                192   1176.5216     -880.75508      29.046773     -851.7083       24081.805      5227.1769      2.1329099      24.909354      21.815299      9.6193019      4.4054734    
     34000   17                   192   1185.4336     -879.82319      29.266799     -850.55639      12859.049      5227.1769      2.1329099      24.909354      21.815299      9.6193019      4.0901126    
     34100   17.05                192   1263.7015     -879.59212      31.199132     -848.39299      10941.863      5227.1769      2.1329099      24.909354      21.815299      9.6193019      3.4442145    
     34200   17.1                 192   1242.0736     -877.02338      30.665167     -846.35822      16106.451      5227.1769      2.1329099      24.909354      21.815299      9.6193019      4.8219271    
     34300   17.15                192   1172.5231     -874.40423      28.948058     -845.45617      10084.677      5227.1769      2.1329099      24.909354      21.815299      9.6193019      3.8197188    
     34400   17.2                 192   1378.6604     -879.02916      34.037317     -844.99184      15350.803      5227.1769      2.1329099      24.909354      21.815299      9.6193019      3.9473014    
     34500   17.25                192   1300.0427     -878.20816      32.096349     -846.11181      9210.369       5227.1769      2.1329099      24.909354      21.815299      9.6193019      3.1010756    
     34600   17.3                 192   1253.5835     -878.7553       30.949331     -847.80597      15516.3        5227.1769      2.1329099      24.909354      21.815299      9.6193019      3.888204     
     34700   17.35                192   1155.0232     -877.96601      28.516007     -849.45         15747.26       5227.1769      2.1329099      24.909354      21.815299      9.6193019      5.2135221    
     34800   17.4                 192   1237.6556     -880.49892      30.556092     -849.94283      18319.424      5227.1769      2.1329099      24.909354      21.815299      9.6193019      4.0114032    
     34900   17.45                192   1203.9867     -879.91629      29.72485      -850.19144      15285.534      5227.1769      2.1329099      24.909354      21.815299      9.6193019      4.8172319    
     35000   17.5                 192   1261.7879     -881.6388       31.151887     -850.48691      15245.522      5227.1769      2.1329099      24.909354      21.815299      9.6193019      5.2531502    
     35100   17.55                192   1257.5365     -881.96919      31.046925     -850.92226      18663.159      5227.1769      2.1329099      24.909354      21.815299      9.6193019      5.8511701    
     35200   17.6                 192   1181.31       -880.69298      29.164994     -851.52798      17312.881      5227.1769      2.1329099      24.909354      21.815299      9.6193019      3.8953871    
     35300   17.65                192   1188.8048     -881.39796      29.35003      -852.04793      12186.169      5227.1769      2.1329099      24.909354      21.815299      9.6193019      3.304542     
     35400   17.7                 192   1101.8635     -879.89133      27.203563     -852.68777      15622.523      5227.1769      2.1329099      24.909354      21.815299      9.6193019      3.5446605    
     35500   17.75                192   1129.6718     -881.13046      27.890115     -853.24034      12285.357      5227.1769      2.1329099      24.909354      21.815299      9.6193019      2.9964863    
     35600   17.8                 192   1181.4756     -882.59458      29.169082     -853.4255       13876.491      5227.1769      2.1329099      24.909354      21.815299      9.6193019      3.3239624    
     35700   17.85                192   1125.4956     -881.2073       27.787008     -853.42029      13618.913      5227.1769      2.1329099      24.909354      21.815299      9.6193019      4.0325119    
     35800   17.9                 192   1100.2813     -879.90771      27.164501     -852.74321      11278.649      5227.1769      2.1329099      24.909354      21.815299      9.6193019      3.1906082    
     35900   17.95                192   1246.2344     -881.99491      30.767892     -851.22702      18746.641      5227.1769      2.1329099      24.909354      21.815299      9.6193019      3.7324355    
     36000   18                   192   1337.1457     -882.91154      33.012372     -849.89917      15136.394      5227.1769      2.1329099      24.909354      21.815299      9.6193019      3.5976763    
     36100   18.05                192   1255.7599     -880.95205      31.003064     -849.94899      16266.316      5227.1769      2.1329099      24.909354      21.815299      9.6193019      2.7924318    
     36200   18.1                 192   1192.2027     -880.54074      29.43392      -851.10682      20168.03       5227.1769      2.1329099      24.909354      21.815299      9.6193019      4.1595693    
     36300   18.15                192   1071.4484     -879.32161      26.452656     -852.86895      12437.414      5227.1769      2.1329099      24.909354      21.815299      9.6193019      2.981033     
     36400   18.2                 192   1116.1568     -881.72243      27.556447     -854.16598      16726.595      5227.1769      2.1329099      24.909354      21.815299      9.6193019      3.4641342    
     36500   18.25                192   1154.344      -883.52509      28.499237     -855.02585      12841.802      5227.1769      2.1329099      24.909354      21.815299      9.6193019      2.7007287    
     36600   18.3                 192   1137.8782     -883.94688      28.09272      -855.85416      18631.34       5227.1769      2.1329099      24.909354      21.815299      9.6193019      2.9200091    
     36700   18.35                192   1099.5165     -884.38961      27.14562      -857.24399      9854.8248      5227.1769      2.1329099      24.909354      21.815299      9.6193019      3.5236346    
     36800   18.4                 192   941.88346     -882.66375      23.253867     -859.40988      16273.279      5227.1769      2.1329099      24.909354      21.815299      9.6193019      3.241118     
     36900   18.45                192   1029.9286     -885.6879       25.427587     -860.26031      10290.328      5227.1769      2.1329099      24.909354      21.815299      9.6193019      3.2667129    
     37000   18.5                 192   1023.6528     -884.75009      25.272644     -859.47745      12982.833      5227.1769      2.1329099      24.909354      21.815299      9.6193019      5.3783588    
     37100   18.55                192   1078.8903     -883.69663      26.636386     -857.06024      13812.915      5227.1769      2.1329099      24.909354      21.815299      9.6193019      3.9079812    
     37200   18.6                 192   1136.7802     -883.39286      28.065611     -855.32725      12316.256      5227.1769      2.1329099      24.909354      21.815299      9.6193019      3.1723744    
     37300   18.65                192   1215.4873     -884.46235      30.008787     -854.45357      10801.249      5227.1769      2.1329099      24.909354      21.815299      9.6193019      3.7040435    
     37400   18.7                 192   1225.0406     -884.47569      30.244644     -854.23105      16924.194      5227.1769      2.1329099      24.909354      21.815299      9.6193019      2.7364541    
     37500   18.75                192   1035.5044     -879.89435      25.565244     -854.32911      14802.962      5227.1769      2.1329099      24.909354      21.815299      9.6193019      3.7686407    
     37600   18.8                 192   1194.7908     -883.28592      29.497816     -853.7881       17251.407      5227.1769      2.1329099      24.909354      21.815299      9.6193019      3.627076     
     37700   18.85                192   1230.8022     -883.87227      30.386892     -853.48538      16601.185      5227.1769      2.1329099      24.909354      21.815299      9.6193019      2.9915411    
     37800   18.9                 192   1221.5596     -883.94856      30.158703     -853.78986      16880.017      5227.1769      2.1329099      24.909354      21.815299      9.6193019      3.7389626    
     37900   18.95                192   1200.186      -884.70182      29.631018     -855.0708       11821.065      5227.1769      2.1329099      24.909354      21.815299      9.6193019      4.0471159    
     38000   19                   192   1045.6725     -883.11961      25.816281     -857.30333      12814.402      5227.1769      2.1329099      24.909354      21.815299      9.6193019      3.79255      
     38100   19.05                192   1036.2794     -883.76081      25.584378     -858.17643      12811.916      5227.1769      2.1329099      24.909354      21.815299      9.6193019      3.3543779    
     38200   19.1                 192   1080.4193     -884.49509      26.674134     -857.82096      19043.557      5227.1769      2.1329099      24.909354      21.815299      9.6193019      4.8872669    
     38300   19.15                192   1090.8797     -883.97999      26.932389     -857.0476       9647.4992      5227.1769      2.1329099      24.909354      21.815299      9.6193019      4.0826676    
     38400   19.2                 192   1168.5057     -884.93838      28.848873     -856.08951      15587.43       5227.1769      2.1329099      24.909354      21.815299      9.6193019      2.7540147    
     38500   19.25                192   1233.2589     -885.29535      30.447543     -854.84781      14888.608      5227.1769      2.1329099      24.909354      21.815299      9.6193019      3.3729652    
     38600   19.3                 192   1268.9593     -885.29542      31.32894      -853.96648      12832.351      5227.1769      2.1329099      24.909354      21.815299      9.6193019      3.2375879    
     38700   19.35                192   1244.6218     -885.17427      30.728078     -854.44619      17592.997      5227.1769      2.1329099      24.909354      21.815299      9.6193019      3.6504244    
     38800   19.4                 192   1075.6169     -883.24505      26.555569     -856.68948      12438.474      5227.1769      2.1329099      24.909354      21.815299      9.6193019      4.8913884    
     38900   19.45                192   1073.3343     -884.80955      26.499216     -858.31034      15772.987      5227.1769      2.1329099      24.909354      21.815299      9.6193019      3.9160484    
     39000   19.5                 192   1015.2526     -884.28138      25.065254     -859.21612      11253.529      5227.1769      2.1329099      24.909354      21.815299      9.6193019      3.6387655    
     39100   19.55                192   1027.1827     -884.28779      25.359793     -858.928        14637.033      5227.1769      2.1329099      24.909354      21.815299      9.6193019      3.6728146    
     39200   19.6                 192   1135.404      -885.34253      28.031635     -857.31089      11148.893      5227.1769      2.1329099      24.909354      21.815299      9.6193019      4.3128712    
     39300   19.65                192   1127.4309     -883.46644      27.83479      -855.63165      13441.486      5227.1769      2.1329099      24.909354      21.815299      9.6193019      3.2268844    
     39400   19.7                 192   1112.9644     -882.0781       27.477631     -854.60047      18215.715      5227.1769      2.1329099      24.909354      21.815299      9.6193019      5.5891093    
     39500   19.75                192   1156.7093     -882.72569      28.557635     -854.16806      16419.645      5227.1769      2.1329099      24.909354      21.815299      9.6193019      5.0687458    
     39600   19.8                 192   1184.9952     -883.37288      29.255976     -854.1169       16151.97       5227.1769      2.1329099      24.909354      21.815299      9.6193019      3.596332     
     39700   19.85                192   1159.5128     -883.39664      28.62685      -854.76979      12719.005      5227.1769      2.1329099      24.909354      21.815299      9.6193019      3.8156723    
     39800   19.9                 192   1086.7693     -882.93192      26.830907     -856.10101      20050.284      5227.1769      2.1329099      24.909354      21.815299      9.6193019      5.006185     
     39900   19.95                192   1014.0485     -882.32564      25.035527     -857.29012      11315.456      5227.1769      2.1329099      24.909354      21.815299      9.6193019      5.3876832    
     40000   20                   192   1120.3164     -885.47222      27.659142     -857.81308      17195.252      5227.1769      2.1329099      24.909354      21.815299      9.6193019      4.3436397    
     40100   20.05                192   1109.7839     -885.52834      27.399108     -858.12923      14713.407      5227.1769      2.1329099      24.909354      21.815299      9.6193019      3.4861058    
     40200   20.1                 192   1106.313      -885.62896      27.313416     -858.31555      15140.655      5227.1769      2.1329099      24.909354      21.815299      9.6193019      3.2549936    
     40300   20.15                192   1086.0757     -885.16901      26.813784     -858.35523      5877.2851      5227.1769      2.1329099      24.909354      21.815299      9.6193019      2.8029335    
     40400   20.2                 192   1033.5662     -883.41897      25.517393     -857.90158      13154.742      5227.1769      2.1329099      24.909354      21.815299      9.6193019      3.1046963    
     40500   20.25                192   1078.4798     -883.42442      26.62625      -856.79817      12228.227      5227.1769      2.1329099      24.909354      21.815299      9.6193019      3.6041071    
     40600   20.3                 192   1217.2231     -885.78318      30.05164      -855.73154      6505.6833      5227.1769      2.1329099      24.909354      21.815299      9.6193019      2.446059     
     40700   20.35                192   1113.7058     -882.96002      27.495934     -855.46409      20539.239      5227.1769      2.1329099      24.909354      21.815299      9.6193019      4.1646299    
     40800   20.4                 192   1077.7988     -882.00123      26.609439     -855.39179      9336.1056      5227.1769      2.1329099      24.909354      21.815299      9.6193019      4.6828387    
     40900   20.45                192   1136.944      -883.73112      28.069655     -855.66147      12001.31       5227.1769      2.1329099      24.909354      21.815299      9.6193019      3.6748818    
     41000   20.5                 192   1041.2843     -882.62256      25.707942     -856.91462      12985.934      5227.1769      2.1329099      24.909354      21.815299      9.6193019      4.3844519    
     41100   20.55                192   1096.367      -885.54343      27.067862     -858.47557      12322.053      5227.1769      2.1329099      24.909354      21.815299      9.6193019      3.4882905    
     41200   20.6                 192   1040.9797     -885.54171      25.700422     -859.84129      17288.798      5227.1769      2.1329099      24.909354      21.815299      9.6193019      3.0058952    
     41300   20.65                192   1020.6078     -885.93948      25.197468     -860.74201      8459.1898      5227.1769      2.1329099      24.909354      21.815299      9.6193019      3.6502005    
     41400   20.7                 192   1031.4599     -886.32906      25.465391     -860.86367      13093.264      5227.1769      2.1329099      24.909354      21.815299      9.6193019      4.5325514    
     41500   20.75                192   1052.0361     -886.33066      25.97339      -860.35727      8687.6749      5227.1769      2.1329099      24.909354      21.815299      9.6193019      2.9462182    
     41600   20.8                 192   1060.4215     -885.5296       26.180416     -859.34919      14360.684      5227.1769      2.1329099      24.909354      21.815299      9.6193019      6.6828902    
     41700   20.85                192   1127.3845     -885.77456      27.833643     -857.94091      17197.178      5227.1769      2.1329099      24.909354      21.815299      9.6193019      3.112454     
     41800   20.9                 192   1183.058      -885.09601      29.20815      -855.88786      11141.908      5227.1769      2.1329099      24.909354      21.815299      9.6193019      2.8876266    
     41900   20.95                192   1189.2658     -882.60702      29.361413     -853.2456       13428.117      5227.1769      2.1329099      24.909354      21.815299      9.6193019      2.7285306    
     42000   21                   192   1286.091      -883.73522      31.751898     -851.98332      15918.068      5227.1769      2.1329099      24.909354      21.815299      9.6193019      4.5864738    
     42100   21.05                192   1141.5521     -881.61134      28.183424     -853.42792      14415.724      5227.1769      2.1329099      24.909354      21.815299      9.6193019      4.3027916    
     42200   21.1                 192   1122.0988     -883.03399      27.703147     -855.33084      12928.927      5227.1769      2.1329099      24.909354      21.815299      9.6193019      2.8907032    
     42300   21.15                192   1166.5089     -885.21476      28.799574     -856.41519      13665.238      5227.1769      2.1329099      24.909354      21.815299      9.6193019      3.0277103    
     42400   21.2                 192   1032.3263     -882.99623      25.486781     -857.50945      7630.418       5227.1769      2.1329099      24.909354      21.815299      9.6193019      3.9653342    
     42500   21.25                192   1076.2068     -884.72876      26.570134     -858.15862      17178.495      5227.1769      2.1329099      24.909354      21.815299      9.6193019      3.9388946    
     42600   21.3                 192   1096.976      -885.90558      27.082898     -858.82268      12599.877      5227.1769      2.1329099      24.909354      21.815299      9.6193019      3.2907031    
     42700   21.35                192   1059.0237     -885.90622      26.145905     -859.76031      16401.822      5227.1769      2.1329099      24.909354      21.815299      9.6193019      2.8207413    
     42800   21.4                 192   1066.4993     -887.59145      26.330468     -861.26099      13763.932      5227.1769      2.1329099      24.909354      21.815299      9.6193019      4.7296865    
     42900   21.45                192   1011.6604     -887.75745      24.976568     -862.78089      14911.396      5227.1769      2.1329099      24.909354      21.815299      9.6193019      3.4559852    
     43000   21.5                 192   1004.1371     -888.45066      24.790827     -863.65983      11836.131      5227.1769      2.1329099      24.909354      21.815299      9.6193019      3.0417293    
     43100   21.55                192   987.09629     -888.34822      24.370112     -863.9781       11001.18       5227.1769      2.1329099      24.909354      21.815299      9.6193019      2.7365355    
     43200   21.6                 192   945.64393     -887.14059      23.346708     -863.79388      17302.692      5227.1769      2.1329099      24.909354      21.815299      9.6193019      4.0100815    
     43300   21.65                192   975.90752     -887.06933      24.093876     -862.97546      15406.68       5227.1769      2.1329099      24.909354      21.815299      9.6193019      4.0016598    
     43400   21.7                 192   1029.4321     -886.97769      25.415328     -861.56237      13271.127      5227.1769      2.1329099      24.909354      21.815299      9.6193019      4.1386868    
     43500   21.75                192   1063.3378     -885.68467      26.252414     -859.43226      16306.636      5227.1769      2.1329099      24.909354      21.815299      9.6193019      4.6522692    
     43600   21.8                 192   1130.1862     -885.64225      27.902815     -857.73943      14649.986      5227.1769      2.1329099      24.909354      21.815299      9.6193019      3.3591062    
     43700   21.85                192   1124.7015     -885.22458      27.767404     -857.45718      13734.642      5227.1769      2.1329099      24.909354      21.815299      9.6193019      3.2789104    
     43800   21.9                 192   1021.0312     -883.47743      25.207919     -858.26951      19794.095      5227.1769      2.1329099      24.909354      21.815299      9.6193019      3.8662829    
     43900   21.95                192   1102.2351     -885.97892      27.212739     -858.76618      12587.561      5227.1769      2.1329099      24.909354      21.815299      9.6193019      4.3195247    
     44000   22                   192   1066.7891     -885.9485       26.337622     -859.61088      10860.731      5227.1769      2.1329099      24.909354      21.815299      9.6193019      3.1910131    
     44100   22.05                192   999.0718      -885.49058      24.665772     -860.8248       11653.709      5227.1769      2.1329099      24.909354      21.815299      9.6193019      3.7264688    
     44200   22.1                 192   1008.3047     -886.78915      24.893719     -861.89543      16795.79       5227.1769      2.1329099      24.909354      21.815299      9.6193019      3.1776274    
     44300   22.15                192   1017.5913     -888.07707      25.122995     -862.95408      8897.9282      5227.1769      2.1329099      24.909354      21.815299      9.6193019      3.6536538    
     44400   22.2                 192   1036.5318     -889.60497      25.590611     -864.01436      14437.633      5227.1769      2.1329099      24.909354      21.815299      9.6193019      3.7701792    
     44500   22.25                192   1011.4951     -890.23891      24.972485     -865.26642      10321.672      5227.1769      2.1329099      24.909354      21.815299      9.6193019      3.0127736    
     44600   22.3                 192   925.39792     -888.9127       22.84686      -866.06584      17784.662      5227.1769      2.1329099      24.909354      21.815299      9.6193019      2.8758275    
     44700   22.35                192   908.13115     -888.27735      22.420566     -865.85678      8469.1016      5227.1769      2.1329099      24.909354      21.815299      9.6193019      2.7808474    
     44800   22.4                 192   1004.9961     -889.81542      24.812036     -865.00339      12921.505      5227.1769      2.1329099      24.909354      21.815299      9.6193019      4.3052257    
     44900   22.45                192   1030.714      -889.53817      25.446976     -864.09119      12058.102      5227.1769      2.1329099      24.909354      21.815299      9.6193019      2.5720531    
     45000   22.5                 192   1057.0303     -889.60916      26.096691     -863.51247      13064.764      5227.1769      2.1329099      24.909354      21.815299      9.6193019      3.9342337    
     45100   22.55                192   1020.6207     -888.7985       25.197785     -863.60071      10697.535      5227.1769      2.1329099      24.909354      21.815299      9.6193019      2.703193     
     45200   22.6                 192   948.61291     -887.24243      23.420008     -863.82242      17527.404      5227.1769      2.1329099      24.909354      21.815299      9.6193019      3.3672999    
     45300   22.65                192   994.88218     -888.53488      24.562335     -863.97254      17503.762      5227.1769      2.1329099      24.909354      21.815299      9.6193019      3.7796915    
     45400   22.7                 192   922.61909     -887.04209      22.778255     -864.26384      6849.6593      5227.1769      2.1329099      24.909354      21.815299      9.6193019      4.6836562    
     45500   22.75                192   1021.2703     -889.44351      25.213822     -864.22969      15570.71       5227.1769      2.1329099      24.909354      21.815299      9.6193019      4.2612885    
     45600   22.8                 192   1020.6536     -889.37221      25.198598     -864.17361      7332.8266      5227.1769      2.1329099      24.909354      21.815299      9.6193019      2.3189387    
     45700   22.85                192   1007.6273     -889.03183      24.876996     -864.15484      11982.884      5227.1769      2.1329099      24.909354      21.815299      9.6193019      3.052509     
     45800   22.9                 192   922.9274      -886.99055      22.785866     -864.20468      7872.1383      5227.1769      2.1329099      24.909354      21.815299      9.6193019      3.131517     
     45900   22.95                192   979.27587     -888.07893      24.177036     -863.90189      13065.596      5227.1769      2.1329099      24.909354      21.815299      9.6193019      2.9750259    
     46000   23                   192   1012.8242     -888.48466      25.005299     -863.47936      13962.501      5227.1769      2.1329099      24.909354      21.815299      9.6193019      3.0072233    
     46100   23.05                192   1017.4741     -888.50303      25.120101     -863.38293      14222.072      5227.1769      2.1329099      24.909354      21.815299      9.6193019      3.5092344    
     46200   23.1                 192   953.1771      -887.5329       23.532692     -864.00021      12879.14       5227.1769      2.1329099      24.909354      21.815299      9.6193019      3.3734499    
     46300   23.15                192   981.74565     -888.89662      24.238012     -864.65861      12913.782      5227.1769      2.1329099      24.909354      21.815299      9.6193019      3.8790806    
     46400   23.2                 192   909.7176      -888.10865      22.459734     -865.64892      13531.021      5227.1769      2.1329099      24.909354      21.815299      9.6193019      2.7091719    
     46500   23.25                192   1002.1691     -891.48222      24.742239     -866.73998      16155.908      5227.1769      2.1329099      24.909354      21.815299      9.6193019      2.69699      
     46600   23.3                 192   910.6781      -890.51409      22.483447     -868.03065      9306.6282      5227.1769      2.1329099      24.909354      21.815299      9.6193019      3.8678767    
     46700   23.35                192   842.02775     -889.24369      20.78856      -868.45513      11894.139      5227.1769      2.1329099      24.909354      21.815299      9.6193019      3.2148705    
     46800   23.4                 192   916.12905     -890.20868      22.618024     -867.59066      14726.139      5227.1769      2.1329099      24.909354      21.815299      9.6193019      2.7165745    
     46900   23.45                192   983.29261     -889.84212      24.276204     -865.56592      12209.909      5227.1769      2.1329099      24.909354      21.815299      9.6193019      3.5470718    
     47000   23.5                 192   974.75612     -888.16881      24.06545      -864.10336      11379.822      5227.1769      2.1329099      24.909354      21.815299      9.6193019      3.3044966    
     47100   23.55                192   1049.9821     -889.56152      25.92268      -863.63884      11704.11       5227.1769      2.1329099      24.909354      21.815299      9.6193019      2.9566025    
     47200   23.6                 192   946.55793     -887.2088       23.369273     -863.83952      14333.765      5227.1769      2.1329099      24.909354      21.815299      9.6193019      3.0424956    
     47300   23.65                192   987.89166     -888.65849      24.389749     -864.26874      15633.49       5227.1769      2.1329099      24.909354      21.815299      9.6193019      2.9554785    
     47400   23.7                 192   987.29177     -889.51072      24.374938     -865.13578      15866.222      5227.1769      2.1329099      24.909354      21.815299      9.6193019      3.8019525    
     47500   23.75                192   934.09341     -889.3316       23.06154      -866.27005      16510.343      5227.1769      2.1329099      24.909354      21.815299      9.6193019      3.3467977    
     47600   23.8                 192   883.40601     -888.99312      21.810135     -867.18298      5375.8106      5227.1769      2.1329099      24.909354      21.815299      9.6193019      3.164577     
     47700   23.85                192   917.32686     -890.03989      22.647596     -867.39229      14252.292      5227.1769      2.1329099      24.909354      21.815299      9.6193019      3.1769103    
     47800   23.9                 192   1034.9333     -892.94404      25.551145     -867.3929       15296.786      5227.1769      2.1329099      24.909354      21.815299      9.6193019      3.2270343    
     47900   23.95                192   1000.5232     -893.31071      24.701604     -868.60911      6888.5552      5227.1769      2.1329099      24.909354      21.815299      9.6193019      3.123242     
     48000   24                   192   864.85206     -892.35884      21.352062     -871.00677      15891.741      5227.1769      2.1329099      24.909354      21.815299      9.6193019      3.3800469    
     48100   24.05                192   875.89565     -893.77842      21.624714     -872.15371      6798.6954      5227.1769      2.1329099      24.909354      21.815299      9.6193019      3.1518163    
     48200   24.1                 192   852.28795     -893.39107      21.041871     -872.3492       11916.549      5227.1769      2.1329099      24.909354      21.815299      9.6193019      2.7454046    
     48300   24.15                192   799.23806     -891.27746      19.732139     -871.54532      10350.679      5227.1769      2.1329099      24.909354      21.815299      9.6193019      3.1053632    
     48400   24.2                 192   846.52717     -890.71104      20.899645     -869.81139      8838.6999      5227.1769      2.1329099      24.909354      21.815299      9.6193019      3.2398234    
     48500   24.25                192   941.42913     -891.83866      23.24265      -868.59601      13483.893      5227.1769      2.1329099      24.909354      21.815299      9.6193019      2.7737263    
     48600   24.3                 192   989.09539     -892.40957      24.419467     -867.99011      10023.431      5227.1769      2.1329099      24.909354      21.815299      9.6193019      3.0344167    
     48700   24.35                192   934.51637     -890.72277      23.071983     -867.65078      10694.328      5227.1769      2.1329099      24.909354      21.815299      9.6193019      3.1487206    
     48800   24.4                 192   953.332       -890.75852      23.536516     -867.22201      8080.1472      5227.1769      2.1329099      24.909354      21.815299      9.6193019      3.0967873    
     48900   24.45                192   915.29163     -889.38767      22.597349     -866.79032      10013.027      5227.1769      2.1329099      24.909354      21.815299      9.6193019      3.0797334    
     49000   24.5                 192   961.97553     -890.08729      23.749914     -866.33737      4974.3172      5227.1769      2.1329099      24.909354      21.815299      9.6193019      2.9685795    
     49100   24.55                192   953.79073     -889.50808      23.547841     -865.96024      14868.951      5227.1769      2.1329099      24.909354      21.815299      9.6193019      3.2822574    
     49200   24.6                 192   934.197       -888.92476      23.064098     -865.86066      7369.2655      5227.1769      2.1329099      24.909354      21.815299      9.6193019      3.5857405    
     49300   24.65                192   943.10372     -889.61536      23.283993     -866.33136      13363.215      5227.1769      2.1329099      24.909354      21.815299      9.6193019      2.868583     
     49400   24.7                 192   893.41397     -889.51996      22.057219     -867.46274      11558.923      5227.1769      2.1329099      24.909354      21.815299      9.6193019      2.7261278    
     49500   24.75                192   922.6263      -891.37378      22.778433     -868.59534      6995.8244      5227.1769      2.1329099      24.909354      21.815299      9.6193019      2.6637721    
     49600   24.8                 192   900.17933     -892.02643      22.224246     -869.80218      11566.957      5227.1769      2.1329099      24.909354      21.815299      9.6193019      2.4225101    
     49700   24.85                192   822.43852     -890.80519      20.304928     -870.50026      6689.8944      5227.1769      2.1329099      24.909354      21.815299      9.6193019      3.3849842    
     49800   24.9                 192   845.37799     -891.04846      20.871273     -870.17719      11565.204      5227.1769      2.1329099      24.909354      21.815299      9.6193019      3.4496775    
     49900   24.95                192   897.72251     -891.08025      22.163591     -868.91666      11597.039      5227.1769      2.1329099      24.909354      21.815299      9.6193019      3.762797     
     50000   25                   192   917.52854     -890.24789      22.652576     -867.59531      12997.204      5227.1769      2.1329099      24.909354      21.815299      9.6193019      3.7083626    
     50100   25.05                192   951.03569     -890.60471      23.479823     -867.12488      10778.522      5227.1769      2.1329099      24.909354      21.815299      9.6193019      2.6415328    
     50200   25.1                 192   975.4876      -891.46732      24.083509     -867.38381      7199.8664      5227.1769      2.1329099      24.909354      21.815299      9.6193019      2.6207951    
     50300   25.15                192   839.76458     -888.60557      20.732685     -867.87289      11328.868      5227.1769      2.1329099      24.909354      21.815299      9.6193019      3.2569132    
     50400   25.2                 192   904.78935     -890.10802      22.338062     -867.76996      9894.0651      5227.1769      2.1329099      24.909354      21.815299      9.6193019      2.2844751    
     50500   25.25                192   930.01003     -890.41039      22.960727     -867.44966      8551.9243      5227.1769      2.1329099      24.909354      21.815299      9.6193019      3.4402427    
     50600   25.3                 192   911.85904     -889.91372      22.512603     -867.40111      12492.986      5227.1769      2.1329099      24.909354      21.815299      9.6193019      2.6450301    
     50700   25.35                192   966.8987      -891.7718       23.87146      -867.90034      12122.532      5227.1769      2.1329099      24.909354      21.815299      9.6193019      3.1982143    
     50800   25.4                 192   840.8827      -890.25573      20.76029      -869.49544      11679.023      5227.1769      2.1329099      24.909354      21.815299      9.6193019      3.2796262    
     50900   25.45                192   888.28234     -892.97156      21.930525     -871.04104      14347.956      5227.1769      2.1329099      24.909354      21.815299      9.6193019      3.774243     
     51000   25.5                 192   818.64158     -892.26409      20.211186     -872.05291      13633.276      5227.1769      2.1329099      24.909354      21.815299      9.6193019      3.3469866    
     51100   25.55                192   887.7331      -894.11352      21.916965     -872.19655      17952.591      5227.1769      2.1329099      24.909354      21.815299      9.6193019      3.3932158    
     51200   25.6                 192   820.38785     -892.28341      20.2543       -872.02911      8435.8621      5227.1769      2.1329099      24.909354      21.815299      9.6193019      3.4802508    
     51300   25.65                192   823.90866     -891.71231      20.341224     -871.37109      20497.523      5227.1769      2.1329099      24.909354      21.815299      9.6193019      3.7833212    
     51400   25.7                 192   858.96063     -891.75325      21.206611     -870.54664      11177.609      5227.1769      2.1329099      24.909354      21.815299      9.6193019      3.5599219    
     51500   25.75                192   824.04786     -890.33914      20.34466      -869.99448      12408.106      5227.1769      2.1329099      24.909354      21.815299      9.6193019      3.3312173    
     51600   25.8                 192   791.85167     -888.95618      19.549779     -869.40641      17374.91       5227.1769      2.1329099      24.909354      21.815299      9.6193019      4.3881808    
     51700   25.85                192   850.77876     -889.82055      21.004611     -868.81594      14825.009      5227.1769      2.1329099      24.909354      21.815299      9.6193019      4.3217998    
     51800   25.9                 192   880.27439     -890.01483      21.73282      -868.28201      16498.277      5227.1769      2.1329099      24.909354      21.815299      9.6193019      2.9632169    
     51900   25.95                192   974.17653     -891.97598      24.05114      -867.92484      11761.797      5227.1769      2.1329099      24.909354      21.815299      9.6193019      3.185693     
     52000   26                   192   928.10452     -891.42153      22.913683     -868.50785      13874.216      5227.1769      2.1329099      24.909354      21.815299      9.6193019      3.8821173    
     52100   26.05                192   857.71282     -890.8868       21.175804     -869.71099      9466.0345      5227.1769      2.1329099      24.909354      21.815299      9.6193019      3.6523911    
     52200   26.1                 192   815.56418     -890.86596      20.135209     -870.73075      13576.463      5227.1769      2.1329099      24.909354      21.815299      9.6193019      2.7379993    
     52300   26.15                192   768.09011     -890.13661      18.963137     -871.17347      3567.8497      5227.1769      2.1329099      24.909354      21.815299      9.6193019      2.5588217    
     52400   26.2                 192   823.86763     -891.28431      20.340211     -870.9441       8811.3255      5227.1769      2.1329099      24.909354      21.815299      9.6193019      2.9575566    
     52500   26.25                192   809.35394     -890.53965      19.981887     -870.55777      11085.44       5227.1769      2.1329099      24.909354      21.815299      9.6193019      3.041375     
     52600   26.3                 192   879.13789     -891.90914      21.704761     -870.20438      13665.175      5227.1769      2.1329099      24.909354      21.815299      9.6193019      3.8047086    
     52700   26.35                192   845.01874     -891.09232      20.862404     -870.22992      10086.927      5227.1769      2.1329099      24.909354      21.815299      9.6193019      2.6825818    
     52800   26.4                 192   860.79425     -891.5269       21.25188      -870.27502      13232.856      5227.1769      2.1329099      24.909354      21.815299      9.6193019      3.0645085    
     52900   26.45                192   827.01745     -890.87032      20.417976     -870.45234      13453.887      5227.1769      2.1329099      24.909354      21.815299      9.6193019      3.4969508    
     53000   26.5                 192   852.95147     -891.91117      21.058253     -870.85292      10827.861      5227.1769      2.1329099      24.909354      21.815299      9.6193019      2.8470446    
     53100   26.55                192   871.96666     -892.90594      21.527713     -871.37823      8177.8147      5227.1769      2.1329099      24.909354      21.815299      9.6193019      3.5296164    
     53200   26.6                 192   876.36088     -894.02022      21.6362       -872.38402      15291.663      5227.1769      2.1329099      24.909354      21.815299      9.6193019      2.9847285    
     53300   26.65                192   811.36249     -893.82923      20.031475     -873.79776      4765.4937      5227.1769      2.1329099      24.909354      21.815299      9.6193019      2.9976696    
     53400   26.7                 192   823.587       -894.83352      20.333282     -874.50024      14517.79       5227.1769      2.1329099      24.909354      21.815299      9.6193019      3.00679      
     53500   26.75                192   821.63581     -894.85897      20.28511      -874.57386      8060.4564      5227.1769      2.1329099      24.909354      21.815299      9.6193019      2.6964345    
     53600   26.8                 192   775.72903     -893.38827      19.151732     -874.23654      15222.318      5227.1769      2.1329099      24.909354      21.815299      9.6193019      4.4594015    
     53700   26.85                192   814.19899     -893.76914      20.101505     -873.66764      11077.205      5227.1769      2.1329099      24.909354      21.815299      9.6193019      2.9486684    
     53800   26.9                 192   814.6977      -893.25397      20.113817     -873.14015      10059.107      5227.1769      2.1329099      24.909354      21.815299      9.6193019      2.8696083    
     53900   26.95                192   826.9569      -893.07919      20.416481     -872.66271      12013.522      5227.1769      2.1329099      24.909354      21.815299      9.6193019      2.4274424    
     54000   27                   192   762.4433      -890.99166      18.823725     -872.16794      6770.1162      5227.1769      2.1329099      24.909354      21.815299      9.6193019      3.4769601    
     54100   27.05                192   830.98421     -891.68533      20.51591      -871.16942      13291.336      5227.1769      2.1329099      24.909354      21.815299      9.6193019      4.4983965    
     54200   27.1                 192   908.85115     -892.77589      22.438342     -870.33755      12229.844      5227.1769      2.1329099      24.909354      21.815299      9.6193019      4.0206809    
     54300   27.15                192   802.37109     -890.02959      19.809489     -870.2201       10734.795      5227.1769      2.1329099      24.909354      21.815299      9.6193019      3.0826523    
     54400   27.2                 192   850.92516     -891.01802      21.008225     -870.0098       13405.814      5227.1769      2.1329099      24.909354      21.815299      9.6193019      2.5782756    
     54500   27.25                192   820.68304     -890.56733      20.261587     -870.30574      9026.932       5227.1769      2.1329099      24.909354      21.815299      9.6193019      2.4733675    
     54600   27.3                 192   807.78024     -891.94161      19.943034     -871.99858      16375.304      5227.1769      2.1329099      24.909354      21.815299      9.6193019      2.9612593    
     54700   27.35                192   765.93503     -892.77491      18.909931     -873.86498      9371.7592      5227.1769      2.1329099      24.909354      21.815299      9.6193019      2.4386569    
     54800   27.4                 192   799.49972     -894.406        19.738599     -874.6674       15376.59       5227.1769      2.1329099      24.909354      21.815299      9.6193019      3.6648659    
     54900   27.45                192   721.45134     -893.02621      17.811687     -875.21453      11811.66       5227.1769      2.1329099      24.909354      21.815299      9.6193019      3.5159577    
     55000   27.5                 192   820.82644     -895.79403      20.265128     -875.5289       12208.856      5227.1769      2.1329099      24.909354      21.815299      9.6193019      2.8234165    
     55100   27.55                192   774.93257     -895.09024      19.132068     -875.95818      12472.761      5227.1769      2.1329099      24.909354      21.815299      9.6193019      3.0658058    
     55200   27.6                 192   758.58764     -894.89651      18.728533     -876.16798      7942.0371      5227.1769      2.1329099      24.909354      21.815299      9.6193019      2.0938927    
     55300   27.65                192   807.6899      -895.66032      19.940804     -875.71952      13818.786      5227.1769      2.1329099      24.909354      21.815299      9.6193019      3.557418     
     55400   27.7                 192   803.44358     -894.33855      19.835968     -874.50258      6183.5997      5227.1769      2.1329099      24.909354      21.815299      9.6193019      3.1352986    
     55500   27.75                192   827.29052     -893.41481      20.424717     -872.9901       11748.102      5227.1769      2.1329099      24.909354      21.815299      9.6193019      3.6323198    
     55600   27.8                 192   851.35824     -893.36576      21.018918     -872.34685      7599.1577      5227.1769      2.1329099      24.909354      21.815299      9.6193019      3.5607744    
     55700   27.85                192   807.04969     -892.3041       19.924998     -872.3791       11519.304      5227.1769      2.1329099      24.909354      21.815299      9.6193019      3.0681544    
     55800   27.9                 192   864.57839     -894.27216      21.345306     -872.92685      13430.048      5227.1769      2.1329099      24.909354      21.815299      9.6193019      2.4162256    
     55900   27.95                192   740.50047     -892.74174      18.281985     -874.45976      12435.876      5227.1769      2.1329099      24.909354      21.815299      9.6193019      2.7733092    
     56000   28                   192   758.56775     -894.21081      18.728042     -875.48277      13790.238      5227.1769      2.1329099      24.909354      21.815299      9.6193019      2.7436538    
     56100   28.05                192   748.68403     -894.15781      18.484026     -875.67378      5695.3797      5227.1769      2.1329099      24.909354      21.815299      9.6193019      2.7610718    
     56200   28.1                 192   808.80527     -895.35989      19.968341     -875.39155      10481.213      5227.1769      2.1329099      24.909354      21.815299      9.6193019      3.5798588    
     56300   28.15                192   798.37059     -894.99495      19.710722     -875.28423      9067.6777      5227.1769      2.1329099      24.909354      21.815299      9.6193019      2.9921494    
     56400   28.2                 192   840.52637     -895.96946      20.751493     -875.21796      11596.33       5227.1769      2.1329099      24.909354      21.815299      9.6193019      2.6119713    
     56500   28.25                192   801.09932     -895.49714      19.778091     -875.71905      6341.9833      5227.1769      2.1329099      24.909354      21.815299      9.6193019      4.4859989    
     56600   28.3                 192   768.86642     -895.86958      18.982303     -876.88727      11655.339      5227.1769      2.1329099      24.909354      21.815299      9.6193019      2.6732933    
     56700   28.35                192   764.28596     -896.82424      18.869217     -877.95503      11521.096      5227.1769      2.1329099      24.909354      21.815299      9.6193019      2.8276533    
     56800   28.4                 192   762.17937     -897.50267      18.817208     -878.68546      11362.313      5227.1769      2.1329099      24.909354      21.815299      9.6193019      2.5467971    
     56900   28.45                192   749.22754     -897.34216      18.497445     -878.84471      8158.2581      5227.1769      2.1329099      24.909354      21.815299      9.6193019      3.5493136    
     57000   28.5                 192   751.89646     -897.12133      18.563337     -878.55799      11957.603      5227.1769      2.1329099      24.909354      21.815299      9.6193019      2.790228     
     57100   28.55                192   767.56301     -897.24475      18.950124     -878.29462      9770.0236      5227.1769      2.1329099      24.909354      21.815299      9.6193019      4.1678711    
     57200   28.6                 192   736.71387     -896.28465      18.188499     -878.09615      12067.342      5227.1769      2.1329099      24.909354      21.815299      9.6193019      3.1048247    
     57300   28.65                192   805.86497     -897.61964      19.895749     -877.72389      8855.5664      5227.1769      2.1329099      24.909354      21.815299      9.6193019      2.9926842    
     57400   28.7                 192   701.09957     -894.63561      17.309228     -877.32638      10709.327      5227.1769      2.1329099      24.909354      21.815299      9.6193019      3.2476629    
     57500   28.75                192   882.60253     -897.07659      21.790298     -875.28629      11651.507      5227.1769      2.1329099      24.909354      21.815299      9.6193019      3.0403875    
     57600   28.8                 192   858.11651     -895.57045      21.185771     -874.38468      10812.404      5227.1769      2.1329099      24.909354      21.815299      9.6193019      3.0474276    
     57700   28.85                192   747.2741      -893.46189      18.449217     -875.01267      6075.763       5227.1769      2.1329099      24.909354      21.815299      9.6193019      2.5496134    
     57800   28.9                 192   766.79431     -895.01798      18.931145     -876.08684      10428.132      5227.1769      2.1329099      24.909354      21.815299      9.6193019      2.9033365    
     57900   28.95                192   722.1517      -895.27864      17.828978     -877.44966      7806.6252      5227.1769      2.1329099      24.909354      21.815299      9.6193019      2.9052936    
     58000   29                   192   742.81819     -896.62763      18.339206     -878.28842      13145.302      5227.1769      2.1329099      24.909354      21.815299      9.6193019      3.0704008    
     58100   29.05                192   727.85409     -896.7069       17.969762     -878.73714      7339.6337      5227.1769      2.1329099      24.909354      21.815299      9.6193019      2.4776674    
     58200   29.1                 192   736.40621     -896.90416      18.180903     -878.72326      6292.9618      5227.1769      2.1329099      24.909354      21.815299      9.6193019      2.5360569    
     58300   29.15                192   732.66534     -896.56837      18.088546     -878.47982      8075.0022      5227.1769      2.1329099      24.909354      21.815299      9.6193019      2.9667242    
     58400   29.2                 192   679.49642     -895.24342      16.775875     -878.46754      9175.3939      5227.1769      2.1329099      24.909354      21.815299      9.6193019      3.3037288    
     58500   29.25                192   729.11786     -896.46735      18.000963     -878.46639      8080.4043      5227.1769      2.1329099      24.909354      21.815299      9.6193019      3.2559254    
     58600   29.3                 192   742.85987     -896.95092      18.340235     -878.61068      9974.3419      5227.1769      2.1329099      24.909354      21.815299      9.6193019      2.7878808    
     58700   29.35                192   706.82855     -896.89449      17.450669     -879.44382      7701.032       5227.1769      2.1329099      24.909354      21.815299      9.6193019      3.2488557    
     58800   29.4                 192   687.31956     -897.35697      16.969018     -880.38795      8405.7529      5227.1769      2.1329099      24.909354      21.815299      9.6193019      2.3503354    
     58900   29.45                192   637.28063     -896.57767      15.733623     -880.84405      6085.9445      5227.1769      2.1329099      24.909354      21.815299      9.6193019      2.477892     
     59000   29.5                 192   729.29889     -898.43617      18.005433     -880.43074      11074.941      5227.1769      2.1329099      24.909354      21.815299      9.6193019      2.5727719    
     59100   29.55                192   699.25458     -896.83606      17.263678     -879.57238      10342.328      5227.1769      2.1329099      24.909354      21.815299      9.6193019      3.6956598    
     59200   29.6                 192   710.76507     -895.95954      17.547857     -878.41169      9834.7901      5227.1769      2.1329099      24.909354      21.815299      9.6193019      2.9670684    
     59300   29.65                192   751.14022     -896.15604      18.544666     -877.61138      10825.935      5227.1769      2.1329099      24.909354      21.815299      9.6193019      2.9204177    
     59400   29.7                 192   761.98233     -896.21451      18.812344     -877.40216      4337.235       5227.1769      2.1329099      24.909354      21.815299      9.6193019      2.366831     
     59500   29.75                192   719.98875     -895.43889      17.775577     -877.66332      8478.6814      5227.1769      2.1329099      24.909354      21.815299      9.6193019      2.6087268    
     59600   29.8                 192   734.05546     -896.08009      18.122866     -877.95722      3701.0555      5227.1769      2.1329099      24.909354      21.815299      9.6193019      2.3639786    
     59700   29.85                192   769.8584      -897.20415      19.006794     -878.19736      8728.3529      5227.1769      2.1329099      24.909354      21.815299      9.6193019      2.6051577    
     59800   29.9                 192   773.04931     -897.93385      19.085573     -878.84828      8690.8462      5227.1769      2.1329099      24.909354      21.815299      9.6193019      2.534379     
     59900   29.95                192   719.71443     -897.31931      17.768805     -879.5505       7060.4718      5227.1769      2.1329099      24.909354      21.815299      9.6193019      3.1876037    
     60000   30                   192   710.1152      -897.73386      17.531812     -880.20204      11679.572      5227.1769      2.1329099      24.909354      21.815299      9.6193019      2.7427829    
     60100   30.05                192   660.51902     -897.09528      16.307348     -880.78793      11643.253      5227.1769      2.1329099      24.909354      21.815299      9.6193019      2.6837339    
     60200   30.1                 192   671.34928     -897.53467      16.574733     -880.95993      10095.732      5227.1769      2.1329099      24.909354      21.815299      9.6193019      2.8518285    
     60300   30.15                192   755.68274     -899.53001      18.656815     -880.87319      6434.7798      5227.1769      2.1329099      24.909354      21.815299      9.6193019      1.9998849    
     60400   30.2                 192   679.95493     -897.96227      16.787195     -881.17507      9679.8056      5227.1769      2.1329099      24.909354      21.815299      9.6193019      2.6252836    
     60500   30.25                192   667.16874     -897.84681      16.471521     -881.37529      10135.452      5227.1769      2.1329099      24.909354      21.815299      9.6193019      2.6774106    
     60600   30.3                 192   587.12262     -896.00777      14.495287     -881.51249      8366.2077      5227.1769      2.1329099      24.909354      21.815299      9.6193019      3.3902181    
     60700   30.35                192   697.64531     -898.19675      17.223947     -880.9728       11095.376      5227.1769      2.1329099      24.909354      21.815299      9.6193019      3.0921402    
     60800   30.4                 192   729.22682     -897.87252      18.003653     -879.86886      4935.6747      5227.1769      2.1329099      24.909354      21.815299      9.6193019      2.8251544    
     60900   30.45                192   679.59132     -896.01323      16.778218     -879.23501      12606.385      5227.1769      2.1329099      24.909354      21.815299      9.6193019      2.6409449    
     61000   30.5                 192   662.91903     -895.26158      16.366601     -878.89498      6059.408       5227.1769      2.1329099      24.909354      21.815299      9.6193019      3.5251545    
     61100   30.55                192   696.90026     -896.10704      17.205553     -878.90148      11708.894      5227.1769      2.1329099      24.909354      21.815299      9.6193019      3.761426     
     61200   30.6                 192   708.34418     -896.96381      17.488088     -879.47572      6695.5102      5227.1769      2.1329099      24.909354      21.815299      9.6193019      3.2479894    
     61300   30.65                192   730.68869     -898.97836      18.039745     -880.93862      7530.7632      5227.1769      2.1329099      24.909354      21.815299      9.6193019      2.890095     
     61400   30.7                 192   659.68226     -898.53103      16.286689     -882.24434      7292.9016      5227.1769      2.1329099      24.909354      21.815299      9.6193019      2.9709397    
     61500   30.75                192   642.74243     -898.45603      15.868467     -882.58756      3289.91        5227.1769      2.1329099      24.909354      21.815299      9.6193019      2.4917608    
     61600   30.8                 192   667.89899     -899.00905      16.48955      -882.5195       7379.2452      5227.1769      2.1329099      24.909354      21.815299      9.6193019      2.2609695    
     61700   30.85                192   707.79678     -899.90569      17.474574     -882.43112      5358.4961      5227.1769      2.1329099      24.909354      21.815299      9.6193019      2.434084     
     61800   30.9                 192   648.99379     -898.57654      16.022805     -882.55374      6627.0503      5227.1769      2.1329099      24.909354      21.815299      9.6193019      2.6978903    
     61900   30.95                192   671.89762     -898.93797      16.588271     -882.34969      11649.662      5227.1769      2.1329099      24.909354      21.815299      9.6193019      2.8628398    
     62000   31                   192   736.52033     -900.21564      18.18372      -882.03192      7968.506       5227.1769      2.1329099      24.909354      21.815299      9.6193019      3.5027307    
     62100   31.05                192   647.42291     -898.7633       15.984022     -882.77927      8663.9252      5227.1769      2.1329099      24.909354      21.815299      9.6193019      2.6042284    
     62200   31.1                 192   655.3588      -900.34994      16.179949     -884.17         9245.2193      5227.1769      2.1329099      24.909354      21.815299      9.6193019      2.5291242    
     62300   31.15                192   626.97287     -900.61798      15.479137     -885.13884      6005.8036      5227.1769      2.1329099      24.909354      21.815299      9.6193019      2.7018383    
     62400   31.2                 192   601.73028     -900.18048      14.855931     -885.32454      8431.737       5227.1769      2.1329099      24.909354      21.815299      9.6193019      2.3882562    
     62500   31.25                192   610.10601     -900.13858      15.062717     -885.07587      7580.9109      5227.1769      2.1329099      24.909354      21.815299      9.6193019      3.2703538    
     62600   31.3                 192   633.04703     -900.28028      15.6291       -884.65118      9714.5789      5227.1769      2.1329099      24.909354      21.815299      9.6193019      2.7371853    
     62700   31.35                192   643.57683     -900.00995      15.889067     -884.12088      11124.701      5227.1769      2.1329099      24.909354      21.815299      9.6193019      2.5087427    
     62800   31.4                 192   613.57371     -898.60472      15.14833      -883.45639      5539.0152      5227.1769      2.1329099      24.909354      21.815299      9.6193019      3.0512987    
     62900   31.45                192   697.08258     -899.50545      17.210054     -882.2954       13337.074      5227.1769      2.1329099      24.909354      21.815299      9.6193019      3.6485909    
     63000   31.5                 192   680.50319     -898.1334       16.800731     -881.33267      7713.1247      5227.1769      2.1329099      24.909354      21.815299      9.6193019      3.3246676    
     63100   31.55                192   682.20189     -898.00577      16.842669     -881.1631       11674.105      5227.1769      2.1329099      24.909354      21.815299      9.6193019      3.4479192    
     63200   31.6                 192   676.45327     -898.69429      16.700743     -881.99354      5955.0042      5227.1769      2.1329099      24.909354      21.815299      9.6193019      3.0363378    
     63300   31.65                192   626.03493     -899.60425      15.455981     -884.14826      10701.652      5227.1769      2.1329099      24.909354      21.815299      9.6193019      2.5041734    
     63400   31.7                 192   650.3354      -901.00475      16.055928     -884.94882      8841.4912      5227.1769      2.1329099      24.909354      21.815299      9.6193019      2.5844639    
     63500   31.75                192   603.03397     -900.20365      14.888117     -885.31554      9096.9019      5227.1769      2.1329099      24.909354      21.815299      9.6193019      2.6202318    
     63600   31.8                 192   630.73134     -901.05704      15.571929     -885.48511      5453.8121      5227.1769      2.1329099      24.909354      21.815299      9.6193019      2.8578004    
     63700   31.85                192   617.36689     -900.92949      15.241978     -885.68751      10469.069      5227.1769      2.1329099      24.909354      21.815299      9.6193019      2.9678286    
     63800   31.9                 192   631.60661     -901.4592       15.593538     -885.86566      2845.8792      5227.1769      2.1329099      24.909354      21.815299      9.6193019      3.8256523    
     63900   31.95                192   617.4919      -901.25593      15.245065     -886.01087      14871.156      5227.1769      2.1329099      24.909354      21.815299      9.6193019      2.6701094    
     64000   32                   192   622.8687      -901.59273      15.377811     -886.21492      5063.7018      5227.1769      2.1329099      24.909354      21.815299      9.6193019      2.8150628    
     64100   32.05                192   641.35449     -902.37326      15.834201     -886.53905      10166.201      5227.1769      2.1329099      24.909354      21.815299      9.6193019      2.9925527    
     64200   32.1                 192   580.54518     -901.42625      14.332899     -887.09335      4981.5111      5227.1769      2.1329099      24.909354      21.815299      9.6193019      2.1307083    
     64300   32.15                192   600.42819     -902.30436      14.823784     -887.48058      8625.2603      5227.1769      2.1329099      24.909354      21.815299      9.6193019      2.7826692    
     64400   32.2                 192   554.40418     -901.46956      13.687512     -887.78205      8903.3972      5227.1769      2.1329099      24.909354      21.815299      9.6193019      2.6064152    
     64500   32.25                192   545.02151     -901.14543      13.455866     -887.68957      7518.965       5227.1769      2.1329099      24.909354      21.815299      9.6193019      2.4104322    
     64600   32.3                 192   568.44746     -900.78333      14.034222     -886.7491       9345.1088      5227.1769      2.1329099      24.909354      21.815299      9.6193019      2.0505081    
     64700   32.35                192   605.64398     -900.44         14.952555     -885.48744      5972.679       5227.1769      2.1329099      24.909354      21.815299      9.6193019      2.8443948    
     64800   32.4                 192   655.82333     -900.92966      16.191417     -884.73825      8848.3613      5227.1769      2.1329099      24.909354      21.815299      9.6193019      2.1104098    
     64900   32.45                192   594.26318     -899.3202       14.671578     -884.64862      4102.4647      5227.1769      2.1329099      24.909354      21.815299      9.6193019      2.7225691    
     65000   32.5                 192   655.28858     -900.9834       16.178215     -884.80519      9530.5998      5227.1769      2.1329099      24.909354      21.815299      9.6193019      2.3736459    
     65100   32.55                192   595.45632     -900.13489      14.701035     -885.43386      6561.5921      5227.1769      2.1329099      24.909354      21.815299      9.6193019      2.9293702    
     65200   32.6                 192   557.60816     -899.87068      13.766614     -886.10407      6547.8764      5227.1769      2.1329099      24.909354      21.815299      9.6193019      2.6789855    
     65300   32.65                192   570.88321     -900.76055      14.094357     -886.66619      7974.4406      5227.1769      2.1329099      24.909354      21.815299      9.6193019      2.9176758    
     65400   32.7                 192   580.08322     -901.47074      14.321493     -887.14924      6456.8702      5227.1769      2.1329099      24.909354      21.815299      9.6193019      3.1492851    
     65500   32.75                192   545.60414     -900.99895      13.47025      -887.5287       4067.6605      5227.1769      2.1329099      24.909354      21.815299      9.6193019      2.2465209    
     65600   32.8                 192   542.48893     -901.06004      13.39334      -887.6667       3818.0515      5227.1769      2.1329099      24.909354      21.815299      9.6193019      2.7559962    
     65700   32.85                192   606.74339     -902.51081      14.979698     -887.53111      6999.0933      5227.1769      2.1329099      24.909354      21.815299      9.6193019      2.4887747    
     65800   32.9                 192   589.75218     -901.83317      14.560207     -887.27296      6658.5514      5227.1769      2.1329099      24.909354      21.815299      9.6193019      2.1708855    
     65900   32.95                192   595.73531     -901.7305       14.707923     -887.02257      10134.94       5227.1769      2.1329099      24.909354      21.815299      9.6193019      2.7556522    
     66000   33                   192   626.91462     -902.34768      15.477699     -886.86998      6070.4928      5227.1769      2.1329099      24.909354      21.815299      9.6193019      2.0043897    
     66100   33.05                192   623.30272     -902.53674      15.388526     -887.14822      9725.7211      5227.1769      2.1329099      24.909354      21.815299      9.6193019      1.9451873    
     66200   33.1                 192   541.03635     -901.15462      13.357478     -887.79714      7347.9482      5227.1769      2.1329099      24.909354      21.815299      9.6193019      2.3689158    
     66300   33.15                192   528.6814      -901.0306       13.05245      -887.97815      11057.978      5227.1769      2.1329099      24.909354      21.815299      9.6193019      2.6336412    
     66400   33.2                 192   592.37756     -902.16895      14.625025     -887.54393      7280.7404      5227.1769      2.1329099      24.909354      21.815299      9.6193019      2.5774412    
     66500   33.25                192   583.37403     -901.31805      14.402739     -886.91531      5103.9283      5227.1769      2.1329099      24.909354      21.815299      9.6193019      2.9206641    
     66600   33.3                 192   620.87494     -901.5191       15.328587     -886.19051      11171.342      5227.1769      2.1329099      24.909354      21.815299      9.6193019      2.0510787    
     66700   33.35                192   608.99084     -900.8855       15.035185     -885.85031     -321.55538      5227.1769      2.1329099      24.909354      21.815299      9.6193019      3.2031581    
     66800   33.4                 192   594.32011     -900.5616       14.672984     -885.88862      8234.4084      5227.1769      2.1329099      24.909354      21.815299      9.6193019      2.0862568    
     66900   33.45                192   581.31651     -900.49449      14.351942     -886.14254      5747.0947      5227.1769      2.1329099      24.909354      21.815299      9.6193019      2.3545986    
     67000   33.5                 192   583.16103     -901.37942      14.397481     -886.98194      8479.5315      5227.1769      2.1329099      24.909354      21.815299      9.6193019      3.4510033    
     67100   33.55                192   575.66776     -902.38245      14.212481     -888.16997      7537.5283      5227.1769      2.1329099      24.909354      21.815299      9.6193019      1.8684479    
     67200   33.6                 192   507.53177     -901.40883      12.530293     -888.87854      8925.5236      5227.1769      2.1329099      24.909354      21.815299      9.6193019      3.0397542    
     67300   33.65                192   537.80479     -902.34224      13.277694     -889.06454      8956.9559      5227.1769      2.1329099      24.909354      21.815299      9.6193019      2.6441524    
     67400   33.7                 192   545.57979     -902.4373       13.469649     -888.96766      10406.905      5227.1769      2.1329099      24.909354      21.815299      9.6193019      2.4038481    
     67500   33.75                192   574.49528     -902.7623       14.183534     -888.57877      5122.7337      5227.1769      2.1329099      24.909354      21.815299      9.6193019      2.6024034    
     67600   33.8                 192   554.39552     -901.85684      13.687298     -888.16954      11336.127      5227.1769      2.1329099      24.909354      21.815299      9.6193019      2.2246158    
     67700   33.85                192   567.25414     -901.75804      14.00476      -887.75327      3277.2089      5227.1769      2.1329099      24.909354      21.815299      9.6193019      2.0112139    
     67800   33.9                 192   603.78031     -902.16968      14.906543     -887.26314      9388.695       5227.1769      2.1329099      24.909354      21.815299      9.6193019      2.7672188    
     67900   33.95                192   628.8867      -902.74388      15.526387     -887.21749      3132.8858      5227.1769      2.1329099      24.909354      21.815299      9.6193019      2.5858744    
     68000   34                   192   569.3437      -902.24644      14.056349     -888.19009      8735.1409      5227.1769      2.1329099      24.909354      21.815299      9.6193019      2.9749904    
     68100   34.05                192   543.94245     -902.91975      13.429225     -889.49052      5737.1529      5227.1769      2.1329099      24.909354      21.815299      9.6193019      1.6983871    
     68200   34.1                 192   510.91519     -902.7664       12.613825     -890.15257      7300.5326      5227.1769      2.1329099      24.909354      21.815299      9.6193019      2.5194646    
     68300   34.15                192   543.85123     -903.81617      13.426973     -890.3892       8775.8502      5227.1769      2.1329099      24.909354      21.815299      9.6193019      2.3349008    
     68400   34.2                 192   539.8758      -903.78999      13.328825     -890.46116      5150.8833      5227.1769      2.1329099      24.909354      21.815299      9.6193019      2.7723453    
     68500   34.25                192   493.42408     -902.66507      12.181993     -890.48308      6490.0461      5227.1769      2.1329099      24.909354      21.815299      9.6193019      2.4466982    
     68600   34.3                 192   535.51051     -903.51918      13.221052     -890.29813      6305.4079      5227.1769      2.1329099      24.909354      21.815299      9.6193019      2.0312574    
     68700   34.35                192   556.82918     -903.90845      13.747382     -890.16107      5480.1162      5227.1769      2.1329099      24.909354      21.815299      9.6193019      2.6940839    
     68800   34.4                 192   540.1939      -903.62949      13.336679     -890.29282      9536.9204      5227.1769      2.1329099      24.909354      21.815299      9.6193019      2.6023411    
     68900   34.45                192   510.13697     -903.31803      12.594612     -890.72342      9295.8119      5227.1769      2.1329099      24.909354      21.815299      9.6193019      2.4018561    
     69000   34.5                 192   492.59273     -903.3723       12.161468     -891.21084      7038.9203      5227.1769      2.1329099      24.909354      21.815299      9.6193019      2.3677843    
     69100   34.55                192   473.17626     -903.24896      11.682101     -891.56685      5302.4114      5227.1769      2.1329099      24.909354      21.815299      9.6193019      2.6019984    
     69200   34.6                 192   499.34595     -903.92003      12.328196     -891.59183      7561.9911      5227.1769      2.1329099      24.909354      21.815299      9.6193019      2.7659302    
     69300   34.65                192   501.12886     -903.84266      12.372214     -891.47044      10356.581      5227.1769      2.1329099      24.909354      21.815299      9.6193019      2.4423367    
     69400   34.7                 192   531.67982     -904.37598      13.126477     -891.2495       8733.4753      5227.1769      2.1329099      24.909354      21.815299      9.6193019      2.6222385    
     69500   34.75                192   526.20072     -904.01866      12.991205     -891.02745      7653.3956      5227.1769      2.1329099      24.909354      21.815299      9.6193019      3.4410496    
     69600   34.8                 192   545.54878     -904.43019      13.468884     -890.96131      8383.4799      5227.1769      2.1329099      24.909354      21.815299      9.6193019      2.6126558    
     69700   34.85                192   465.35412     -902.76983      11.488983     -891.28085      9575.0506      5227.1769      2.1329099      24.909354      21.815299      9.6193019      2.1146017    
     69800   34.9                 192   514.19038     -904.02801      12.694686     -891.33332      5594.2629      5227.1769      2.1329099      24.909354      21.815299      9.6193019      2.3780934    
     69900   34.95                192   510.8169      -904.00738      12.611399     -891.39598      11121.043      5227.1769      2.1329099      24.909354      21.815299      9.6193019      2.1382838    
     70000   35                   192   515.95371     -904.54356      12.73822      -891.80534      5351.0239      5227.1769      2.1329099      24.909354      21.815299      9.6193019      1.9911881    
     70100   35.05                192   486.1528      -904.57164      12.002475     -892.56917      7610.9228      5227.1769      2.1329099      24.909354      21.815299      9.6193019      2.5779665    
     70200   35.1                 192   488.99548     -905.36649      12.072657     -893.29384      8477.7832      5227.1769      2.1329099      24.909354      21.815299      9.6193019      2.0272886    
     70300   35.15                192   444.90371     -904.63618      10.984089     -893.65209      6341.6232      5227.1769      2.1329099      24.909354      21.815299      9.6193019      2.3364973    
     70400   35.2                 192   488.02048     -905.50102      12.048585     -893.45244      6343.845       5227.1769      2.1329099      24.909354      21.815299      9.6193019      1.7351315    
     70500   35.25                192   484.77343     -905.07964      11.96842      -893.11122      6846.955       5227.1769      2.1329099      24.909354      21.815299      9.6193019      2.0550125    
     70600   35.3                 192   498.88337     -905.03745      12.316776     -892.72068      4334.1359      5227.1769      2.1329099      24.909354      21.815299      9.6193019      2.0285847    
     70700   35.35                192   538.60398     -905.41017      13.297426     -892.11274      9234.4959      5227.1769      2.1329099      24.909354      21.815299      9.6193019      2.3976894    
     70800   35.4                 192   489.32084     -903.49195      12.080689     -891.41126      4410.7089      5227.1769      2.1329099      24.909354      21.815299      9.6193019      1.7671272    
     70900   35.45                192   568.47578     -904.16352      14.034921     -890.1286       11404.106      5227.1769      2.1329099      24.909354      21.815299      9.6193019      2.1806908    
     71000   35.5                 192   527.65613     -902.6984       13.027138     -889.67127      7362.5111      5227.1769      2.1329099      24.909354      21.815299      9.6193019      2.1402452    
     71100   35.55                192   585.36665     -904.60037      14.451935     -890.14843      11592.8        5227.1769      2.1329099      24.909354      21.815299      9.6193019      2.338037     
     71200   35.6                 192   532.41442     -904.4699       13.144613     -891.32529      4913.9519      5227.1769      2.1329099      24.909354      21.815299      9.6193019      2.1533192    
     71300   35.65                192   498.18099     -904.42494      12.299435     -892.1255       7504.6428      5227.1769      2.1329099      24.909354      21.815299      9.6193019      1.9223797    
     71400   35.7                 192   472.54558     -904.34312      11.66653      -892.67659      7731.0517      5227.1769      2.1329099      24.909354      21.815299      9.6193019      2.1237493    
     71500   35.75                192   455.68701     -904.52852      11.250314     -893.27821      6768.2135      5227.1769      2.1329099      24.909354      21.815299      9.6193019      2.4239792    
     71600   35.8                 192   462.73758     -905.25258      11.424384     -893.8282       5972.2554      5227.1769      2.1329099      24.909354      21.815299      9.6193019      1.6744013    
     71700   35.85                192   441.7811      -905.17632      10.906996     -894.26933      8816.9622      5227.1769      2.1329099      24.909354      21.815299      9.6193019      2.1865943    
     71800   35.9                 192   453.36371     -905.63089      11.192955     -894.43794      7036.4408      5227.1769      2.1329099      24.909354      21.815299      9.6193019      2.1440875    
     71900   35.95                192   434.63699     -905.14072      10.730617     -894.41011      3733.7014      5227.1769      2.1329099      24.909354      21.815299      9.6193019      2.1505953    
     72000   36                   192   492.44084     -906.35864      12.157718     -894.20092      6117.7918      5227.1769      2.1329099      24.909354      21.815299      9.6193019      2.2452942    
     72100   36.05                192   465.51955     -905.61763      11.493067     -894.12456      7925.3613      5227.1769      2.1329099      24.909354      21.815299      9.6193019      2.9182705    
     72200   36.1                 192   457.7285      -905.30786      11.300716     -894.00714      8017.2682      5227.1769      2.1329099      24.909354      21.815299      9.6193019      1.9533042    
     72300   36.15                192   462.49955     -905.30888      11.418507     -893.89038      9423.3159      5227.1769      2.1329099      24.909354      21.815299      9.6193019      1.9920364    
     72400   36.2                 192   472.6566      -905.66416      11.669271     -893.99489      3931.7776      5227.1769      2.1329099      24.909354      21.815299      9.6193019      1.707721     
     72500   36.25                192   454.41894     -905.69288      11.219007     -894.47387      10168.754      5227.1769      2.1329099      24.909354      21.815299      9.6193019      2.3148874    
     72600   36.3                 192   460.93697     -906.42624      11.379929     -895.04632      5719.7828      5227.1769      2.1329099      24.909354      21.815299      9.6193019      3.1332299    
     72700   36.35                192   465.87855     -907.10504      11.50193      -895.60311      10041.33       5227.1769      2.1329099      24.909354      21.815299      9.6193019      2.0143606    
     72800   36.4                 192   430.37934     -906.8797       10.625501     -896.2542       6582.2133      5227.1769      2.1329099      24.909354      21.815299      9.6193019      2.515042     
     72900   36.45                192   420.82104     -907.03848      10.389519     -896.64896      7184.8401      5227.1769      2.1329099      24.909354      21.815299      9.6193019      2.0403983    
     73000   36.5                 192   409.90276     -906.87353      10.119961     -896.75357      7296.5946      5227.1769      2.1329099      24.909354      21.815299      9.6193019      2.5981755    
     73100   36.55                192   421.38077     -907.0495       10.403338     -896.64616      8992.546       5227.1769      2.1329099      24.909354      21.815299      9.6193019      2.7526725    
     73200   36.6                 192   438.10439     -907.2234       10.816222     -896.40717      9361.0265      5227.1769      2.1329099      24.909354      21.815299      9.6193019      2.5713674    
     73300   36.65                192   428.30528     -906.61457      10.574295     -896.04027      4327.2154      5227.1769      2.1329099      24.909354      21.815299      9.6193019      2.1312231    
     73400   36.7                 192   443.19257     -906.35915      10.941843     -895.41731      8934.3613      5227.1769      2.1329099      24.909354      21.815299      9.6193019      2.4729782    
     73500   36.75                192   428.6787      -905.0205       10.583514     -894.43699      4524.3881      5227.1769      2.1329099      24.909354      21.815299      9.6193019      2.5614415    
     73600   36.8                 192   450.60032     -904.49063      11.124731     -893.3659       10637.952      5227.1769      2.1329099      24.909354      21.815299      9.6193019      2.2643673    
     73700   36.85                192   494.60714     -905.25603      12.211201     -893.04482      2875.8511      5227.1769      2.1329099      24.909354      21.815299      9.6193019      2.3549928    
     73800   36.9                 192   457.57446     -904.78228      11.296913     -893.48537      10157.994      5227.1769      2.1329099      24.909354      21.815299      9.6193019      2.6150016    
     73900   36.95                192   435.11571     -904.84014      10.742436     -894.0977       5321.2925      5227.1769      2.1329099      24.909354      21.815299      9.6193019      1.8319492    
     74000   37                   192   481.17195     -906.69381      11.879504     -894.8143       8477.0308      5227.1769      2.1329099      24.909354      21.815299      9.6193019      1.9590891    
     74100   37.05                192   438.41551     -906.51581      10.823904     -895.6919       3609.8645      5227.1769      2.1329099      24.909354      21.815299      9.6193019      2.0082572    
     74200   37.1                 192   437.49913     -907.01069      10.801279     -896.20941      2373.4051      5227.1769      2.1329099      24.909354      21.815299      9.6193019      1.7516958    
     74300   37.15                192   414.92776     -906.8318       10.244022     -896.58778      6137.3067      5227.1769      2.1329099      24.909354      21.815299      9.6193019      1.5335999    
     74400   37.2                 192   370.46228     -905.97724      9.1462275     -896.83102      7592.342       5227.1769      2.1329099      24.909354      21.815299      9.6193019      2.760518     
     74500   37.25                192   433.78252     -907.53695      10.709521     -896.82743      6144.4465      5227.1769      2.1329099      24.909354      21.815299      9.6193019      1.8791244    
     74600   37.3                 192   409.87714     -907.10752      10.119329     -896.98819      6253.8851      5227.1769      2.1329099      24.909354      21.815299      9.6193019      2.5613966    
     74700   37.35                192   378.79132     -906.59357      9.3518606     -897.24171      8093.6127      5227.1769      2.1329099      24.909354      21.815299      9.6193019      1.7366103    
     74800   37.4                 192   385.74533     -906.92784      9.523546      -897.40429      8528.7799      5227.1769      2.1329099      24.909354      21.815299      9.6193019      2.1889238    
     74900   37.45                192   405.58278     -907.50742      10.013307     -897.49411      6159.5863      5227.1769      2.1329099      24.909354      21.815299      9.6193019      2.4656876    
     75000   37.5                 192   394.68527     -907.37207      9.7442615     -897.62781      6659.997       5227.1769      2.1329099      24.909354      21.815299      9.6193019      1.8902395    
     75100   37.55                192   423.14619     -908.33724      10.446924     -897.89031      5672.3766      5227.1769      2.1329099      24.909354      21.815299      9.6193019      2.0791587    
     75200   37.6                 192   341.73407     -906.92083      8.4369658     -898.48386      5934.2502      5227.1769      2.1329099      24.909354      21.815299      9.6193019      1.9047532    
     75300   37.65                192   349.62996     -907.40224      8.6319049     -898.77034      7291.762       5227.1769      2.1329099      24.909354      21.815299      9.6193019      2.2190471    
     75400   37.7                 192   373.58781     -908.01469      9.2233927     -898.7913       5421.4174      5227.1769      2.1329099      24.909354      21.815299      9.6193019      1.8129509    
     75500   37.75                192   379.60151     -908.03819      9.3718631     -898.66633      7164.2843      5227.1769      2.1329099      24.909354      21.815299      9.6193019      1.960204     
     75600   37.8                 192   394.21795     -908.00345      9.7327239     -898.27073      5663.5619      5227.1769      2.1329099      24.909354      21.815299      9.6193019      2.6818525    
     75700   37.85                192   402.31863     -907.53539      9.932719      -897.60267      9299.0346      5227.1769      2.1329099      24.909354      21.815299      9.6193019      1.8601623    
     75800   37.9                 192   428.43879     -907.57049      10.577591     -896.9929       4925.5233      5227.1769      2.1329099      24.909354      21.815299      9.6193019      2.2151541    
     75900   37.95                192   416.16961     -907.27874      10.274682     -897.00406      5602.0552      5227.1769      2.1329099      24.909354      21.815299      9.6193019      2.8412451    
     76000   38                   192   418.566       -907.90377      10.333845     -897.56992      6212.1314      5227.1769      2.1329099      24.909354      21.815299      9.6193019      1.4810018    
     76100   38.05                192   387.927       -907.8228       9.5774085     -898.24539      10007.167      5227.1769      2.1329099      24.909354      21.815299      9.6193019      2.4315445    
     76200   38.1                 192   390.21834     -908.13804      9.6339788     -898.50406      5193.2336      5227.1769      2.1329099      24.909354      21.815299      9.6193019      1.8677484    
     76300   38.15                192   365.21293     -907.7438       9.016628      -898.72718      9090.8025      5227.1769      2.1329099      24.909354      21.815299      9.6193019      1.7066811    
     76400   38.2                 192   367.29824     -907.94143      9.0681117     -898.87332      9452.9653      5227.1769      2.1329099      24.909354      21.815299      9.6193019      1.7487294    
     76500   38.25                192   370.80777     -908.14249      9.1547572     -898.98774      8221.5458      5227.1769      2.1329099      24.909354      21.815299      9.6193019      1.8598109    
     76600   38.3                 192   395.78698     -908.87761      9.7714612     -899.10615      9521.8876      5227.1769      2.1329099      24.909354      21.815299      9.6193019      1.7108536    
     76700   38.35                192   385.12018     -909.16939      9.5081118     -899.66128      6694.0892      5227.1769      2.1329099      24.909354      21.815299      9.6193019      1.785236     
     76800   38.4                 192   363.40178     -909.30425      8.9719131     -900.33233      11053.592      5227.1769      2.1329099      24.909354      21.815299      9.6193019      1.471484     
     76900   38.45                192   346.66832     -909.17012      8.558786      -900.61133      6840.0954      5227.1769      2.1329099      24.909354      21.815299      9.6193019      2.118484     
     77000   38.5                 192   370.15063     -909.77992      9.1385334     -900.64139      11127.145      5227.1769      2.1329099      24.909354      21.815299      9.6193019      1.8060394    
     77100   38.55                192   351.10159     -909.2797       8.6682376     -900.61146      3613.3452      5227.1769      2.1329099      24.909354      21.815299      9.6193019      1.7440227    
     77200   38.6                 192   371.88905     -909.74683      9.1814526     -900.56538      8343.9305      5227.1769      2.1329099      24.909354      21.815299      9.6193019      2.1502118    
     77300   38.65                192   319.11494     -908.56684      7.8785292     -900.68831      6071.4145      5227.1769      2.1329099      24.909354      21.815299      9.6193019      1.962858     
     77400   38.7                 192   346.97923     -909.24575      8.5664618     -900.67929      9787.1915      5227.1769      2.1329099      24.909354      21.815299      9.6193019      2.4907378    
     77500   38.75                192   351.8141      -909.19844      8.6858286     -900.51261      2662.7959      5227.1769      2.1329099      24.909354      21.815299      9.6193019      1.5680327    
     77600   38.8                 192   361.87333     -909.13024      8.9341775     -900.19606      10079.001      5227.1769      2.1329099      24.909354      21.815299      9.6193019      1.6807318    
     77700   38.85                192   338.70767     -908.21452      8.3622479     -899.85227      6366.5417      5227.1769      2.1329099      24.909354      21.815299      9.6193019      1.5546064    
     77800   38.9                 192   372.53889     -908.71869      9.1974964     -899.52119      5608.7809      5227.1769      2.1329099      24.909354      21.815299      9.6193019      2.1631986    
     77900   38.95                192   340.97359     -907.84829      8.4181905     -899.4301       5379.1522      5227.1769      2.1329099      24.909354      21.815299      9.6193019      1.8922421    
     78000   39                   192   372.5536      -908.61197      9.1978595     -899.41411      4172.1734      5227.1769      2.1329099      24.909354      21.815299      9.6193019      2.066058     
     78100   39.05                192   360.4231      -908.72781      8.8983733     -899.82944      8913.7206      5227.1769      2.1329099      24.909354      21.815299      9.6193019      2.6310782    
     78200   39.1                 192   333.59983     -908.8719       8.236142      -900.63576      6983.3009      5227.1769      2.1329099      24.909354      21.815299      9.6193019      2.1068099    
     78300   39.15                192   336.46694     -909.39714      8.3069271     -901.09022      4844.8781      5227.1769      2.1329099      24.909354      21.815299      9.6193019      1.6163562    
     78400   39.2                 192   318.49449     -909.13263      7.8632109     -901.26942      8288.5136      5227.1769      2.1329099      24.909354      21.815299      9.6193019      2.0111947    
     78500   39.25                192   336.64629     -909.51785      8.311355      -901.2065       4959.0665      5227.1769      2.1329099      24.909354      21.815299      9.6193019      2.5032204    
     78600   39.3                 192   338.58382     -909.48409      8.3591903     -901.1249       7524.9862      5227.1769      2.1329099      24.909354      21.815299      9.6193019      2.1393433    
     78700   39.35                192   345.395       -909.653        8.5273492     -901.12565      6512.9222      5227.1769      2.1329099      24.909354      21.815299      9.6193019      1.7337029    
     78800   39.4                 192   352.70532     -910.18153      8.7078314     -901.4737       6144.9029      5227.1769      2.1329099      24.909354      21.815299      9.6193019      1.5849861    
     78900   39.45                192   325.67756     -910.26964      8.0405517     -902.22908      5933.1342      5227.1769      2.1329099      24.909354      21.815299      9.6193019      1.8771839    
     79000   39.5                 192   305.60568     -910.2225       7.5450032     -902.67749      6650.0758      5227.1769      2.1329099      24.909354      21.815299      9.6193019      2.3082618    
     79100   39.55                192   317.23174     -910.59069      7.8320353     -902.75865      5839.3032      5227.1769      2.1329099      24.909354      21.815299      9.6193019      1.9926488    
     79200   39.6                 192   321.52884     -910.67529      7.9381252     -902.73717      4115.4261      5227.1769      2.1329099      24.909354      21.815299      9.6193019      1.9563477    
     79300   39.65                192   308.20256     -910.26482      7.6091167     -902.6557       3009.2927      5227.1769      2.1329099      24.909354      21.815299      9.6193019      1.6607432    
     79400   39.7                 192   294.74265     -909.75341      7.2768093     -902.4766       6020.058       5227.1769      2.1329099      24.909354      21.815299      9.6193019      2.4210748    
     79500   39.75                192   326.62365     -910.15079      8.0639093     -902.08688      4721.4696      5227.1769      2.1329099      24.909354      21.815299      9.6193019      1.8605393    
     79600   39.8                 192   321.24045     -909.65607      7.9310051     -901.72507      7630.81        5227.1769      2.1329099      24.909354      21.815299      9.6193019      2.5282466    
     79700   39.85                192   344.33544     -909.90731      8.5011903     -901.40612      7085.6169      5227.1769      2.1329099      24.909354      21.815299      9.6193019      1.9261098    
     79800   39.9                 192   356.16644     -910.13675      8.793282      -901.34346      5623.6939      5227.1769      2.1329099      24.909354      21.815299      9.6193019      1.9092561    
     79900   39.95                192   316.52992     -909.76621      7.8147084     -901.9515       7923.2911      5227.1769      2.1329099      24.909354      21.815299      9.6193019      2.0513853    
     80000   40                   192   296.26399     -910.04366      7.314369      -902.72929      3597.2574      5227.1769      2.1329099      24.909354      21.815299      9.6193019      1.9927538    
Loop time of 1519.35 on 1 procs for 60000 steps with 192 atoms

Performance: 1.706 ns/day, 14.068 hours/ns, 39.491 timesteps/s, 7.582 katom-step/s
99.3% CPU use with 1 MPI tasks x 1 OpenMP threads

MPI task timing breakdown:
Section |  min time  |  avg time  |  max time  |%varavg| %total
---------------------------------------------------------------
Pair    | 1506.6     | 1506.6     | 1506.6     |   0.0 | 99.16
Neigh   | 0.22115    | 0.22115    | 0.22115    |   0.0 |  0.01
Comm    | 2.0982     | 2.0982     | 2.0982     |   0.0 |  0.14
Output  | 0.37699    | 0.37699    | 0.37699    |   0.0 |  0.02
Modify  | 7.0854     | 7.0854     | 7.0854     |   0.0 |  0.47
Other   |            | 2.932      |            |       |  0.19

Nlocal:            192 ave         192 max         192 min
Histogram: 1 0 0 0 0 0 0 0 0 0
Nghost:           1364 ave        1364 max        1364 min
Histogram: 1 0 0 0 0 0 0 0 0 0
Neighs:              0 ave           0 max           0 min
Histogram: 1 0 0 0 0 0 0 0 0 0
FullNghs:        14958 ave       14958 max       14958 min
Histogram: 1 0 0 0 0 0 0 0 0 0

Total # of neighbors = 14958
Ave neighs/atom = 77.90625
Neighbor list builds = 864
Dangerous builds = 0
unfix cool
write_data quenched.data
System init for write_data ...
# 40–45 ps: 300 K hold, fixed volume.
fix hold all nvt temp 300 300 0.1
run 10000
Per MPI rank memory allocation (min/avg/max) = 48.62 | 48.62 | 48.62 Mbytes
   Step          Time         Atoms         Temp          PotEng         KinEng         TotEng         Press          Volume        Density           Lx             Ly             Lz            Fmax     
     80000   40                   192   296.26399     -910.04366      7.314369      -902.72929      3597.2574      5227.1769      2.1329099      24.909354      21.815299      9.6193019      1.9927538    
     80100   40.05                192   293.61983     -909.9268       7.2490882     -902.67771      8796.6203      5227.1769      2.1329099      24.909354      21.815299      9.6193019      1.7104683    
     80200   40.1                 192   308.68151     -910.20111      7.6209415     -902.58017      3419.5014      5227.1769      2.1329099      24.909354      21.815299      9.6193019      1.8664926    
     80300   40.15                192   326.62189     -910.69455      8.0638659     -902.63069      7971.2383      5227.1769      2.1329099      24.909354      21.815299      9.6193019      1.9068477    
     80400   40.2                 192   297.71495     -910.4581       7.3501915     -903.10791      3906.3627      5227.1769      2.1329099      24.909354      21.815299      9.6193019      1.6160315    
     80500   40.25                192   282.81018     -910.70309      6.9822122     -903.72088      6025.4138      5227.1769      2.1329099      24.909354      21.815299      9.6193019      1.5786949    
     80600   40.3                 192   298.76907     -911.44996      7.3762162     -904.07375      5796.4346      5227.1769      2.1329099      24.909354      21.815299      9.6193019      1.7066958    
     80700   40.35                192   279.78189     -911.17092      6.9074477     -904.26347      6184.1799      5227.1769      2.1329099      24.909354      21.815299      9.6193019      1.6363377    
     80800   40.4                 192   280.12077     -911.13151      6.9158143     -904.2157       5391.5755      5227.1769      2.1329099      24.909354      21.815299      9.6193019      1.6218689    
     80900   40.45                192   309.14467     -911.54997      7.6323763     -903.9176       8026.9987      5227.1769      2.1329099      24.909354      21.815299      9.6193019      1.6295916    
     81000   40.5                 192   282.86265     -910.60975      6.9835077     -903.62624      6892.7305      5227.1769      2.1329099      24.909354      21.815299      9.6193019      2.5488973    
     81100   40.55                192   290.04358     -910.39224      7.1607955     -903.23144      8870.0862      5227.1769      2.1329099      24.909354      21.815299      9.6193019      1.9361624    
     81200   40.6                 192   334.24401     -911.13899      8.252046      -902.88694      6703.141       5227.1769      2.1329099      24.909354      21.815299      9.6193019      1.6724923    
     81300   40.65                192   329.66446     -911.06966      8.1389829     -902.93067      8801.5944      5227.1769      2.1329099      24.909354      21.815299      9.6193019      1.9855719    
     81400   40.7                 192   304.67289     -910.62182      7.5219738     -903.09985      5888.0115      5227.1769      2.1329099      24.909354      21.815299      9.6193019      2.0911473    
     81500   40.75                192   304.43552     -910.73162      7.5161136     -903.2155       6277.0521      5227.1769      2.1329099      24.909354      21.815299      9.6193019      1.6631317    
     81600   40.8                 192   323.47256     -911.30642      7.986113      -903.32031      6732.3515      5227.1769      2.1329099      24.909354      21.815299      9.6193019      1.6824934    
     81700   40.85                192   298.49343     -910.99219      7.369411      -903.62278      2798.2337      5227.1769      2.1329099      24.909354      21.815299      9.6193019      1.5818542    
     81800   40.9                 192   290.9052      -911.06374      7.1820676     -903.88168      3636.5942      5227.1769      2.1329099      24.909354      21.815299      9.6193019      1.8887124    
     81900   40.95                192   263.18155     -910.52856      6.497607      -904.03095      5074.8004      5227.1769      2.1329099      24.909354      21.815299      9.6193019      1.8960683    
     82000   41                   192   294.04626     -911.11138      7.2596162     -903.85176      5232.2885      5227.1769      2.1329099      24.909354      21.815299      9.6193019      1.363287     
     82100   41.05                192   319.79863     -911.14248      7.8954085     -903.24707      6286.9571      5227.1769      2.1329099      24.909354      21.815299      9.6193019      1.3260708    
     82200   41.1                 192   327.87525     -910.7553       8.0948097     -902.66049      7772.0585      5227.1769      2.1329099      24.909354      21.815299      9.6193019      1.4429709    
     82300   41.15                192   337.47803     -910.95366      8.3318898     -902.62177      7362.912       5227.1769      2.1329099      24.909354      21.815299      9.6193019      1.7570774    
     82400   41.2                 192   308.65226     -910.40824      7.6202192     -902.78802      8725.0651      5227.1769      2.1329099      24.909354      21.815299      9.6193019      1.8479821    
     82500   41.25                192   325.99385     -910.99759      8.0483604     -902.94923      5863.3324      5227.1769      2.1329099      24.909354      21.815299      9.6193019      2.0228952    
     82600   41.3                 192   303.68928     -910.82224      7.4976898     -903.32455      7039.3621      5227.1769      2.1329099      24.909354      21.815299      9.6193019      2.2167057    
     82700   41.35                192   287.47653     -910.77378      7.0974182     -903.67636      6620.5755      5227.1769      2.1329099      24.909354      21.815299      9.6193019      2.2963793    
     82800   41.4                 192   296.33505     -911.16476      7.3161236     -903.84864      4860.5553      5227.1769      2.1329099      24.909354      21.815299      9.6193019      1.8780232    
     82900   41.45                192   296.81435     -911.22777      7.3279569     -903.89981      6997.375       5227.1769      2.1329099      24.909354      21.815299      9.6193019      1.7392043    
     83000   41.5                 192   306.44284     -911.46318      7.5656715     -903.89751      4614.6037      5227.1769      2.1329099      24.909354      21.815299      9.6193019      1.6709609    
     83100   41.55                192   285.2714      -910.96431      7.0429765     -903.92133      5698.6353      5227.1769      2.1329099      24.909354      21.815299      9.6193019      1.712987     
     83200   41.6                 192   285.1325      -910.83449      7.0395472     -903.79495      7241.7428      5227.1769      2.1329099      24.909354      21.815299      9.6193019      1.8163184    
     83300   41.65                192   313.59663     -910.85285      7.7422892     -903.11056      8055.7164      5227.1769      2.1329099      24.909354      21.815299      9.6193019      1.7467027    
     83400   41.7                 192   323.28212     -910.32353      7.9814112     -902.34211      6367.935       5227.1769      2.1329099      24.909354      21.815299      9.6193019      2.090433     
     83500   41.75                192   319.39398     -910.07818      7.8854183     -902.19276      5997.4876      5227.1769      2.1329099      24.909354      21.815299      9.6193019      1.8023212    
     83600   41.8                 192   334.73393     -910.50633      8.2641415     -902.24219      6240.975       5227.1769      2.1329099      24.909354      21.815299      9.6193019      1.7901991    
     83700   41.85                192   321.46441     -910.40753      7.9365344     -902.47099      6628.592       5227.1769      2.1329099      24.909354      21.815299      9.6193019      2.0722096    
     83800   41.9                 192   329.86002     -911.12619      8.143811      -902.98238      5964.0116      5227.1769      2.1329099      24.909354      21.815299      9.6193019      1.5452624    
     83900   41.95                192   303.80481     -911.0933       7.500542      -903.59276      6974.9906      5227.1769      2.1329099      24.909354      21.815299      9.6193019      2.1545512    
     84000   42                   192   275.3158      -910.79558      6.7971857     -903.99839      6061.3259      5227.1769      2.1329099      24.909354      21.815299      9.6193019      1.96564      
     84100   42.05                192   277.51579     -910.90121      6.8515008     -904.04971      5095.6814      5227.1769      2.1329099      24.909354      21.815299      9.6193019      2.1512879    
     84200   42.1                 192   307.24382     -911.48643      7.5854468     -903.90099      8015.7877      5227.1769      2.1329099      24.909354      21.815299      9.6193019      1.8905941    
     84300   42.15                192   307.85783     -911.39263      7.6006057     -903.79203      4096.8675      5227.1769      2.1329099      24.909354      21.815299      9.6193019      1.7239964    
     84400   42.2                 192   304.41768     -911.29356      7.515673      -903.77789      9657.6918      5227.1769      2.1329099      24.909354      21.815299      9.6193019      1.750285     
     84500   42.25                192   295.99667     -911.14814      7.3077693     -903.84037      2063.8075      5227.1769      2.1329099      24.909354      21.815299      9.6193019      1.7319679    
     84600   42.3                 192   306.99913     -911.45547      7.5794057     -903.87606      6973.7677      5227.1769      2.1329099      24.909354      21.815299      9.6193019      2.0702746    
     84700   42.35                192   299.74282     -911.34971      7.400257      -903.94945      2880.2325      5227.1769      2.1329099      24.909354      21.815299      9.6193019      1.7742141    
     84800   42.4                 192   300.72265     -911.38908      7.4244477     -903.96464      4113.1716      5227.1769      2.1329099      24.909354      21.815299      9.6193019      1.7295412    
     84900   42.45                192   302.43169     -911.32382      7.4666416     -903.85717      3946.5987      5227.1769      2.1329099      24.909354      21.815299      9.6193019      1.5304134    
     85000   42.5                 192   293.49935     -910.85629      7.2461138     -903.61017      3724.0207      5227.1769      2.1329099      24.909354      21.815299      9.6193019      1.8257607    
     85100   42.55                192   314.65352     -911.04353      7.7683826     -903.27515      8788.0647      5227.1769      2.1329099      24.909354      21.815299      9.6193019      1.7125653    
     85200   42.6                 192   297.26835     -910.47637      7.3391656     -903.1372       5274.6343      5227.1769      2.1329099      24.909354      21.815299      9.6193019      1.6813801    
     85300   42.65                192   343.73851     -911.47671      8.4864528     -902.99026      5531.0017      5227.1769      2.1329099      24.909354      21.815299      9.6193019      1.7114485    
     85400   42.7                 192   312.43927     -910.76905      7.7137155     -903.05533      6215.2043      5227.1769      2.1329099      24.909354      21.815299      9.6193019      1.9697614    
     85500   42.75                192   309.23688     -910.99479      7.6346527     -903.36014      4850.7207      5227.1769      2.1329099      24.909354      21.815299      9.6193019      1.5720963    
     85600   42.8                 192   297.99964     -911.27894      7.35722       -903.92172      3226.8936      5227.1769      2.1329099      24.909354      21.815299      9.6193019      1.5270759    
     85700   42.85                192   275.72582     -911.17391      6.8073086     -904.3666       8486.4405      5227.1769      2.1329099      24.909354      21.815299      9.6193019      1.7366737    
     85800   42.9                 192   284.50418     -911.47315      7.0240348     -904.44911      4794.2325      5227.1769      2.1329099      24.909354      21.815299      9.6193019      1.7491493    
     85900   42.95                192   291.3551      -911.50606      7.1931751     -904.31289      6233.4501      5227.1769      2.1329099      24.909354      21.815299      9.6193019      1.4871743    
     86000   43                   192   303.24308     -911.54214      7.4866736     -904.05546      3814.5965      5227.1769      2.1329099      24.909354      21.815299      9.6193019      1.5576644    
     86100   43.05                192   323.39099     -911.72698      7.9840991     -903.74288      6391.8144      5227.1769      2.1329099      24.909354      21.815299      9.6193019      1.4883984    
     86200   43.1                 192   293.55394     -910.74964      7.2474616     -903.50218      3881.6389      5227.1769      2.1329099      24.909354      21.815299      9.6193019      1.5460968    
     86300   43.15                192   305.52968     -910.71683      7.5431269     -903.1737       4354.8312      5227.1769      2.1329099      24.909354      21.815299      9.6193019      1.701294     
     86400   43.2                 192   316.36039     -910.48936      7.8105228     -902.67883      4525.0898      5227.1769      2.1329099      24.909354      21.815299      9.6193019      1.7292345    
     86500   43.25                192   354.54266     -910.88136      8.753193      -902.12816      5837.2055      5227.1769      2.1329099      24.909354      21.815299      9.6193019      1.6629016    
     86600   43.3                 192   342.1991      -910.20982      8.4484466     -901.76137      3383.4102      5227.1769      2.1329099      24.909354      21.815299      9.6193019      2.2484829    
     86700   43.35                192   346.44445     -909.84822      8.5532588     -901.29497      7195.3942      5227.1769      2.1329099      24.909354      21.815299      9.6193019      2.146083     
     86800   43.4                 192   342.73069     -909.61091      8.4615711     -901.14934      7161.7662      5227.1769      2.1329099      24.909354      21.815299      9.6193019      1.4576696    
     86900   43.45                192   336.53907     -909.91908      8.3087079     -901.61037      8548.3677      5227.1769      2.1329099      24.909354      21.815299      9.6193019      2.245726     
     87000   43.5                 192   321.19109     -910.40046      7.9297866     -902.47067      7039.0072      5227.1769      2.1329099      24.909354      21.815299      9.6193019      1.7873155    
     87100   43.55                192   306.96464     -910.6573       7.5785542     -903.07875      5552.337       5227.1769      2.1329099      24.909354      21.815299      9.6193019      2.1264089    
     87200   43.6                 192   303.88887     -910.97111      7.5026173     -903.4685       6424.5022      5227.1769      2.1329099      24.909354      21.815299      9.6193019      1.4545863    
     87300   43.65                192   306.61965     -911.36713      7.5700368     -903.79709      4839.9558      5227.1769      2.1329099      24.909354      21.815299      9.6193019      2.4400518    
     87400   43.7                 192   297.42852     -911.47273      7.34312       -904.12961      7286.4265      5227.1769      2.1329099      24.909354      21.815299      9.6193019      2.2964804    
     87500   43.75                192   266.99159     -911.00302      6.591672      -904.41135      4173.9069      5227.1769      2.1329099      24.909354      21.815299      9.6193019      1.6070293    
     87600   43.8                 192   275.27317     -911.26632      6.7961334     -904.47018      7069.2732      5227.1769      2.1329099      24.909354      21.815299      9.6193019      1.328124     
     87700   43.85                192   294.6113      -911.56038      7.2735663     -904.28681      5839.0763      5227.1769      2.1329099      24.909354      21.815299      9.6193019      1.3832921    
     87800   43.9                 192   280.82093     -910.83967      6.9331003     -903.90657      5813.9705      5227.1769      2.1329099      24.909354      21.815299      9.6193019      2.0923991    
     87900   43.95                192   289.84535     -910.50992      7.1559014     -903.35401      5883.7383      5227.1769      2.1329099      24.909354      21.815299      9.6193019      2.1018409    
     88000   44                   192   323.91589     -911.0173       7.9970583     -903.02024      8267.1792      5227.1769      2.1329099      24.909354      21.815299      9.6193019      1.5579212    
     88100   44.05                192   305.81112     -910.58865      7.5500752     -903.03857      5550.0523      5227.1769      2.1329099      24.909354      21.815299      9.6193019      1.7878789    
     88200   44.1                 192   303.81943     -910.64994      7.500903      -903.14904      6861.2836      5227.1769      2.1329099      24.909354      21.815299      9.6193019      2.2338977    
     88300   44.15                192   292.92721     -910.49856      7.2319884     -903.26657      8983.7892      5227.1769      2.1329099      24.909354      21.815299      9.6193019      2.5611261    
     88400   44.2                 192   282.11055     -910.2983       6.9649393     -903.33336      7995.1022      5227.1769      2.1329099      24.909354      21.815299      9.6193019      1.9173156    
     88500   44.25                192   297.56421     -910.6411       7.3464699     -903.29463      5563.411       5227.1769      2.1329099      24.909354      21.815299      9.6193019      2.1003985    
     88600   44.3                 192   291.30084     -910.24919      7.1918356     -903.05735      5081.8133      5227.1769      2.1329099      24.909354      21.815299      9.6193019      1.7787717    
     88700   44.35                192   338.91095     -910.80459      8.3672667     -902.43733      7466.7305      5227.1769      2.1329099      24.909354      21.815299      9.6193019      1.5488236    
     88800   44.4                 192   334.19071     -910.41739      8.25073       -902.16666      6100.3885      5227.1769      2.1329099      24.909354      21.815299      9.6193019      1.7008888    
     88900   44.45                192   335.65635     -910.71257      8.2869149     -902.42566      7589.2106      5227.1769      2.1329099      24.909354      21.815299      9.6193019      1.7286595    
     89000   44.5                 192   292.75781     -910.32967      7.2278062     -903.10186      5888.6892      5227.1769      2.1329099      24.909354      21.815299      9.6193019      1.7686066    
     89100   44.55                192   315.19322     -911.30448      7.781707      -903.52277      7481.4868      5227.1769      2.1329099      24.909354      21.815299      9.6193019      1.7300397    
     89200   44.6                 192   304.31828     -911.32109      7.513219      -903.80787      4331.6304      5227.1769      2.1329099      24.909354      21.815299      9.6193019      1.8846762    
     89300   44.65                192   289.31633     -911.06664      7.1428404     -903.9238       8499.5117      5227.1769      2.1329099      24.909354      21.815299      9.6193019      1.9799704    
     89400   44.7                 192   292.20548     -911.07127      7.2141699     -903.8571       6690.9051      5227.1769      2.1329099      24.909354      21.815299      9.6193019      1.9062271    
     89500   44.75                192   282.91579     -910.61564      6.9848195     -903.63082      9810.6838      5227.1769      2.1329099      24.909354      21.815299      9.6193019      1.7622071    
     89600   44.8                 192   315.12278     -911.02454      7.7799678     -903.24458      5394.6661      5227.1769      2.1329099      24.909354      21.815299      9.6193019      2.2030807    
     89700   44.85                192   317.27673     -910.73495      7.8331461     -902.9018       6012.9826      5227.1769      2.1329099      24.909354      21.815299      9.6193019      2.4710155    
     89800   44.9                 192   338.7936      -911.07897      8.3643693     -902.7146       7042.3364      5227.1769      2.1329099      24.909354      21.815299      9.6193019      2.4864901    
     89900   44.95                192   310.07367     -910.3959       7.6553121     -902.74058      7468.427       5227.1769      2.1329099      24.909354      21.815299      9.6193019      2.3017612    
     90000   45                   192   297.98964     -910.42831      7.3569732     -903.07134      7394.8419      5227.1769      2.1329099      24.909354      21.815299      9.6193019      2.392        
Loop time of 257.883 on 1 procs for 10000 steps with 192 atoms

Performance: 1.675 ns/day, 14.327 hours/ns, 38.777 timesteps/s, 7.445 katom-step/s
99.3% CPU use with 1 MPI tasks x 1 OpenMP threads

MPI task timing breakdown:
Section |  min time  |  avg time  |  max time  |%varavg| %total
---------------------------------------------------------------
Pair    | 255.83     | 255.83     | 255.83     |   0.0 | 99.20
Neigh   | 0.015126   | 0.015126   | 0.015126   |   0.0 |  0.01
Comm    | 0.32933    | 0.32933    | 0.32933    |   0.0 |  0.13
Output  | 0.062414   | 0.062414   | 0.062414   |   0.0 |  0.02
Modify  | 1.1682     | 1.1682     | 1.1682     |   0.0 |  0.45
Other   |            | 0.481      |            |       |  0.19

Nlocal:            192 ave         192 max         192 min
Histogram: 1 0 0 0 0 0 0 0 0 0
Nghost:           1361 ave        1361 max        1361 min
Histogram: 1 0 0 0 0 0 0 0 0 0
Neighs:              0 ave           0 max           0 min
Histogram: 1 0 0 0 0 0 0 0 0 0
FullNghs:        14958 ave       14958 max       14958 min
Histogram: 1 0 0 0 0 0 0 0 0 0

Total # of neighbors = 14958
Ave neighs/atom = 77.90625
Neighbor list builds = 59
Dangerous builds = 0
unfix hold
write_data before_release.data
System init for write_data ...
# 45–55 ps: release the volume constraint; retain all resulting data.
fix release all npt temp 300 300 0.1 iso 1 1 1.0
run 20000
Per MPI rank memory allocation (min/avg/max) = 48.54 | 48.54 | 48.54 Mbytes
   Step          Time         Atoms         Temp          PotEng         KinEng         TotEng         Press          Volume        Density           Lx             Ly             Lz            Fmax     
     90000   45                   192   297.98964     -910.42831      7.3569732     -903.07134      7394.8419      5227.1769      2.1329099      24.909354      21.815299      9.6193019      2.392        
     90100   45.05                192   306.5461      -910.77322      7.5682208     -903.205        1445.4367      5293.6446      2.1061288      25.01449       21.907376      9.6599026      1.4239687    
     90200   45.1                 192   329.75559     -911.63623      8.1412329     -903.495        1727.6442      5437.5412      2.0503932      25.239122      22.104106      9.7466494      1.7968092    
     90300   45.15                192   292.56165     -910.64612      7.2229632     -903.42316     -4478.0898      5613.3833      1.9861636      25.508307      22.339855      9.8506009      1.5355272    
     90400   45.2                 192   310.94304     -910.9585       7.6767755     -903.28173     -385.96615      5677.7523      1.9636463      25.605438      22.424921      9.8881103      1.771846     
     90500   45.25                192   296.32632     -910.78033      7.3159079     -903.46442     -2265.2395      5696.4588      1.9571979      25.633528      22.449522      9.8989579      1.4211423    
     90600   45.3                 192   294.25636     -911.00804      7.2648034     -903.74323      77.735232      5658.5567      1.9703076      25.57655       22.399621      9.8769544      1.7440093    
     90700   45.35                192   307.7126      -911.50823      7.5970202     -903.91121      563.82223      5616.0248      1.9852294      25.512307      22.343358      9.8521458      1.5583034    
     90800   45.4                 192   307.84972     -911.76149      7.6004057     -904.16109      218.29859      5582.8188      1.9970373      25.461925      22.299235      9.8326897      1.8190231    
     90900   45.45                192   287.64077     -911.55331      7.1014732     -904.45184      2087.5379      5559.0749      2.005567       25.425777      22.267577      9.8187303      1.6576168    
     91000   45.5                 192   288.40114     -911.82493      7.1202458     -904.70468     -703.58153      5572.5693      2.0007104      25.446334      22.28558       9.8266687      1.5834576    
     91100   45.55                192   289.10595     -911.85387      7.1376465     -904.71623     -912.65111      5577.9816      1.9987691      25.45457       22.292792      9.829849       1.975341     
     91200   45.6                 192   281.54765     -911.30324      6.9510421     -904.3522       1419.8902      5586.4751      1.9957303      25.467483      22.304102      9.8348358      1.6953951    
     91300   45.65                192   308.99327     -911.27801      7.6286383     -903.64937     -474.3581       5629.223       1.9805748      25.532277      22.360848      9.8598576      1.6164899    
     91400   45.7                 192   314.58695     -911.04765      7.7667389     -903.28091     -1472.8365      5674.0308      1.9649343      25.599843      22.420021      9.8859495      1.5901512    
     91500   45.75                192   321.54569     -911.15895      7.9385412     -903.22041      708.56228      5691.6048      1.9588671      25.626245      22.443144      9.8961454      1.5914911    
     91600   45.8                 192   334.56486     -911.67941      8.2599674     -903.41944     -113.19219      5715.6038      1.9506421      25.662213      22.474644      9.9100351      1.6645364    
     91700   45.85                192   300.96042     -911.28585      7.4303178     -903.85553      1072.4828      5741.8787      1.941716       25.701476      22.50903       9.9251976      1.5622438    
     91800   45.9                 192   284.72381     -911.19771      7.0294572     -904.16826     -1531.2045      5771.5222      1.931743       25.74563       22.547699      9.9422485      2.1424944    
     91900   45.95                192   298.6         -911.70443      7.3720421     -904.33239     -221.88313      5763.3879      1.9344694      25.733529      22.537102      9.9375754      2.1302969    
     92000   46                   192   291.69738     -911.6445       7.2016255     -904.44287     -425.12742      5741.4315      1.9418672      25.700809      22.508446      9.9249399      1.6592189    
     92100   46.05                192   298.48347     -911.75903      7.3691652     -904.38987      97.060062      5707.2733      1.9534893      25.649739      22.46372       9.9052182      1.8418544    
     92200   46.1                 192   312.50132     -911.86173      7.7152475     -904.14649     -945.15915      5661.4919      1.9692861      25.580971      22.403493      9.8786619      2.1261672    
     92300   46.15                192   330.84952     -911.74187      8.1682405     -903.57362      1130.9007      5602.0332      1.9901877      25.491103      22.324788      9.8439572      1.6179148    
     92400   46.2                 192   322.64507     -911.03927      7.9656833     -903.07358      3119.699       5581.8316      1.9973905      25.460425      22.29792       9.8321101      1.7638029    
     92500   46.25                192   310.04586     -910.68676      7.6546253     -903.03213     -2118.5347      5629.1245      1.9806095      25.532128      22.360717      9.8598001      1.7291172    
     92600   46.3                 192   296.52349     -910.5194       7.3207759     -903.19862      1719.3197      5648.8324      1.9736995      25.56189       22.386782      9.8712932      1.7998174    
     92700   46.35                192   283.55398     -910.54599      7.0005756     -903.54541     -854.9437       5679.3374      1.9630983      25.607821      22.427008      9.8890304      1.9367848    
     92800   46.4                 192   258.65171     -910.4714       6.3857714     -904.08562      2512.1746      5712.7409      1.9516196      25.657928      22.470891      9.9083803      1.8366007    
     92900   46.45                192   277.22128     -911.30569      6.8442296     -904.46146     -3145.4596      5788.9684      1.9259213      25.771545      22.570396      9.9522562      1.294928     
     93000   46.5                 192   294.90036     -911.93851      7.2807029     -904.65781      1034.9837      5815.4078      1.9171652      25.81072       22.604705      9.9673846      1.5878747    
     93100   46.55                192   244.78749     -910.85693      6.0434819     -904.81344     -2438.211       5838.5365      1.9095706      25.844893      22.634632      9.980581       2.2107924    
     93200   46.6                 192   282.61363     -911.44929      6.9773597     -904.47193      262.55625      5816.6395      1.9167592      25.812542      22.6063        9.9680882      1.8060294    
     93300   46.65                192   299.79507     -910.95309      7.4015468     -903.55154     -829.61155      5791.4245      1.9251045      25.775189      22.573587      9.9536635      2.5917706    
     93400   46.7                 192   310.59301     -910.84469      7.6681337     -903.17656      2370.9963      5747.924       1.9396738      25.710493      22.516927      9.9286796      1.5240231    
     93500   46.75                192   313.22832     -910.77957      7.7331961     -903.04637     -1160.5731      5745.2301      1.9405833      25.706476      22.513409      9.9271282      1.3972059    
     93600   46.8                 192   325.85137     -911.09947      8.0448427     -903.05463      1878.0194      5735.9473      1.9437238      25.692623      22.501277      9.9217788      1.7382       
     93700   46.85                192   326.31677     -911.24958      8.0563329     -903.19325     -1475.94        5758.019       1.9362731      25.725536      22.530101      9.9344887      1.6600574    
     93800   46.9                 192   294.07727     -910.83161      7.2603819     -903.57123      314.6089       5759.6872      1.9357123      25.72802       22.532277      9.935448       1.8973496    
     93900   46.95                192   293.09856     -911.20797      7.2362189     -903.97175      94.283829      5769.2186      1.9325143      25.742204      22.544699      9.9409256      1.7071578    
     94000   47                   192   304.68044     -911.7086       7.5221602     -904.18644     -498.16208      5777.591       1.9297138      25.754651      22.5556        9.9457321      1.7462426    
     94100   47.05                192   268.76654     -910.96755      6.6354933     -904.33206     -2079.4507      5751.2319      1.9385581      25.715424      22.521246      9.9305839      1.8612189    
     94200   47.1                 192   286.20818     -911.3232       7.0661043     -904.2571       834.07341      5681.5881      1.9623206      25.611203      22.42997       9.8903366      1.8385981    
     94300   47.15                192   308.63216     -911.44436      7.6197231     -903.82464      3054.0399      5640.5372      1.9766021      25.549372      22.375819      9.8664589      2.6495458    
     94400   47.2                 192   316.16903     -911.03195      7.8057984     -903.22615      1588.3776      5677.2847      1.9638081      25.604735      22.424306      9.8878389      2.2001274    
     94500   47.25                192   324.54416     -910.73739      8.0125695     -902.72482     -1211.9922      5761.4261      1.9351281      25.730609      22.534544      9.9364478      1.839636     
     94600   47.3                 192   309.82933     -910.19519      7.6492797     -902.54591     -2531.164       5825.9207      1.9137057      25.826264      22.618318      9.9733872      1.4155974    
     94700   47.35                192   313.6406      -910.2877       7.7433749     -902.54433     -883.32421      5823.5613      1.914481       25.822777      22.615264      9.9720407      1.8026144    
     94800   47.4                 192   330.56148     -910.93302      8.1611291     -902.77189      1072.6066      5799.0378      1.9225771      25.786479      22.583474      9.9580233      1.8037115    
     94900   47.45                192   269.33726     -909.82574      6.6495834     -903.17616     -1388.0071      5792.7685      1.9246579      25.777183      22.575333      9.9544334      2.220571     
     95000   47.5                 192   299.86803     -910.77236      7.4033482     -903.36901      4045.2322      5774.698       1.9306806      25.750351      22.551834      9.9440717      2.3576094    
     95100   47.55                192   313.17024     -911.28769      7.7317622     -903.55592     -789.11446      5820.8669      1.9153672      25.818794      22.611776      9.9705025      1.905779     
     95200   47.6                 192   297.66795     -911.08103      7.349031      -903.732       -1753.3781      5852.5489      1.9049986      25.865552      22.652726      9.988559       1.3021918    
     95300   47.65                192   267.46858     -910.4415       6.6034482     -903.83805     -58.070708      5841.7009      1.9085362      25.849561      22.638721      9.9823838      1.4596869    
     95400   47.7                 192   307.84648     -911.25732      7.6003256     -903.65699     -1117.5105      5826.2479      1.9135982      25.826748      22.618741      9.9735739      1.9507771    
     95500   47.75                192   321.14601     -911.41723      7.9286735     -903.48856      1091.5093      5796.2879      1.9234892      25.782402      22.579904      9.956449       1.9063951    
     95600   47.8                 192   294.38415     -910.69577      7.2679583     -903.42781      443.71229      5790.9888      1.9252494      25.774543      22.573021      9.9534139      1.7784861    
     95700   47.85                192   315.47273     -910.91719      7.7886076     -903.12858     -1768.3017      5807.2036      1.9198737      25.798577      22.59407       9.9626951      1.8227323    
     95800   47.9                 192   307.0606      -910.08043      7.5809233     -902.49951      1285.9882      5804.7362      1.9206898      25.794923      22.590869      9.961284       1.8381695    
     95900   47.95                192   337.26155     -910.33416      8.3265452     -902.00762     -1310.6188      5822.3585      1.9148765      25.820999      22.613707      9.9713541      1.7739911    
     96000   48                   192   311.69991     -909.67589      7.6954617     -901.98043     -1284.0974      5814.2039      1.9175622      25.808939      22.603145      9.9666967      3.1807472    
     96100   48.05                192   321.36129     -910.22972      7.9339885     -902.29574      3602.089       5773.8773      1.930955       25.749131      22.550766      9.9436007      1.9784996    
     96200   48.1                 192   313.05132     -910.70464      7.7288263     -902.97581     -841.43106      5785.9939      1.9269114      25.76713       22.566529      9.9505514      2.0481807    
     96300   48.15                192   290.42666     -910.56937      7.1702531     -903.39912      88.509481      5784.4371      1.92743        25.764819      22.564505      9.9496588      1.5832073    
     96400   48.2                 192   309.36367     -911.22924      7.637783      -903.59146      2951.1904      5780.0647      1.928888       25.758326      22.558818      9.9471513      2.0573476    
     96500   48.25                192   308.15529     -911.40207      7.6079498     -903.79412     -456.71287      5812.9998      1.9179594      25.807157      22.601584      9.9660086      1.7360835    
     96600   48.3                 192   279.23579     -911.00115      6.8939653     -904.10719     -216.81492      5830.275       1.9122764      25.832697      22.623951      9.9758712      1.658067     
     96700   48.35                192   279.05501     -911.26551      6.889502      -904.37601     -1802.76        5822.0155      1.9149893      25.820492      22.613263      9.9711582      1.6941452    
     96800   48.4                 192   303.33606     -911.92765      7.4889694     -904.43868      1377.2842      5773.0561      1.9312297      25.74791       22.549697      9.9431292      1.7059788    
     96900   48.45                192   278.32102     -911.33898      6.8713806     -904.4676      -1760.4892      5763.0954      1.9345676      25.733094      22.53672       9.9374073      1.7576719    
     97000   48.5                 192   286.59992     -911.3761       7.0757759     -904.30033      2853.9026      5742.912       1.9413666      25.703018      22.51038       9.9257929      1.4525712    
     97100   48.55                192   314.45612     -911.4351       7.763509      -903.67159      358.04873      5762.3317      1.934824       25.731957      22.535725      9.9369684      1.7774042    
     97200   48.6                 192   322.71164     -911.10349      7.9673268     -903.13616      556.00432      5795.7871      1.9236554      25.78166       22.579254      9.9561622      2.2619658    
     97300   48.65                192   327.46919     -911.11089      8.0847846     -903.02611     -1870.5451      5830.1327      1.9123231      25.832486      22.623767      9.9757901      1.2889383    
     97400   48.7                 192   316.40982     -911.02363      7.8117432     -903.21189      60.178719      5824.2317      1.9142606      25.823768      22.616132      9.9724233      1.565635     
     97500   48.75                192   298.16289     -910.86892      7.3612504     -903.50767      2403.6985      5832.927       1.911407       25.836613      22.627381      9.9773836      1.8369512    
     97600   48.8                 192   286.60838     -910.86314      7.0759848     -903.78716     -1278.8214      5884.1499      1.8947678      25.912022      22.693424      10.006505      1.6082981    
     97700   48.85                192   286.60652     -910.97689      7.0759389     -903.90095      591.07528      5911.8815      1.8858797      25.952666      22.729019      10.0222        1.803627     
     97800   48.9                 192   311.34405     -911.5579       7.6866759     -903.87123     -1449.853       5954.9225      1.8722489      26.015496      22.784044      10.046463      1.5644136    
     97900   48.95                192   310.68957     -911.4376       7.6705177     -903.76708      292.18554      5970.3386      1.8674146      26.037926      22.803688      10.055125      2.2338962    
     98000   49                   192   322.73843     -911.49299      7.9679884     -903.525       -980.9699       5988.7466      1.8616746      26.064659      22.827101      10.065449      1.933257     
     98100   49.05                192   320.16739     -910.95604      7.9045127     -903.05152      67.866125      5991.4054      1.8608485      26.068515      22.830478      10.066938      2.076283     
     98200   49.1                 192   328.26167     -910.73955      8.1043499     -902.6352      -392.73831      6001.4278      1.8577408      26.083043      22.843202      10.072548      1.7472959    
     98300   49.15                192   315.70376     -910.13998      7.7943115     -902.34567     -1281.1896      6016.4989      1.8530873      26.104859      22.862307      10.080973      1.5448222    
     98400   49.2                 192   311.16386     -909.89231      7.6822274     -902.21008      382.58868      5998.8421      1.8585416      26.079297      22.83992       10.071101      1.9599931    
     98500   49.25                192   313.01304     -909.97386      7.7278813     -902.24598     -4177.1876      5967.5264      1.8682946      26.033837      22.800108      10.053546      1.8975619    
     98600   49.3                 192   337.34902     -910.72177      8.3287046     -902.39306      1964.7888      5862.9159      1.9016301      25.880815      22.666093      9.9944533      2.2977144    
     98700   49.35                192   293.83007     -909.99272      7.2542788     -902.73844      929.80443      5809.2913      1.9191837      25.801668      22.596777      9.9638889      1.9926365    
     98800   49.4                 192   303.28988     -910.76403      7.4878292     -903.2762       1188.9177      5804.4504      1.9207843      25.794499      22.590498      9.9611205      1.577919     
     98900   49.45                192   281.89644     -910.78117      6.9596532     -903.82151     -1269.8239      5841.215       1.9086949      25.848844      22.638093      9.982107       1.8780589    
     99000   49.5                 192   309.98034     -911.66435      7.6530078     -904.01134     -519.85382      5859.1806      1.9028424      25.875318      22.661278      9.9923304      2.0224546    
     99100   49.55                192   293.89059     -911.49156      7.255773      -904.23579     -858.99389      5835.3509      1.910613       25.840191      22.630515      9.9787655      2.0399471    
     99200   49.6                 192   300.64493     -911.73009      7.4225287     -904.30756      859.43046      5797.1581      1.9232005      25.783693      22.581034      9.9569472      1.489765     
     99300   49.65                192   284.43071     -911.3601       7.0222209     -904.33788      411.05191      5773.4009      1.9311144      25.748423      22.550146      9.9433272      2.0339703    
     99400   49.7                 192   294.40853     -911.50775      7.2685603     -904.23919     -1572.1542      5755.7642      1.9370317      25.722177      22.52716       9.9331918      2.9232054    
     99500   49.75                192   306.40049     -911.51519      7.5646261     -903.95056      1835.6655      5732.9163      1.9447515      25.688097      22.497313      9.9200309      1.4904347    
     99600   49.8                 192   293.70652     -910.65504      7.2512285     -903.40381     -123.68694      5754.0379      1.9376128      25.719606      22.524908      9.9321986      1.6805919    
     99700   49.85                192   315.3924      -910.59117      7.7866244     -902.80454      2381.8645      5773.3336      1.9311369      25.748323      22.550058      9.9432885      1.7792338    
     99800   49.9                 192   340.86957     -910.98408      8.4156223     -902.56845     -2726.3006      5817.6023      1.916442       25.813967      22.607548      9.9686382      1.8264125    
     99900   49.95                192   347.38366     -911.3347       8.5764466     -902.75825      3.3967573      5817.5555      1.9164574      25.813897      22.607487      9.9686114      1.9139142    
    100000   50                   192   297.02169     -910.42004      7.3330757     -903.08697     -1921.4298      5811.6119      1.9184174      25.805103      22.599785      9.9652154      2.3931789    
    100100   50.05                192   304.90974     -910.78771      7.5278213     -903.25989      1708.129       5773.1749      1.93119        25.748087      22.549851      9.9431974      1.8662473    
    100200   50.1                 192   305.6895      -910.97168      7.5470727     -903.42461     -1905.7972      5760.0556      1.9355885      25.728568      22.532757      9.9356598      1.5927181    
    100300   50.15                192   299.26272     -911.03008      7.3884038     -903.64167      1545.4899      5724.658       1.947557       25.675756      22.486505      9.9152653      2.431809     
    100400   50.2                 192   292.48356     -911.04046      7.2210352     -903.81942     -105.69953      5711.3465      1.9520961      25.65584       22.469062      9.907574       2.2609668    
    100500   50.25                192   309.74815     -911.73677      7.6472753     -904.0895       342.03502      5703.3969      1.954817       25.643931      22.458633      9.9029752      1.516241     
    100600   50.3                 192   311.30713     -912.18116      7.6857644     -904.49539      1061.1712      5697.0498      1.9569949      25.634415      22.450298      9.8993002      2.3448319    
    100700   50.35                192   303.8599      -912.33681      7.5019022     -904.83491     -275.43142      5717.162       1.9501105      25.664545      22.476686      9.9109356      2.3460615    
    100800   50.4                 192   270.93567     -911.58515      6.6890461     -904.8961      -320.27269      5736.8417      1.9434208      25.693959      22.502446      9.9222945      1.9477413    
    100900   50.45                192   284.42758     -911.7788       7.0221438     -904.75666     -308.31797      5735.2374      1.9439644      25.691563      22.500349      9.9213695      1.7841334    
    101000   50.5                 192   303.25263     -912.0526       7.4869096     -904.56569     -3019.7484      5715.4248      1.9507032      25.661945      22.474409      9.9099317      2.275293     
    101100   50.55                192   268.02959     -911.08066      6.6172988     -904.46336      122.97458      5633.8435      1.9789505      25.539261      22.366964      9.8625545      1.4911305    
    101200   50.6                 192   313.27056     -911.71398      7.7342391     -903.97974      2652.1765      5557.6169      2.0060932      25.423554      22.26563       9.8178718      2.0636199    
    101300   50.65                192   327.35916     -911.81365      8.0820682     -903.73158      3496.3674      5547.9866      2.0095754      25.408861      22.252762      9.8121977      1.8216187    
    101400   50.7                 192   311.50582     -911.58348      7.6906698     -903.89281     -670.27409      5616.3418      1.9851173      25.512787      22.343779      9.8523312      1.7293835    
    101500   50.75                192   297.96273     -911.36593      7.3563088     -904.00962      2144.0487      5672.9381      1.9653127      25.598199      22.418581      9.8853148      1.8246121    
    101600   50.8                 192   291.52753     -911.42292      7.1974321     -904.22549     -1720.8847      5749.7264      1.9390657      25.71318       22.51928       9.9297173      2.0348507    
    101700   50.85                192   308.60502     -911.86821      7.619053      -904.24916     -1266.7995      5771.3552      1.9317989      25.745382      22.547482      9.9421526      1.7234164    
    101800   50.9                 192   268.55244     -911.1686       6.6302072     -904.53839      836.32582      5742.7042      1.9414368      25.702708      22.510109      9.9256732      1.6445287    
    101900   50.95                192   272.36674     -911.61707      6.7243775     -904.89269     -878.65127      5726.7527      1.9468446      25.678888      22.489247      9.9164745      1.8158839    
    102000   51                   192   302.15547     -912.47185      7.4598221     -905.01203     -850.77189      5701.5385      1.9554542      25.641145      22.456193      9.9018994      1.7440422    
    102100   51.05                192   310.35263     -912.74599      7.6621992     -905.08379     -87.013929      5668.8454      1.9667316      25.592042      22.413189      9.882937       1.7908283    
    102200   51.1                 192   294.22915     -912.39776      7.2641316     -905.13363      1175.1562      5635.1112      1.9785053      25.541176      22.368641      9.8632942      1.2443108    
    102300   51.15                192   294.2864      -912.37029      7.2655451     -905.10474     -2286.9443      5619.1012      1.9841425      25.516965      22.347437      9.8539444      1.4023554    
    102400   51.2                 192   300.77009     -912.20934      7.4256188     -904.78372      1966.2472      5586.0396      1.9958859      25.466821      22.303522      9.8345802      1.3957754    
    102500   51.25                192   290.72379     -911.43587      7.1775889     -904.25828      399.64278      5606.6154      1.9885611      25.498051      22.330873      9.8466404      1.8663785    
    102600   51.3                 192   298.04807     -911.1467       7.3584157     -903.78829      1619.0767      5643.545       1.9755486      25.553912      22.379795      9.8682124      2.1776024    
    102700   51.35                192   300.17683     -911.02879      7.4109721     -903.61782     -906.48803      5703.904       1.9546433      25.644691      22.459298      9.9032686      1.5676038    
    102800   51.4                 192   284.68198     -910.61172      7.0284245     -903.5833      -1474.5338      5750.6908      1.9387405      25.714618      22.520539      9.9302724      1.9307194    
    102900   51.45                192   307.64848     -911.16289      7.5954373     -903.56745     -1886.3153      5755.9794      1.9369592      25.722498      22.527441      9.9333156      2.0775559    
    103000   51.5                 192   306.43718     -911.29286      7.5655317     -903.72733      71.964662      5713.0386      1.9515179      25.658373      22.471281      9.9085524      1.8169738    
    103100   51.55                192   283.69354     -911.03503      7.0040213     -904.03101      828.0113       5667.8972      1.9670606      25.590615      22.411939      9.8823859      2.099217     
    103200   51.6                 192   256.5075      -910.84558      6.3328337     -904.51274     -782.90366      5636.6544      1.9779636      25.543508      22.370683      9.8641945      2.5114381    
    103300   51.65                192   274.66631     -911.73465      6.7811507     -904.9535       2913.2503      5581.7924      1.9974045      25.460365      22.297868      9.8320871      2.2489516    
    103400   51.7                 192   265.78536     -911.78166      6.5618918     -905.21976      2608.8961      5578.938       1.9984265      25.456024      22.294066      9.8304108      1.7922581    
    103500   51.75                192   252.60921     -911.50907      6.23659       -905.27248     -956.00387      5620.5627      1.9836265      25.519177      22.349375      9.8547987      1.9628784    
    103600   51.8                 192   275.18406     -911.64732      6.7939333     -904.85338      2474.4771      5639.2107      1.977067       25.547369      22.374065      9.8656854      1.6591771    
    103700   51.85                192   316.79205     -911.87507      7.82118       -904.05389      954.39167      5697.3814      1.956881       25.634912      22.450734      9.8994923      1.5630801    
    103800   51.9                 192   310.52249     -911.44598      7.6663928     -903.77959     -1124.4368      5779.8518      1.9289591      25.758009      22.558541      9.9470291      1.6294045    
    103900   51.95                192   281.1809      -910.60897      6.9419874     -903.66698     -2214.9085      5846.0048      1.9071311      25.855908      22.644279      9.9848347      1.6234108    
    104000   52                   192   325.89529     -911.51956      8.0459269     -903.47363     -2128.7297      5863.2332      1.9015272      25.881282      22.666502      9.9946336      1.9847435    
    104100   52.05                192   330.01278     -911.73085      8.1475825     -903.58327      2397.4804      5841.8999      1.9084712      25.849854      22.638978      9.9824971      1.5008623    
    104200   52.1                 192   296.83371     -911.31949      7.3284347     -903.99105     -3223.1076      5866.0792      1.9006047      25.885469      22.670169      9.9962505      1.7454407    
    104300   52.15                192   279.71992     -911.22986      6.9059179     -904.32394      2931.9247      5853.8469      1.9045762      25.867464      22.6544        9.9892974      1.7960851    
    104400   52.2                 192   314.35967     -912.31828      7.7611277     -904.55715     -3145.4584      5874.9599      1.8977317      25.898525      22.681603      10.001292      1.4413643    
    104500   52.25                192   275.00434     -911.68361      6.7894963     -904.89411      2574.1888      5860.0798      1.9025504      25.876641      22.662438      9.9928415      1.8306239    
    104600   52.3                 192   278.30939     -911.98781      6.8710936     -905.11672     -2885.4673      5861.1552      1.9022014      25.878224      22.663824      9.9934527      3.4191553    
    104700   52.35                192   262.61395     -911.63456      6.4835938     -905.15097      3776.0287      5815.0312      1.9172894      25.810163      22.604217      9.9671694      2.4892592    
    104800   52.4                 192   274.90413     -911.65126      6.7870223     -904.86424     -1312.3029      5833.2816      1.9112908      25.837137      22.62784       9.9775858      1.9203326    
    104900   52.45                192   296.89289     -911.5023       7.3298958     -904.17241      1996.0719      5837.5862      1.9098814      25.84349       22.633404      9.9800394      1.6590609    
    105000   52.5                 192   308.0472      -911.28367      7.6052811     -903.67839      579.82293      5882.0566      1.8954421      25.908949      22.690732      10.005318      2.0052721    
    105100   52.55                192   337.50488     -911.67482      8.3325525     -903.34227     -3745.5172      5918.342       1.8838211      25.962116      22.737295      10.025849      1.7910021    
    105200   52.6                 192   303.75142     -910.85005      7.499224      -903.35082      1796.5676      5898.1829      1.8902597      25.932605      22.71145       10.014453      1.9987318    
    105300   52.65                192   292.53543     -910.71428      7.2223159     -903.49196      498.68415      5919.727       1.8833803      25.964141      22.739069      10.026631      1.9795096    
    105400   52.7                 192   288.13998     -910.85975      7.1137979     -903.74595     -277.59859      5948.5835      1.8742441      26.006261      22.775957      10.042897      1.7030367    
    105500   52.75                192   300.39234     -911.38753      7.4162927     -903.97124     -688.88952      5958.6907      1.871065       26.020982      22.788849      10.048582      1.4229524    
    105600   52.8                 192   282.96067     -911.15379      6.9859277     -904.16786     -422.04135      5952.5226      1.8730038      26.012         22.780983      10.045113      1.7435551    
    105700   52.85                192   286.75087     -911.39274      7.0795027     -904.31324     -1729.2317      5924.9754      1.881712       25.971812      22.745787      10.029594      1.6054269    
    105800   52.9                 192   288.82791     -911.38707      7.1307821     -904.25629      560.31966      5851.862       1.9052222      25.86454       22.651839      9.9881682      2.2328848    
    105900   52.95                192   299.05168     -911.31822      7.3831935     -903.93503     -185.70295      5794.8081      1.9239805      25.780208      22.577982      9.9556016      1.679635     
    106000   53                   192   300.25436     -910.81978      7.4128862     -903.40689      3066.8235      5747.6595      1.939763       25.710099      22.516581      9.9285273      1.8968586    
    106100   53.05                192   297.83407     -910.3309       7.3531323     -902.97777      787.84039      5766.7548      1.9333399      25.738539      22.541489      9.9395102      2.2956785    
    106200   53.1                 192   311.44071     -910.42549      7.6890624     -902.73643      685.55972      5809.1843      1.9192191      25.80151       22.596638      9.9638277      1.7450499    
    106300   53.15                192   295.3999      -910.08837      7.2930358     -902.79534     -2301.4803      5861.5452      1.9020748      25.878798      22.664327      9.9936744      1.8366963    
    106400   53.2                 192   312.17128     -910.61334      7.7070992     -902.90625      1497.1224      5865.7123      1.9007235      25.884929      22.669696      9.9960421      1.7861812    
    106500   53.25                192   317.89718     -911.16351      7.8484642     -903.31505     -3211.3994      5868.3233      1.8998778      25.88877       22.673059      9.997525       1.8978682    
    106600   53.3                 192   282.01753     -911.07948      6.9626426     -904.11684      454.46711      5801.5537      1.9217434      25.790208      22.58674       9.9594631      2.1152905    
    106700   53.35                192   278.498       -911.24903      6.8757501     -904.37328     -1612.2329      5715.2458      1.9507643      25.661677      22.474174      9.9098282      1.7270196    
    106800   53.4                 192   312.08011     -911.98527      7.7048484     -904.28042      3239.6909      5633.0882      1.9792158      25.53812       22.365964      9.8621137      1.5885647    
    106900   53.45                192   294.36255     -911.5088       7.267425      -904.24138      202.74664      5621.6281      1.9832506      25.520789      22.350787      9.8554213      1.8796834    
    107000   53.5                 192   313.86226     -911.93117      7.7488474     -904.18232      1982.5669      5638.9995      1.977141       25.54705       22.373785      9.8655623      1.7089723    
    107100   53.55                192   271.19844     -910.82514      6.6955335     -904.1296      -645.26725      5690.8946      1.9591116      25.625179      22.44221       9.8957338      1.8924639    
    107200   53.6                 192   287.18282     -910.96273      7.090167      -903.87257     -111.54829      5740.8744      1.9420556      25.699978      22.507718      9.9246189      1.7372939    
    107300   53.65                192   299.76159     -910.79793      7.4007204     -903.39721     -852.21703      5784.4262      1.9274336      25.764803      22.564491      9.9496526      2.2446753    
    107400   53.7                 192   309.92123     -910.63425      7.6515484     -902.9827       887.37777      5812.8319      1.9180148      25.806909      22.601367      9.9659127      1.6812237    
    107500   53.75                192   330.40529     -910.75818      8.1572729     -902.60091     -1900.2295      5853.2848      1.9047591      25.866636      22.653675      9.9889777      1.51317      
    107600   53.8                 192   328.66504     -910.69973      8.1143085     -902.58542      1006.1831      5854.9092      1.9042306      25.869029      22.65577       9.9899016      1.969411     
    107700   53.85                192   315.00809     -910.92787      7.7771364     -903.15073     -2492.0899      5860.9748      1.9022599      25.877959      22.663591      9.9933502      2.0583265    
    107800   53.9                 192   314.51938     -911.97201      7.7650708     -904.20694     -832.37462      5807.9999      1.9196105      25.799756      22.595102      9.9631505      1.9237808    
    107900   53.95                192   296.68701     -911.85189      7.3248128     -904.52708      2098.9963      5746.0982      1.9402901      25.70777       22.514542      9.9276282      1.497129     
    108000   54                   192   299.55659     -912.04552      7.3956591     -904.64986      1797.041       5745.7122      1.9404204      25.707195      22.514038      9.9274059      2.0876168    
    108100   54.05                192   269.28081     -911.33162      6.6481898     -904.68343     -1400.3103      5787.0021      1.9265757      25.768627      22.56784       9.9511293      1.7451356    
    108200   54.1                 192   293.57692     -911.81291      7.2480289     -904.56488     -681.89235      5796.4997      1.923419       25.782716      22.580179      9.9565703      1.6158217    
    108300   54.15                192   289.96916     -911.68131      7.158958      -904.52235     -315.56943      5759.6219      1.9357343      25.727923      22.532192      9.9354105      1.4497798    
    108400   54.2                 192   306.0657      -911.77998      7.5563604     -904.22362      1171.839       5718.885       1.9495229      25.667123      22.478944      9.9119312      1.3707181    
    108500   54.25                192   292.59786     -911.02996      7.2238571     -903.8061       1153.3359      5715.8544      1.9505566      25.662588      22.474972      9.91018        1.5454181    
    108600   54.3                 192   322.44656     -911.37014      7.9607823     -903.40936      439.11972      5745.9204      1.9403501      25.707505      22.51431       9.9275258      1.9858821    
    108700   54.35                192   291.65611     -910.38313      7.2006065     -903.18252     -1459.8265      5789.5759      1.9257192      25.772447      22.571185      9.9526044      1.667733     
    108800   54.4                 192   312.01751     -910.66994      7.7033029     -902.96664      1578.8743      5811.0569      1.9186006      25.804282      22.599066      9.9648982      2.0572796    
    108900   54.45                192   304.86457     -910.38012      7.5267062     -902.85341     -1945.4824      5839.6915      1.9091929      25.846597      22.636125      9.981239       1.7352643    
    109000   54.5                 192   342.49432     -911.45484      8.4557354     -902.9991       2264.0269      5826.1259      1.9136383      25.826567      22.618583      9.9735043      1.7895348    
    109100   54.55                192   300.25749     -911.21989      7.4129634     -903.80692     -1001.5646      5823.0251      1.9146573      25.821985      22.61457       9.9717346      2.1992786    
    109200   54.6                 192   289.5112      -911.49011      7.1476516     -904.34245     -58.370326      5795.7441      1.9236697      25.781596      22.579198      9.9561376      1.9284145    
    109300   54.65                192   294.23729     -911.79208      7.2643327     -904.52775     -1011.723       5738.1859      1.9429655      25.695965      22.504204      9.9230694      1.3538599    
    109400   54.7                 192   287.00743     -911.44125      7.0858369     -904.35542      2558.3487      5673.2808      1.965194       25.598715      22.419033      9.8855139      1.7566385    
    109500   54.75                192   302.61427     -911.58436      7.4711491     -904.11321      2416.8404      5688.8159      1.9598274      25.622059      22.439477      9.8945288      1.6676464    
    109600   54.8                 192   308.71829     -911.42164      7.6218494     -903.79979     -1143.9508      5765.7914      1.933663       25.737106      22.540234      9.9389567      1.6587199    
    109700   54.85                192   325.9686      -911.45067      8.0477369     -903.40294     -1907.6256      5833.298       1.9112854      25.837161      22.627861      9.9775951      1.9455596    
    109800   54.9                 192   309.54286     -910.98915      7.6422069     -903.34694     -748.23169      5852.669       1.9049595      25.865729      22.65288       9.9886273      1.4208775    
    109900   54.95                192   296.50579     -910.79951      7.320339      -903.47917      1402.919       5852.0375      1.9051651      25.864798      22.652066      9.9882681      1.5576895    
    110000   55                   192   287.73989     -910.828        7.1039202     -903.72408     -181.40607      5871.2564      1.8989287      25.893082      22.676836      9.9991904      1.7507963    
Loop time of 517.665 on 1 procs for 20000 steps with 192 atoms

Performance: 1.669 ns/day, 14.380 hours/ns, 38.635 timesteps/s, 7.418 katom-step/s
99.3% CPU use with 1 MPI tasks x 1 OpenMP threads

MPI task timing breakdown:
Section |  min time  |  avg time  |  max time  |%varavg| %total
---------------------------------------------------------------
Pair    | 511.03     | 511.03     | 511.03     |   0.0 | 98.72
Neigh   | 0.034799   | 0.034799   | 0.034799   |   0.0 |  0.01
Comm    | 0.63305    | 0.63305    | 0.63305    |   0.0 |  0.12
Output  | 0.12473    | 0.12473    | 0.12473    |   0.0 |  0.02
Modify  | 4.872      | 4.872      | 4.872      |   0.0 |  0.94
Other   |            | 0.9697     |            |       |  0.19

Nlocal:            192 ave         192 max         192 min
Histogram: 1 0 0 0 0 0 0 0 0 0
Nghost:           1284 ave        1284 max        1284 min
Histogram: 1 0 0 0 0 0 0 0 0 0
Neighs:              0 ave           0 max           0 min
Histogram: 1 0 0 0 0 0 0 0 0 0
FullNghs:        13220 ave       13220 max       13220 min
Histogram: 1 0 0 0 0 0 0 0 0 0

Total # of neighbors = 13220
Ave neighs/atom = 68.854167
Neighbor list builds = 132
Dangerous builds = 0
unfix release
write_data relaxed_300K.data
System init for write_data ...
write_restart relaxed_300K.restart
System init for write_restart ...
undump traj
# Inherent structure at the resulting box, distinct from finite-T trajectory.
min_style cg/kk
minimize 0 0.01 10000 30000
WARNING: Fix MINIMIZE/kk not compatible with Kokkos sorting on device (src/KOKKOS/atom_kokkos.cpp:217)
WARNING: Fix with atom-based arrays not compatible with Kokkos sorting on device, switching to legacy host sorting (src/KOKKOS/atom_kokkos.cpp:223)
Per MPI rank memory allocation (min/avg/max) = 48.02 | 48.02 | 48.02 Mbytes
   Step          Time         Atoms         Temp          PotEng         KinEng         TotEng         Press          Volume        Density           Lx             Ly             Lz            Fmax     
    110000   55                   192   287.73989     -910.828        7.1039202     -903.72408     -181.40607      5871.2564      1.8989287      25.893082      22.676836      9.9991904      1.7507963    
    110100   55.05                192   287.73989     -918.98018      7.1039202     -911.87626     -1388.2842      5871.2564      1.8989287      25.893082      22.676836      9.9991904      0.015742061  
    110153   55.0765              192   287.73989     -918.98359      7.1039202     -911.87967     -1375.0679      5871.2564      1.8989287      25.893082      22.676836      9.9991904      0.001744848  
Loop time of 7.79216 on 1 procs for 153 steps with 192 atoms

99.4% CPU use with 1 MPI tasks x 1 OpenMP threads

Minimization stats:
  Stopping criterion = force tolerance
  Energy initial, next-to-last, final = 
     -910.828002982588  -918.983581458972  -918.983585404758
  Force two-norm initial, final = 9.4887872 0.0095132413
  Force max component initial, final = 1.7507963 0.001744848
  Final line search alpha, max atom move = 1 0.001744848
  Iterations, force evaluations = 153 306

MPI task timing breakdown:
Section |  min time  |  avg time  |  max time  |%varavg| %total
---------------------------------------------------------------
Pair    | 7.7334     | 7.7334     | 7.7334     |   0.0 | 99.25
Neigh   | 0.00051255 | 0.00051255 | 0.00051255 |   0.0 |  0.01
Comm    | 0.0084848  | 0.0084848  | 0.0084848  |   0.0 |  0.11
Output  | 0.00020048 | 0.00020048 | 0.00020048 |   0.0 |  0.00
Modify  | 0          | 0          | 0          |   0.0 |  0.00
Other   |            | 0.0496     |            |       |  0.64

Nlocal:            192 ave         192 max         192 min
Histogram: 1 0 0 0 0 0 0 0 0 0
Nghost:           1285 ave        1285 max        1285 min
Histogram: 1 0 0 0 0 0 0 0 0 0
Neighs:              0 ave           0 max           0 min
Histogram: 1 0 0 0 0 0 0 0 0 0
FullNghs:        13284 ave       13284 max       13284 min
Histogram: 1 0 0 0 0 0 0 0 0 0

Total # of neighbors = 13284
Ave neighs/atom = 69.1875
Neighbor list builds = 2
Dangerous builds = 0
write_data candidate_final.data
System init for write_data ...
Total wall time: 0:48:28
