272
Lattice="20.114766557747682 0.0 0.0 0.0 20.114766557747682 0.0 0.0 0.0 20.114766557747682" Properties=species:S:1:pos:R:3:mass:R:1:vel:R:3 pbc="T T T"
Cl       9.66148602      12.38700716       6.00734566      35.45000000       0.00037764       0.00095409       0.00418034
Cl       5.13836643      12.00502052       4.22659540      35.45000000      -0.00013033      -0.00126810       0.00414687
Cl       7.23037927       9.92562615       5.25690948      35.45000000       0.00094932       0.00152691       0.00450461
Cl       5.78654244      10.61274785       8.11205775      35.45000000      -0.00307066       0.00325521       0.00144207
Cl       9.26824369       7.90291400      11.28041689      35.45000000       0.00012213      -0.00047424      -0.00124881
Cl       5.79354822      15.49004296      11.68400637      35.45000000      -0.00013193       0.00053356      -0.00409087
Cl       1.22475982      13.97188832       5.80884182      35.45000000      -0.00118999       0.00048555       0.00517738
Cl       2.22899907      13.12927666       2.71080294      35.45000000       0.00044693       0.00241731      -0.00191451
Cl       2.61771894      10.97656388       5.50057739      35.45000000      -0.00018019       0.00494013       0.00166596
Cl       3.43219643      16.15438072       9.35870306      35.45000000      -0.00032206      -0.00169867      -0.00035610
Cl      12.33360575       9.35997500      11.39166141      35.45000000      -0.00255526      -0.00507177      -0.00116715
Cl      11.95565702      12.94242220      12.06064278      35.45000000       0.00014670      -0.00282779      -0.00221674
Cl      12.41638298       9.91019123       8.10412325      35.45000000      -0.00233476       0.00110265       0.00060344
Cl       2.21427078      12.90668667       9.43946133      35.45000000       0.00231982      -0.00290801       0.00116473
Cl       2.75054611      14.82166728      12.35530954      35.45000000       0.00232771       0.00436364      -0.00517506
Cl       4.84821204      12.01087549      11.33008323      35.45000000       0.00288719       0.00181642       0.00181826
O        9.44746650       7.70717613       6.06904498      15.99900000      -0.00505392       0.00650107      -0.00143349
O       10.14697449       7.44691240       8.42838791      15.99900000      -0.00118366       0.00169958      -0.00495833
O        9.55033235       9.76448311       7.67917320      15.99900000       0.00051311      -0.00212539      -0.00344767
O        7.80086583       7.92411305       7.85729567      15.99900000      -0.00049799       0.00292421      -0.00024256
O        6.11663180      15.54293963       7.28679902      15.99900000       0.00099920      -0.00402875      -0.00308194
O        5.49443976      13.94705515       8.90195444      15.99900000       0.00922663      -0.00229048      -0.00033581
O        4.52581490      13.86922436       6.53103279      15.99900000      -0.00330720      -0.00215126       0.00205897
O        6.96033369      13.19943541       6.93978071      15.99900000      -0.00105903       0.00007596      -0.00146918
S        9.20684721       8.03180421       7.40490800      32.06000000       0.00231955       0.00390845       0.00089961
S        5.73969255      14.06879825       7.32915674      32.06000000      -0.00178883      -0.00175318      -0.00293125
Zr       8.10850438      11.14898280       7.46515367      91.22400000      -0.00136929       0.00303108      -0.00183738
Zr      10.55894264       9.39039059       9.63089883      91.22400000      -0.00196470      -0.00187830      -0.00011553
Zr       3.37107251      13.46119318       4.89339629      91.22400000       0.00064680       0.00417563       0.00127897
Zr       4.24486696      14.15248401      10.21158111      91.22400000       0.00091117       0.00125560      -0.00006635
Cl      13.14573116      13.15269656      18.85675452      35.45000000       0.00360162       0.00363096      -0.00288689
Cl      15.78208507      10.81747007      19.63253870      35.45000000      -0.00042366       0.00108964       0.00312923
Cl       9.12550344       9.73619752      17.97507604      35.45000000       0.00045538       0.00135448      -0.00065363
Cl      12.46231425      10.28809958       0.01975963      35.45000000      -0.00134001      -0.00337808      -0.00250095
Cl       8.43416213      13.00420228      18.10166464      35.45000000       0.00316806      -0.00044932       0.00303223
Cl      17.00961086       5.65529005      17.47265862      35.45000000       0.00103390       0.00630737      -0.00225362
Cl      14.75595023       3.68621149      15.94885091      35.45000000      -0.00040686       0.00326458       0.00116984
Cl      14.72808862       6.73927810      19.77649033      35.45000000       0.00205771       0.00077495       0.00407697
Cl      12.33996547       5.03125067      17.75965334      35.45000000       0.00326140       0.00196017       0.00169533
Cl      12.85641464       5.56105524      13.57304339      35.45000000      -0.00138675      -0.00131165      -0.00137229
Cl       5.57309832      11.25386761      18.78043795      35.45000000       0.00060518       0.00106371      -0.00209833
Cl       7.81462502      16.41634038      17.25168379      35.45000000       0.00146127       0.00107622      -0.00184212
Cl       7.11522807       8.96151367       0.67400453      35.45000000      -0.00048791       0.00142688      -0.00009461
Cl      15.16822123      10.92144635       9.65821531      35.45000000       0.00256921       0.00286763      -0.00018822
Cl      15.74554195       7.37424004      13.38154533      35.45000000       0.00165303       0.00159133       0.00453300
Cl      17.49779464       9.25520123      16.30499490      35.45000000      -0.00094937      -0.00273182      -0.00209608
O        8.37669252      12.49401188       3.02488197      15.99900000      -0.00517151      -0.00401404       0.00575046
O        9.16612485      11.84410965       0.70116455      15.99900000      -0.00523740       0.00040128       0.00592647
O        6.73061678      12.21660720       1.10371326      15.99900000       0.00231758      -0.00384274      -0.00465995
O        8.28334605      14.13239539       1.25887010      15.99900000      -0.00387198      -0.00032791       0.00143847
O       14.39718159       8.99180812      17.52535340      15.99900000       0.00593043       0.00013446      -0.00406784
O       13.73708363       9.15667614      15.10068712      15.99900000       0.00373521       0.00100411      -0.00585448
O       14.46946025       6.96151478      16.07715562      15.99900000      -0.00188656      -0.00401447       0.00058497
O       12.25214084       7.90933428      16.54424130      15.99900000       0.00281560       0.00117703       0.00068461
S        8.12398978      12.67521326       1.58591083      32.06000000       0.00017786       0.00328026       0.00245764
S       13.60837513       8.24966985      16.35647831      32.06000000      -0.00142054       0.00262622       0.00081055
Zr      13.82268741      10.69613077      18.19140728      91.22400000      -0.00647963      -0.00338155       0.00003529
Zr       7.91704670      11.04490557      19.56702355      91.22400000      -0.00165402      -0.00505711      -0.00103496
Zr      14.62643415       5.77512524      17.50778847      91.22400000      -0.00012818      -0.00048332      -0.00114120
Zr      15.60492160       9.48061777      14.72687725      91.22400000       0.00198971       0.00230952       0.00020363
Cl      19.65757377       0.03194777      10.33251663      35.45000000       0.00208049      -0.00102270       0.00276780
Cl      16.12177457      17.85222252      12.36611096      35.45000000       0.00045223       0.00672383       0.00101535
Cl      16.93258765       1.06862379      12.13796883      35.45000000       0.00036684       0.00148648       0.00104929
Cl      19.20250089      18.30174327      13.21407285      35.45000000      -0.00133306       0.00044993       0.00591296
Cl      18.29720062      17.08683596      10.01131068      35.45000000       0.00138214       0.00345282      -0.00238302
Cl      12.08638448       4.31106855       1.16769400      35.45000000       0.00705058       0.00169185      -0.00215511
Cl      14.69457394      19.48919277       0.03764971      35.45000000      -0.00209675      -0.00506414      -0.00111405
Cl      12.03167075       0.68591840       1.22022726      35.45000000       0.00459707       0.00291530       0.00176579
Cl      12.43192895      17.55806050       2.73206256      35.45000000       0.00355933      -0.00491572       0.00091087
Cl      15.75180072      18.11297080       3.01592790      35.45000000       0.00547426       0.00012620       0.00035279
Cl      14.99378335       4.37577612       6.73249441      35.45000000       0.00084287      -0.00272268       0.00272087
Cl      12.87297009       1.77860007       6.45750238      35.45000000      -0.00179099       0.00206941       0.00122453
Cl      17.59086855       2.15662956       7.21239037      35.45000000      -0.00037557       0.00022260       0.00383898
Cl      14.82752225       3.50825054      19.73802920      35.45000000       0.00066258      -0.00143841       0.00131450
Cl      13.76272439       6.41163168       3.15838550      35.45000000      -0.00009455       0.00287747       0.00220976
Cl      16.65134696       5.13812415       2.21182784      35.45000000       0.00456480      -0.00264751       0.00610476
O       15.41877378       0.04752382       7.25012467      15.99900000       0.00483081      -0.00258598       0.00510963
O       13.95513098      18.96093269       8.76537201      15.99900000      -0.00081731       0.00211121      -0.00204971
O       16.31337358      19.50807001       9.47772057      15.99900000      -0.00190602       0.00323451       0.00330550
O       14.69780427       1.28394554       9.19810513      15.99900000       0.00268454      -0.00661490       0.00072870
O       15.65529458       1.72215004       4.86422236      15.99900000      -0.00618028       0.00703700      -0.00294892
O       13.75020685       0.63932390       3.67063524      15.99900000       0.00681424       0.00608905      -0.00096204
O       14.08717076       3.06399926       3.22252776      15.99900000      -0.00242659       0.00062232      -0.00375168
O       15.75311304       1.45573858       2.31298768      15.99900000       0.00900474       0.00373641       0.00167561
S       15.05505869      20.03501776       8.70653960      32.06000000      -0.00108350      -0.00319729      -0.00337479
S       14.92594640       1.73312307       3.47321154      32.06000000       0.00414904       0.00028722       0.00026523
Zr      17.58057187      19.13345256      10.86289660      91.22400000       0.00091735       0.00014122       0.00215933
Zr      13.81461158      19.44053590       2.30445759      91.22400000       0.00029425      -0.00207311      -0.00008443
Zr      15.33175673       1.94537601       6.71964375      91.22400000       0.00113862      -0.00052298      -0.00580991
Zr      14.44876594       4.32836092       1.97065335      91.22400000      -0.00044111      -0.00137011      -0.00086387
Cl       1.69728658       6.31073431       2.73192123      35.45000000      -0.00664137       0.00481464      -0.00073305
Cl       2.74820412       5.01783470      10.71541180      35.45000000      -0.00040184       0.00414945       0.00248850
Cl       0.51627554       6.78868198       8.79239574      35.45000000      -0.00329293      -0.00281108      -0.00022401
Cl       2.30006635       9.47091668       9.22209034      35.45000000       0.00032082       0.00188402       0.00231130
Cl       4.99760475       7.72682058       9.92803881      35.45000000       0.00191699      -0.00183942       0.00159704
Cl       4.50997619       7.62198624      15.95561441      35.45000000      -0.00009758       0.00155358       0.00046032
Cl       0.22991881       9.59115566       2.13610686      35.45000000       0.00179252       0.00317673       0.00109868
Cl      18.81385168       7.85682122      19.55309275      35.45000000       0.00193401      -0.00409943       0.00358523
Cl      19.70431262      11.25477614      19.06066916      35.45000000      -0.00153165       0.00310332       0.00167940
Cl       2.73543422      10.85956533       0.34764822      35.45000000       0.00363000       0.00133664       0.00480575
Cl       6.42634988       6.55955056       3.61739535      35.45000000       0.00054382      -0.00242930      -0.00164854
Cl       4.35569760       8.99060684       2.84307490      35.45000000      -0.00310133      -0.00281776      -0.00101769
Cl       4.19142517       4.19397915       2.65127400      35.45000000      -0.00027890       0.00501408       0.00237763
Cl       1.40468926       8.74037732      17.29781696      35.45000000      -0.00516961      -0.00035057      -0.00346673
Cl       3.37916853       4.33898063      16.40301526      35.45000000       0.00032243       0.00261909      -0.00191953
Cl       0.60779082       5.48840308      17.82728840      35.45000000       0.00765055      -0.00042227      -0.00339895
O        4.44684341       8.18568910       6.24929745      15.99900000       0.00729772       0.00222400      -0.00231815
O        3.25575979       6.41139950       7.47106922      15.99900000      -0.00548461       0.00230484      -0.00486288
O        1.96758453       7.94397958       5.88440128      15.99900000      -0.00141571      -0.00061840      -0.00134339
O        3.44803515       6.22782585       5.01979309      15.99900000       0.00314175       0.00189913      -0.00143405
O        4.04168923       8.44869862      19.07661892      15.99900000      -0.00605757      -0.00383634       0.00605155
O        1.94561828       7.70931623      19.98787512      15.99900000      -0.00409426      -0.00006143       0.00761620
O        3.47210111       6.05002641      18.74651947      15.99900000      -0.00515660       0.00064720       0.00146977
O        4.14531219       6.88803485       0.88350058      15.99900000      -0.00470060      -0.00007024      -0.00277284
S        3.25098495       7.28751575       6.14541203      32.06000000      -0.00676340      -0.00255015       0.00071194
S        3.51434779       7.26212737      19.68301263      32.06000000       0.00120637       0.00101083      -0.00239213
Zr       2.80646112       7.03061358       9.15683765      91.22400000       0.00116942      -0.00024404       0.00022134
Zr       0.78364096       9.12834008      19.97354052      91.22400000       0.00028466      -0.00072530      -0.00016282
Zr       3.98050474       6.49394456       3.25408405      91.22400000       0.00044116      -0.00272938       0.00096505
Zr       2.66600229       6.56484023      17.04221701      91.22400000      -0.00034838       0.00059663      -0.00366706
Cl       7.20541487      17.14649614       0.51877198      35.45000000      -0.00070027      -0.00117711       0.00473009
Cl       4.88149454      19.34625062       1.34279813      35.45000000       0.00183756       0.00293025      -0.00440445
Cl       5.34354292      14.88859570      19.69058371      35.45000000       0.00172858       0.00069977      -0.00379178
Cl      19.25882978      16.03263762      15.65378036      35.45000000      -0.00128962       0.00148508      -0.00088589
Cl       3.37849218      15.40736667      15.80893720      35.45000000      -0.00056129       0.00086253       0.00274971
Cl       1.08304923      15.24201410      18.20160301      35.45000000      -0.00130283       0.00305515       0.00175748
Cl       7.37979218      18.24521248       3.84639553      35.45000000      -0.00267443       0.00186476       0.00282490
Cl       4.54515651      17.98860306       5.78284775      35.45000000      -0.00125913      -0.00132281       0.00492745
Cl       2.49868124      16.39352616       0.92615004      35.45000000       0.00020814      -0.00112087       0.00057562
Cl       7.33875688      18.35231814       7.51240736      35.45000000       0.00504560       0.00036502      -0.00224238
Cl       8.90924287      15.85648363       5.95123885      35.45000000      -0.00090891       0.00083790       0.00072120
Cl       1.96648420      18.02534807      14.38002046      35.45000000       0.00329284      -0.00100225      -0.00029583
Cl       0.43180844      19.55753446       0.23207304      35.45000000       0.00229863      -0.00368384      -0.00007900
Cl      19.82524814      18.88613034      17.14255917      35.45000000       0.00087346      -0.00054228       0.00070077
Cl       1.78838192       1.02690204      16.17870915      35.45000000       0.00361603      -0.00196345      -0.00326390
Cl       0.91948344       2.35262990      19.23207860      35.45000000       0.00207530       0.00332948      -0.00404059
O        4.96616959      14.44089201       2.34427141      15.99900000       0.00021843       0.00312062       0.00661521
O        3.84716274      15.26432357       4.27584785      15.99900000       0.00125350       0.00472197      -0.00233659
O        6.27792626      15.16963450       4.33286319      15.99900000      -0.00034517       0.00379334      -0.00307106
O        5.13315752      16.82356398       2.90993266      15.99900000      -0.00344752      -0.00309889      -0.00702097
O        4.68793714      17.99405424      18.99485117      15.99900000       0.00068110      -0.00173699       0.00197201
O        4.54952755      18.90965119      16.71019955      15.99900000       0.00550225      -0.00108615      -0.00081087
O        2.42414135      18.01182106      17.87836801      15.99900000      -0.00253978      -0.00188044      -0.00073700
O        3.28594319       0.00587969      18.60852377      15.99900000      -0.00071680      -0.00010637      -0.00351344
S        5.08821554      15.39959369       3.39120151      32.06000000      -0.00022281       0.00019328      -0.00104132
S        3.84814193      18.73329531      17.98941064      32.06000000       0.00395449      -0.00341630      -0.00107272
Zr       4.76736291      17.01152887       0.91819131      91.22400000       0.00068708       0.00076660      -0.00310730
Zr       1.64381451      16.88857439      16.59875313      91.22400000      -0.00111346      -0.00089910       0.00147280
Zr       6.53655464      16.60026735       5.69573985      91.22400000      -0.00037409       0.00207545       0.00325691
Zr       1.43552882       0.11779604      18.39976363      91.22400000      -0.00279225       0.00094465       0.00086374
Cl      10.07052669       4.34448229       6.61570785      35.45000000      -0.00185034      -0.00627272      -0.00162044
Cl       9.15520230       1.02823456       6.55488677      35.45000000       0.00138570      -0.00567775      -0.00331860
Cl       7.96560261       4.81622166       9.60987139      35.45000000       0.00051036       0.00014923      -0.00356300
Cl      12.19359109       2.29287887      13.74505851      35.45000000       0.00002391       0.00131980       0.00031752
Cl      12.31775694       5.25780791       9.60232049      35.45000000      -0.00034439      -0.00315909       0.00307387
Cl       9.98622514       4.32821959      12.22579345      35.45000000       0.00016427       0.00387530       0.00194875
Cl       6.35044719       1.31157497       4.40267872      35.45000000       0.00320890       0.00014813      -0.00089941
Cl       2.16387762       3.50363722       6.01960073      35.45000000      -0.00504701       0.00128235       0.00453054
Cl       7.27193950       1.52855226       9.49315549      35.45000000      -0.00105295      -0.00264082       0.00164775
Cl       4.45304160       1.10688302       7.30587816      35.45000000       0.00010788       0.00158173      -0.00222404
Cl       3.05650893       1.05009986       3.85968027      35.45000000      -0.00166231      -0.00035883      -0.00565798
Cl      14.81651894       3.88151529      11.50149267      35.45000000      -0.00012866      -0.00359124       0.00141340
Cl       9.83190617      18.55592994      10.41004457      35.45000000       0.00094212      -0.00373136      -0.00326233
Cl      13.05407052      19.57853161      11.68218931      35.45000000       0.00020099       0.00104780       0.00433698
Cl      12.41880573      16.39191100      10.76164592      35.45000000       0.00005079       0.00133956       0.00244981
Cl      11.43335287      17.49224250       7.60618791      35.45000000      -0.00431438       0.00150836       0.00330165
O        6.78373553       5.60213092       6.88224044      15.99900000      -0.00316167       0.00314439       0.00372580
O        4.93463349       4.48536510       7.75606517      15.99900000       0.01092370      -0.00140758      -0.00390325
O        5.33325633       4.20121711       5.26804403      15.99900000      -0.00671006      -0.00389338      -0.00269299
O        6.93923559       3.15978867       6.82033922      15.99900000      -0.00049110       0.00274716       0.00691134
O       10.41569765       2.65899651       9.05376990      15.99900000       0.00252589       0.00190723      -0.00786474
O       11.50603532       0.40188044       8.89907743      15.99900000      -0.00383632      -0.00660408      -0.00360265
O       12.51076922       2.12836416      10.46082134      15.99900000       0.00425518      -0.00579182       0.00004062
O       10.30122280       1.33476269      11.02087998      15.99900000       0.00163594      -0.00130172      -0.00012812
S        6.01029334       4.38937380       6.73355436      32.06000000      -0.00081577       0.00491792       0.00038362
S       11.12112119       1.57617946       9.84323252      32.06000000      -0.00436814      -0.00325124      -0.00206581
Zr       8.43743284       3.03721780       7.93207783      91.22400000       0.00203016       0.00012708       0.00003561
Zr      12.33582660       3.59346061      11.64362723      91.22400000      -0.00116974      -0.00146289      -0.00081202
Zr       4.30347728       2.60331368       5.39659101      91.22400000      -0.00039936       0.00157351       0.00172127
Zr      12.25809676      18.80234363       9.55226045      91.22400000       0.00027965       0.00009859      -0.00056715
Cl       6.55958084      18.84837585      11.60092630      35.45000000      -0.00337215      -0.00396462      -0.00028936
Cl       7.23913145       1.72423966      13.29422544      35.45000000      -0.00152841       0.00228081       0.00370794
Cl       5.75076652      17.33809515      14.58040193      35.45000000      -0.00319590      -0.00147506      -0.00203358
Cl       9.51202264      19.22178192      18.73077161      35.45000000       0.00077968      -0.00476626      -0.00589787
Cl      12.46645312      18.00546135      17.61105812      35.45000000       0.00345466      -0.00097038      -0.00267542
Cl      10.46627252      15.68719410      19.32797906      35.45000000      -0.00039769       0.00322314      -0.00026855
Cl      10.98524539      15.20284634      16.23433141      35.45000000      -0.00201551      -0.00179719      -0.00336838
Cl       4.37090034       0.53223943      14.00035561      35.45000000       0.00032193       0.00058796       0.00165439
Cl       6.93034209       1.23309811      17.76086472      35.45000000      -0.00007133       0.00009748       0.00348612
Cl       9.50746990       2.63284092      19.36623829      35.45000000       0.00340450      -0.00142966       0.00148220
Cl      12.10273803       1.49808620      17.60358798      35.45000000       0.00056828       0.00092930      -0.00212069
Cl       9.31196421       3.38726454      15.99437839      35.45000000       0.00270765      -0.00335491       0.00432646
O        7.40281838      19.17988857      15.52648513      15.99900000      -0.00598907      -0.00045790       0.00220369
O        8.81366545      19.49333163      13.71497606      15.99900000      -0.00299816      -0.00550823      -0.00955482
O        9.83417750       0.13398908      15.94097698      15.99900000      -0.00089471      -0.00138392       0.00209105
O        9.68478478      17.79993153      15.48994201      15.99900000      -0.00032070      -0.00097535       0.00163770
S        9.05238692      19.17302412      15.17367241      32.06000000       0.00024276       0.00338451      -0.00227840
Zr      10.15040672      17.23341223      17.30215771      91.22400000       0.00089228       0.00208208      -0.00192673
Zr       9.35313074       1.40400281      17.24047858      91.22400000       0.00034012      -0.00125116       0.00278815
Zr       6.47642001      19.58610270      13.89163478      91.22400000      -0.00071065      -0.00415728      -0.00009571
Cl       0.41101420      12.66844975      15.32933399      35.45000000       0.00090412       0.00134310      -0.00294196
Cl      17.52929036      13.27504535      17.04302460      35.45000000       0.00142152       0.00460133       0.00239790
Cl      19.36623829      14.34367923      12.63685308      35.45000000      -0.00639259       0.00519946       0.00217990
Cl      18.89592228      10.04473451       9.12361572      35.45000000       0.00388608       0.00127237      -0.00339821
Cl       1.42579745       8.16775067      12.00340535      35.45000000      -0.00376436      -0.00255861       0.00035144
Cl      18.48940531       7.15433526      11.53036375      35.45000000      -0.00040900      -0.00098154       0.00149840
Cl       0.88180668      11.15342450      12.20096028      35.45000000      -0.00017275      -0.00425244      -0.00084751
Cl      16.34698921      15.02144306      14.35367307      35.45000000       0.00239593       0.00179704       0.00019305
Cl      11.80554758      11.36753488      16.70171993      35.45000000       0.00382723      -0.00013457      -0.00317683
Cl      19.13718763      13.73072392       9.49964644      35.45000000       0.00176767      -0.00101431       0.00320584
Cl      16.70828154      12.30544130       7.48619120      35.45000000      -0.00206867      -0.00174637      -0.00181005
Cl      15.12854872      11.52400404      16.09623476      35.45000000       0.00123828       0.00279246       0.00131754
O       17.63750645      11.68097794      11.52874859      15.99900000      -0.00509416      -0.00474149      -0.00007104
O       17.59732921      12.01975890      14.02438120      15.99900000      -0.00124989      -0.00397454       0.00299677
O       15.97590493      10.45183698      13.07092881      15.99900000       0.00508762       0.00191652      -0.00331496
O       18.32829255       9.81911608      12.91092647      15.99900000      -0.00003785      -0.00671732       0.00067705
S       17.37625343      11.03087382      12.85015587      32.06000000      -0.00216406       0.00105628      -0.00571501
Zr      19.49010130       9.42896276      11.44021733      91.22400000       0.00126318      -0.00347033       0.00082874
Zr      17.08421132      12.42970810       9.80306537      91.22400000      -0.00143976       0.00135023      -0.00369637
Zr      18.36836885      13.49137658      14.74706682      91.22400000       0.00056270       0.00032803       0.00232615
Cl       8.44717431      15.50962684       9.50363388      35.45000000       0.00149177      -0.00005095      -0.00193351
Cl      11.33381830      13.82137508       8.65775151      35.45000000      -0.00167811      -0.00216272       0.00117480
Cl       9.68289706      15.62248653      12.65845592      35.45000000       0.00054116      -0.00114896       0.00099622
Cl      15.70879693      14.27998114      10.43083983      35.45000000      -0.00223741      -0.00282345       0.00331862
O        7.93735741      10.89146484      10.61900661      15.99900000      -0.00765552       0.00054400      -0.00092038
O        8.99158603      13.04236057      11.22893349      15.99900000       0.00570126      -0.00011737       0.00199437
O       10.34109720      11.29142020      10.04883300      15.99900000       0.00665411      -0.00013604      -0.00853518
O        8.57477238      12.48321046       8.85133919      15.99900000      -0.00482016      -0.00009312      -0.00030199
S        8.93470192      11.86641913      10.25125361      32.06000000      -0.00160266      -0.00578472      -0.00188859
Zr      10.34180383      14.31813943      10.76376582      91.22400000       0.00098982       0.00136030       0.00395099
Cl       1.44076802       2.02172286      12.77050802      35.45000000      -0.00079084      -0.00232197       0.00471223
Cl      18.81748581       3.81904876      11.06378282      35.45000000      -0.00428925      -0.00141972       0.00207307
Cl      18.97839667       1.63603143      14.86941561      35.45000000      -0.00200570       0.00552823       0.00031553
Cl      17.50163065       4.62903408      13.89799450      35.45000000       0.00272599      -0.00265063       0.00065071
O       19.69118940       6.82047045      14.82176822      15.99900000      -0.00655364      -0.00223059       0.01266210
O        0.39393180       5.29656179      13.06456909      15.99900000      -0.00728909       0.00456571      -0.00204744
O        1.96944197       6.28091432      14.90484830      15.99900000       0.00045361      -0.00304938      -0.00583219
O        0.24199621       4.40034683      15.18497857      15.99900000       0.00175383      -0.00399509      -0.00251156
S        0.58524109       5.76283989      14.57505169      32.06000000      -0.00151116       0.00250963       0.00034849
Zr      19.70824959       3.46968846      13.36216334      91.22400000       0.00084260       0.00195563      -0.00125777
Li       9.90875777       6.11640971      10.08845503       6.94000000       0.00336266       0.01142660      -0.00997269
Li       7.47254306      12.93777860       4.84089332       6.94000000      -0.00414458      -0.00995094       0.00161549
Li      17.84677133      16.12268310      12.89911558       6.94000000      -0.00318387      -0.01079730       0.00213980
Li       4.27719046      10.20693751       9.88450000       6.94000000      -0.00559503       0.00357064      -0.00222599
Li       0.04500053       5.69877838      10.93386294       6.94000000      -0.00820866      -0.01080690      -0.00801181
Li       6.79598051       0.25990840       6.62146187       6.94000000       0.00538497       0.00883560      -0.00771719
Li       7.82175193      15.15741981      19.70027471       6.94000000      -0.00147538      -0.00723221       0.00185894
Li       4.69854676       9.66409048       0.38579642       6.94000000      -0.00179014       0.00410746      -0.00226042
Li       0.48782541      19.99897938      14.27826503       6.94000000       0.00216401      -0.00481178       0.00747394
Li       6.46217627       7.62081525       6.07573783       6.94000000      -0.00044878       0.01032870      -0.00261170
Li      12.41093180       3.07377101      19.31061603       6.94000000       0.00284889       0.00511618      -0.00927858
Li       4.49754951      12.85207388       0.63726052       6.94000000       0.00035216       0.00226267       0.00224483
Li       1.02963773      13.24758754      11.15211218       6.94000000      -0.00265549      -0.00145215       0.00446823
Li       1.16576590       3.42031487      16.69485548       6.94000000      -0.00555496      -0.00600783       0.00535199
Li      14.38032330       1.28556071      11.00917003       6.94000000       0.00039271      -0.00458138      -0.00771948
Li       9.13285244      17.18223167       8.06499586       6.94000000      -0.00698556      -0.00790721       0.00236431
Li      10.84694685      13.24132877      18.09732388       6.94000000       0.00061377       0.02411230      -0.01175780
Li      11.87439401       4.03642985      15.50286333       6.94000000      -0.00544147      -0.01205190       0.00321305
Li       4.06009202      16.50466974      13.28544298       6.94000000      -0.00321012       0.01414370      -0.00962412
Li      17.97285519       7.06653082      13.86347034       6.94000000       0.01446210       0.00371711      -0.00585762
Li       5.31843719      19.33221887       3.65168733       6.94000000      -0.00385430       0.00450653      -0.01102100
Li       8.70269349       0.44757246      11.39721355       6.94000000      -0.00182146       0.00059327       0.00326281
Li      15.06777812       4.95110817      14.05769399       6.94000000      -0.00566879      -0.00624453       0.00003948
Li      12.94302789      11.45970026      10.31838393       6.94000000       0.01188390      -0.00738672       0.00635371
Li      12.64018436      19.70734106      19.16292933       6.94000000       0.00985780      -0.00205493      -0.00779543
Li       9.00191300      14.18832050       7.51787873       6.94000000      -0.01520360      -0.00163008       0.00381419
Li      19.22188287       7.35287948      17.27641601       6.94000000      -0.00951936       0.00018662      -0.00466891
Li       4.76218428      10.01900291       5.87472038       6.94000000       0.00273955      -0.00289211      -0.00773016
Li       6.63603874      18.28165465      17.20878096       6.94000000      -0.00393724      -0.00350447      -0.01137690
Li       2.44527983      10.56853269       2.77954843       6.94000000       0.00369401       0.00788514       0.01565550
Li      17.38493495      11.09618707      17.87241209       6.94000000      -0.01276080       0.00038738       0.00062012
Li      12.18006408       3.62726805       7.69808073       6.94000000       0.00574940       0.00063233      -0.00629907
