LAMMPS data file via write_data, version 10 Sep 2025, timestep = 110149, units = metal

192 atoms
4 atom types

-0.30570712251417653 25.215061122514232 xlo xhi
-0.2677344585936261 22.083033861029186 ylo yhi
-0.11805561514443408 9.737357531081429 zlo zhi
0.4193071433401148 0.019678965628362216 5.844514561894278 xy xz yz

Masses

1 6.939999998214724
2 91.22399997653315
3 15.99899999588435
4 35.44999999088069

Atoms # atomic/kk

44 4 1.6343388594479782 2.889340591835692 0.8199806723178641 0 0 0
48 4 4.862408023296544 3.0669668958492187 3.695778223538246 0 0 0
175 4 11.823607843834646 1.3039596309277635 0.616027984446925 0 1 -1
31 4 11.361981175929248 2.4982120048254823 3.7360981102103348 0 0 0
158 2 11.777804039884547 3.6976724805234413 1.5936762377619642 0 1 0
186 4 14.406919693010153 3.395503579018309 2.0336958777139658 0 1 0
58 1 15.674940292799526 3.30407779560314 0.004228832642029116 0 1 0
168 4 20.472902904936902 1.3549085258428386 2.164164566813059 0 1 0
111 2 18.908821705422405 3.1436736697531824 3.179608232914065 0 0 1
119 4 18.045703251925353 3.2936367487175278 0.7551200302488121 0 0 0
150 1 22.315644121174643 2.2153617756488995 0.966519967610568 0 0 1
116 4 23.895826823325052 3.0853422780234836 2.4312508189428397 0 0 0
134 4 1.12699615241148 3.874935124005967 4.29651796160668 1 0 0
110 2 0.45942206821772746 4.659410557023183 2.045900208964734 1 0 0
142 3 1.8279112525097498 6.0921468609214875 1.9842339948200323 1 0 0
63 2 2.7359568424701437 7.703215613962323 1.4648285881521295 0 0 1
161 4 5.014491485400642 7.016900295651083 1.548035257238695 1 0 1
135 4 7.687424505961867 5.333594545967543 4.412914299083706 1 0 -1
185 4 9.490583596866392 4.11156406734185 1.2298854369742132 0 1 0
141 4 12.221422105098478 5.885346971728439 2.6936510506472295 0 0 1
5 1 14.786144010848057 5.44837858825235 3.248454722525502 0 0 -1
130 4 15.788655325939745 7.33321949473413 1.8983938256803667 0 0 1
125 4 17.50127500076448 4.945606090965329 3.930964362180851 0 0 1
32 4 18.855316967389193 6.656541991225829 0.12637593197173513 -1 0 0
133 4 20.718351267804415 4.753131734115332 2.5649762832673035 0 0 1
22 4 24.32446243926549 6.352682081307428 3.120489071786432 -1 0 0
153 1 22.75125352750863 4.718824026538503 3.793075577863341 0 0 1
75 4 3.055508767639798 9.35560958160243 3.3546901705551857 0 0 1
68 4 0.4851104254245324 8.963770765363536 1.1580632055218367 0 0 1
76 4 7.1279920902770035 11.951858328521025 4.470843906010526 0 0 0
140 4 9.016673189386594 8.631023680906535 0.12776248236814308 0 -1 1
2 1 11.38282377466664 8.533526530693683 3.507521695286422 0 -2 2
183 4 9.16953075413202 9.231025298165319 3.854872775078427 0 1 0
182 4 12.421546329899225 9.696189356549418 1.5868867520085317 0 1 -1
55 1 16.723436495415783 9.003892987110172 3.42461571942201 -1 1 0
118 4 15.867546296399484 11.317663665821197 3.7873117174055424 0 0 0
60 1 13.76460275009751 11.438731132151448 2.6076059430250114 0 1 -1
179 4 19.015214905044893 9.234172044542051 2.6666898376544688 0 1 0
112 2 19.632079847311815 9.188662951541273 0.27313545928556193 0 0 0
137 4 19.959621635677912 11.597358462522445 0.11830644957188677 0 0 0
84 4 24.704418872423254 9.87008863801309 4.252368026346751 -1 0 1
25 4 21.96631655339246 8.375290333295107 0.8615797516130936 -1 0 0
11 1 23.89415161476741 8.57100673626243 2.245787366915785 -1 0 1
120 4 21.842495151634978 11.477513712028056 3.296427906675215 -1 0 1
91 4 3.7195947939544016 13.903272122339311 0.5010385305176897 0 0 1
88 4 4.72289813207189 14.591041521002985 4.072769307815541 0 0 0
57 1 7.1339093881297835 14.267826510629526 4.711366924809863 0 0 0
73 4 8.367279554796578 21.531534004664223 9.452421579865545 0 0 -2
36 4 8.550093546283334 15.264955279318965 3.0214790939780856 0 0 -1
26 4 8.6619993742126 12.081630324707852 1.0746434553209878 0 0 1
50 3 11.475950334253644 15.24551472737972 0.6072637911435073 0 0 0
8 1 9.803239707443733 14.253473590532689 1.0117217428687637 0 0 0
181 4 12.8371632953402 13.72058613345239 2.8330859919119016 0 0 0
87 4 14.217717485647592 12.129311502966043 0.2784117803427233 0 0 0
82 4 15.853121708198552 14.894259656336564 1.4737005641496512 0 0 1
14 2 13.491583102537067 14.776894818168804 0.6516558332899987 0 0 0
101 1 16.744043508468074 13.406989505247031 3.1386552587574728 0 0 0
94 4 18.932810603638202 13.949223200481276 3.7622189022941654 -1 0 1
93 4 21.156024290655033 15.143232616182848 1.2458186148643648 0 0 1
56 1 20.4906856216504 13.072359925764884 2.053512939162808 0 1 -1
66 2 24.10388653528028 12.332647285357853 4.165018664248523 -1 0 1
177 4 24.919143293478626 12.743839438954152 2.0000446433234433 0 0 1
45 4 23.18835189141104 14.578429859942494 4.5111261226470125 -1 0 -1
154 2 4.136698267960132 15.797137724993942 2.0296925164485615 1 0 0
15 2 1.7132626289500719 18.177254833759303 3.823229329508353 0 -1 1
190 3 2.669886666888465 16.82373765956428 2.857554512373148 1 0 0
43 4 0.5907579022339944 19.032608101139243 1.738904434258786 0 -1 1
13 1 0.9859533438691492 23.675350115589644 9.59483033948007 1 -1 0
64 2 7.7382392994238725 17.159190832238323 1.4689656427599809 0 0 0
166 4 8.004886119406262 18.86294767700271 3.506874853748142 0 0 1
97 3 5.86481192080088 16.646502158848843 1.874213812196985 0 0 0
95 4 6.945606565834683 18.98213564891677 0.027880335993596652 0 0 1
65 2 11.418182665110646 17.20914730845022 0.3006424338195058 0 0 0
96 3 9.765071182090656 17.82769783189355 1.3850979503237255 0 0 0
98 3 12.106025198138543 18.843475387351603 1.5837702274322247 0 0 0
62 2 10.496193486348021 19.277334138243482 2.729783722234814 0 0 0
169 4 11.14941856585277 17.602682158865502 4.450127584819569 0 0 1
69 4 14.645548394925381 17.78814514200416 3.512918357354868 0 0 0
191 3 13.513476957900805 16.868468480589378 0.6120989333000355 0 0 0
192 3 16.075235076183773 18.579277924442387 0.5650695757259987 0 0 0
156 2 14.24827871774519 18.738693397960716 1.2936671668614228 0 0 0
103 1 19.916908597164188 16.058775239453762 2.9603893721711283 1 0 -1
188 4 18.597576276891587 18.052588986104425 2.5093079717357902 0 0 0
157 2 17.873518305161205 19.078586835949135 0.026227606418810213 0 0 0
178 4 20.472312041905887 25.55430552682447 9.64670736461677 0 0 -1
144 3 2.80297627415443 19.843600366987168 3.880858736928586 1 -1 0
167 4 0.8615573702161399 22.443479212340563 2.841106164148987 1 0 0
113 2 3.097094240755409 21.601319277551173 3.142488729040501 1 -1 0
51 3 3.2527569830107717 23.006707656106858 4.65232791654915 0 -1 0
20 4 3.729987063399454 21.259076993102166 0.7675916762340511 0 -1 1
145 1 1.4430793001868276 23.87102187865259 4.80864976062923 1 -1 -1
46 4 5.7403362358890595 21.877824053962573 3.5121327439197185 0 -1 0
24 4 9.791841282175568 21.24834905538227 1.4791717505864999 0 -1 0
6 1 11.453928539015799 22.717778538947858 2.7126660702920513 0 -1 -1
79 4 11.383611781643355 21.030214220293647 4.459783165915576 0 0 0
83 4 14.395780529708214 21.156740315730513 2.267819587055361 0 0 0
146 1 15.814830042962667 22.25650772999408 4.041892263068434 0 -1 2
163 4 16.93131300899568 20.22384082714421 4.999317675986109 0 1 -1
127 4 17.76021758124753 21.296349580580735 1.1284401433394533 0 0 0
37 4 20.334047510804695 20.790195854167003 3.7196957758431872 -1 0 0
107 1 20.11859775366107 21.572726678517007 1.308494088865603 0 -1 1
139 4 17.68191741730267 23.746164490394786 3.625704389367235 0 -1 1
80 4 4.112864818113803 6.076829936190502 5.247478447041111 0 0 0
18 2 5.912314646937838 4.510833695325879 5.660857141947667 0 0 0
74 4 6.452345664301033 5.240354597478725 7.833809395031757 0 0 1
7 1 13.732899630812462 -0.10620340742175785 0.030817377743276832 -1 -1 -1
162 4 14.453257283368067 5.2891262626135624 5.664937447797028 0 1 -1
81 4 15.138919989714617 7.147252838133638 8.614576682479688 0 0 -1
109 1 16.46936326500399 5.975145861263917 6.889747445048329 0 0 3
128 4 19.807431129153393 6.246132393439628 7.654822346826513 0 0 0
121 4 22.68044141592769 4.885257398829313 6.309415838550778 0 1 0
155 2 22.208487944040478 7.063680227720482 7.47089419508854 0 1 0
136 4 22.705148604365462 5.963281881416009 9.651325345570449 0 0 0
170 4 21.639826460380064 8.19912272042591 5.362461107555498 0 1 0
147 1 1.447179708372515 10.389652303774476 4.926433064304017 1 1 -1
151 1 0.7396676286064721 9.358230283477894 8.51687964111225 1 1 -1
129 4 2.348392548740397 9.525929548895073 6.846131662704717 1 0 -1
78 4 25.125010414412067 11.257660006452156 9.590242165183607 -1 0 0
106 1 4.011779984461708 8.537813855235038 5.5297740327802 1 0 0
29 4 6.275095416294307 8.894305977358242 6.086733857370173 0 0 0
19 2 8.266535698512499 10.290161839741625 5.9574289821809705 0 0 0
42 4 7.663788569755872 11.606704999629716 7.9532871282307065 0 0 0
47 4 9.569510287633067 8.63889599125836 7.253467955263974 0 0 -1
108 1 11.523640383993708 9.931608991213258 6.9845728776279135 0 0 2
38 4 10.392222623826767 11.794350412715767 5.975371609735139 0 0 0
173 4 12.522647281738493 10.263460556043697 9.187423373890287 0 1 -1
149 1 14.33101412078767 7.635142121218005 6.299320170485525 -1 0 1
132 4 12.867593011316416 9.0816941024323 5.246387189378462 0 0 0
126 4 15.931035989985086 11.144533585304966 8.578285384689119 0 0 0
124 4 16.594086157532516 8.293127228255766 5.699072961126742 0 0 0
102 1 16.66630087422221 10.680270960289066 6.246643305981561 0 0 -1
100 1 21.148656027002062 10.580875851380673 5.461973153887228 0 0 -1
99 1 19.380204951158987 10.433500353447839 8.907129873205317 0 0 -1
34 4 19.10630446057965 11.066532550826272 6.56738064655428 -1 0 -1
160 4 24.52173947304962 7.827258673821829 7.400804018375876 0 1 0
39 4 21.51730317310438 9.13202353196227 8.81747842773688 -1 0 0
86 4 22.942170652110917 11.84272766734802 6.510917919048787 -1 0 0
184 4 0.7362320176129173 12.754971220250356 5.29669281630877 1 0 1
33 4 2.7553270792669156 13.677225151883706 8.872222689327801 0 0 0
1 1 0.32672235187625687 13.65872965878774 8.904007368782262 0 -1 1
85 4 8.466655166129902 15.15842921618421 6.73368629100366 0 0 0
61 1 9.52685092029285 13.149647052561372 7.852510373593953 0 1 2
40 4 12.05836657751178 13.852337051977091 8.136180903213251 0 0 -1
114 2 16.464460816018523 13.66509827533412 9.292920008098264 0 0 0
143 3 14.83237405810571 14.763142679378078 9.259842329720144 0 0 -1
17 2 13.21048632313688 15.774121997006784 9.006788829944105 0 0 -1
35 4 16.702406631030783 13.808177388644017 6.78893524081664 0 0 -2
10 1 18.946760949461684 13.446593272989384 6.15736304035736 0 0 0
52 3 17.76302984863063 15.09868944290832 9.578617653127322 0 0 -1
21 4 20.40132369392439 14.705423711689724 7.634360505065806 0 0 -1
3 1 22.645000342286465 14.201890913092653 6.911643143893004 0 0 -1
138 4 24.50129410307425 15.213665954055147 7.835617315066955 0 0 -1
23 4 2.429817095851493 17.149219183316873 6.003362593242511 0 -1 0
54 1 0.28131788734357843 16.248580914164442 6.301227260455061 1 0 0
89 4 5.898110205686562 16.230944262261954 9.323255054887447 0 0 0
49 4 8.078164468970513 18.397382908350956 7.393949125045885 0 0 0
67 2 8.194224217205779 16.517810316801054 9.024760199316859 0 0 0
105 1 9.849317005878579 17.128885540876205 6.304783844628049 0 -1 -1
27 4 10.9436567210933 17.13044915519571 8.461670196008335 0 0 -1
117 4 14.045251648609703 16.812187007898324 6.932390629788469 0 0 0
12 1 15.704649211725249 17.976700159088146 5.600446854732369 0 1 -1
41 4 21.175130169507305 17.589473657375585 4.782982588038237 -1 0 0
131 4 17.904928177693677 17.084318156757114 5.791218957578617 0 0 0
115 2 19.155485831805933 19.079107172383257 4.957155806448657 0 0 0
70 4 24.855868259054716 17.646115054328533 4.629767781019705 -1 0 1
53 1 23.14608325344922 19.040176970133828 5.564870871748526 0 0 -1
174 4 23.572841660923707 19.307459944910274 7.932724457716827 0 0 0
92 4 25.296720358594435 15.829507169814477 0.05931585118874372 -1 0 0
30 4 3.364772146001541 23.141243744794448 9.716355289606565 0 -1 0
187 4 1.3364110315414675 20.48559358386512 7.013109134338878 1 0 0
148 1 3.209681358485302 21.07038021513824 8.393721652552214 1 0 -1
16 2 5.023385182515432 23.44915183541698 5.351472311039837 0 -1 0
71 4 5.1879197100342695 21.658249366116582 7.008401406754309 0 0 0
77 4 11.19145279934885 23.422854855828152 7.758107911413238 0 0 -1
4 1 12.71340230817205 22.068651369143815 6.3224840642212605 0 -1 0
72 4 13.605889956690163 20.48975319368875 8.063280962047202 0 0 -1
90 4 14.562954107133944 23.327711916840563 5.733554981373817 0 0 -1
176 4 19.82214249083578 19.882563571887193 7.110005631373877 0 0 -1
9 1 20.666246653880457 21.66355999789318 8.964322266002103 -1 -1 0
171 4 18.495928549079935 22.715493937172845 8.985999702140571 0 0 -1
180 4 23.9396818817872 21.289307791227557 5.1557589020620345 0 0 0
159 2 24.5949537740212 21.509520040034342 7.55395013690934 0 0 0
122 4 22.5532680892181 22.81194327487778 7.98527778148323 0 0 -1
189 4 0.32695373144106954 23.763287189020268 7.137841188546862 1 0 0
59 1 4.690998557413242 25.226035700573874 9.405153523730307 -1 0 0
165 4 4.227674040519329 25.29608882243659 6.951372604074804 1 -1 0
28 4 7.3586506433240775 24.48617711436893 6.031423351937568 0 -1 1
152 1 14.86091445007192 25.454594787621666 6.752106579091624 0 -1 1
164 4 13.710892165379265 25.88083548513768 8.934130778393314 0 0 -1
104 1 20.92377927275985 26.30338240076419 7.384913746913032 0 -1 -1
172 4 17.301146340564216 25.88347011043216 7.670567787859065 0 0 -1
123 4 20.375747830910704 25.08883045927916 5.373580444396167 0 -1 1

Velocities

44 -2.211560917491072 0.699427175826316 3.607379820250866
48 0.891302909570046 -6.847834052372664 0.10185770534659774
175 -1.621616829279921 -7.477020290812329 1.3648916123275558
31 1.3639581053935623 -1.334168761955357 -6.496492761879012
158 -1.853571924466488 -1.2794837848655436 -0.18111805782217041
186 -2.1165812742204078 2.052436284167871 0.49786082379354824
58 -1.967550345618604 -8.179718536274168 -5.358474108528009
168 0.5368470608259743 -2.828189674993824 -0.07012936341682556
111 -1.833866435429852 -1.5907715218379117 -0.22344183939569304
119 -0.6905354639651765 1.4994796300106776 -4.705040975489729
150 3.896833607061727 -5.665376293192566 -2.395734949447292
116 -1.6250328792053517 -0.8487625930419284 0.6885796160957943
134 -3.2196412148139224 3.0013200752747515 4.193479823827184
110 1.2281753641613602 -1.3427002828956374 1.306967615940067
142 -2.4977999701904356 -1.0761995698415219 9.781375602593533
63 -1.0592655934815574 0.30159422676357195 1.727511064857952
161 1.3800905151917402 -3.307925522511842 2.662037796967939
135 -1.9291012483672807 -4.412319788913094 2.0956988588814083
185 3.628511089489277 -2.37242161662748 0.49267238212218656
141 0.2185119916973223 0.4537390274167171 -1.6592236944586665
5 -7.13921025093921 7.6036383150429625 4.759787515809579
130 -2.131821314030861 0.7753458582865358 0.293153788450632
125 -3.038048053530736 -1.6684315311403166 0.8346342368120478
32 -2.334101037749655 5.36278306238749 -3.2469805436773953
133 -3.118808277843429 0.29353089608148386 1.8968500675241444
22 3.9925076992349533 -0.024455440203276203 -1.5029073952774243
153 -0.09703577576867055 10.009182637466782 3.5648198253513033
75 -1.6979705737321895 0.45009912405554525 -5.605768880294503
68 0.8875753862376391 -1.6753158894171694 1.4775291458092163
76 1.275356135529558 2.590921464854267 -6.874689883452529
140 2.827488997342642 1.8612365282473005 -0.27288418695906375
2 3.5829214076265345 -2.550297930905992 6.3181978901138285
183 -0.7648240239350826 -1.5596643450367795 0.449188764216146
182 0.8034057024386216 -4.499295731671259 0.32046095545075043
55 8.971317473118114 1.4514873175509055 5.828887900223814
118 -4.01813901893661 4.335553558497476 2.0639002663244135
60 -8.22269833047644 1.2923201762833558 -4.048163116037441
179 1.3138180047074122 -0.07362431892028778 -0.3970176453545384
112 4.321751279202601 2.506672587150974 2.6733987190664434
137 -2.3665536336241266 1.7561753627555685 -1.3345381397141536
84 2.515195066736789 3.2811928255275453 -0.32601478664251554
25 -3.4274214139914023 4.629678239720689 -2.925552904641375
11 0.3269275899180128 -7.5792775371559395 -5.906677670735563
120 -5.693775051080595 3.5520132823297534 -1.5778008736332136
91 -0.470065608005638 -0.29488816521801414 0.9969628081646582
88 0.6559978057373732 2.1333420383797512 -1.8649041094288858
57 5.473886789450606 2.468648337332329 -8.498727926893002
73 3.0070274908164913 2.4854990095300815 3.172672760267282
36 -5.463788926519404 -3.4158262019775525 -0.13395319757897187
26 1.4603696758228102 2.456663477326918 0.92357616292605
50 0.6139408954238293 -5.2101825523203775 -5.733574286110703
8 3.9785090604624367 8.951016463831829 0.8489602784569371
181 -1.5631365813494054 -0.30766105559654905 -2.8587434578292603
87 1.2234577218588853 -1.901470375303498 1.4402123345610824
82 0.04170641545107258 0.9183450812921639 0.8545202706128463
14 0.03830267706015416 -4.1753491780040894 -1.4170813397387545
101 10.948940134050043 13.198343167341251 -11.02254449045503
94 3.112120537968388 1.7757021955605938 -4.678105052622692
93 4.605908190913012 -2.2025911444716786 1.3057651800764258
56 1.1930245190771245 5.798872496660449 6.405382932655245
66 2.884137575158973 -0.6881285330128522 1.5597005219842681
177 0.9064940876216513 2.338182139443672 -1.2102085675505683
45 5.286895291940972 -0.7580681663189823 -0.17783760010176994
154 2.70477099508939 3.386277250687103 0.9678315985727601
15 -0.5993306394477124 0.5007957713668933 -1.25444567735168
190 4.587472906702682 9.135862235234278 -0.3857250109671684
43 -2.2597056627477747 2.5918560619455837 0.48949864968710965
13 3.0427844103330703 0.06674905408279101 0.5995284548463714
64 -1.978079231235921 -1.5739252060512245 -3.1740368757144095
166 -0.28256269472596357 1.4584917947852287 -1.0928116454120258
97 -2.8819255799685948 -4.992697476231499 -4.153434748793475
95 -3.0073669801243077 -2.2224993254933407 -0.5794908805327817
65 0.5353019787130228 1.7017181408256745 -0.810241484513494
96 -3.0789641725109873 0.948317664618825 0.36526109252099465
98 2.3839266278813276 3.8235554634552424 5.780244614212523
62 -1.691626367295062 0.9639192377440774 1.1856170392676402
169 2.174393843234212 -1.5815149904426162 -0.6464291255937792
69 0.1390928228336806 -3.2874099394342235 2.0087562852125744
191 -3.1946835568843452 -0.23424097899014418 2.548507788840875
192 -3.2551549080449687 -2.744639226039552 -2.190246368154449
156 0.19297464608085 -0.6606381156697503 0.07746988545628208
103 -10.170489272276976 -5.9517828446074565 -6.698380121505381
188 1.9895813539319367 -0.338817868357034 1.3739658565463564
157 0.975058281311565 1.0194903991341335 0.5710187815894827
178 -1.2241440523026264 -0.42094159792143737 -0.6806200870895357
144 1.3020212827641453 1.7260245137159775 3.569646510580289
167 2.4445761446449863 3.0256416335583003 2.4146714313796354
113 -2.120450265572242 0.1518077835696436 1.3520507814044593
51 2.66850355208986 -1.2357275230781788 6.512909689473043
20 2.2078987481946597 -2.9241308348652124 -5.523138790138625
145 5.089352910339568 5.644577588461723 -4.590006747454249
46 4.330641306621618 -2.372318255469769 2.3800355311379073
24 -0.3928541537933016 0.11389457625508283 -3.742428752514542
6 6.759417389676504 0.26522173186468617 -6.130402406513038
79 -1.3844104768955403 -2.39358278226355 -0.8145749176358104
83 2.330390204116701 -5.47040526077247 1.1295426843810905
146 3.168177553502546 6.201369051493404 3.3929451741252934
163 -0.3958922125429016 -3.477072171179938 4.849909659510109
127 -1.6403270724007972 2.0513509592364683 0.17389813523972925
37 0.07029392953033702 -3.0590221514009346 2.739601132624029
107 -8.843386597914119 -0.6055546740242896 -2.9063492774029944
139 -0.008987387531105642 -2.6799696527763777 -3.6933649718555923
80 0.9301764108895622 2.2784857165780754 1.3043699984391839
18 0.03148755685349766 0.2041719502934201 -0.30066186322770483
74 4.120453112570111 0.7651926658886846 -0.2669430888411907
7 -11.875962117907845 -0.34810895881324677 -5.300188835715186
162 2.938570967598498 -2.263832190242681 -3.6709831166818154
81 -2.5718919480789024 -0.7347352319909295 -0.40438898720136396
109 -0.5494465372613866 7.0055019082176315 18.842577894110246
128 -1.5448504197906878 0.1965546421130817 1.7707088024125672
121 3.8063550647867066 -1.6290257277470617 1.519694066548588
155 0.942373926162874 1.2312197888478604 0.40715470097448
136 1.3838287716100062 -1.0014043480795636 -4.456783352706188
170 3.4896966286263744 -1.1967196379422782 -0.42191747057796664
147 -1.82147041388447 1.4352907695775523 3.538776356634829
151 6.28798590223504 -1.8501449789045823 9.699220825445813
129 -3.790639849647924 -4.901301913588107 -1.8362395341726179
78 3.778032943582845 -1.5760289158058107 2.2379667464408852
106 6.381139973093539 -0.01689896468701097 -4.239225903515073
29 -1.2178640024181482 -0.6437885496293493 1.6902281661320662
19 1.1053818660909347 -0.18093046438680335 -1.0530006305874728
42 3.86393881550139 2.929226721264898 0.824904928136095
47 3.0666692825401123 2.3487861502140683 0.9478418152955188
108 -4.183035347876848 -1.035644738892476 8.69688344678754
38 2.6393374419784807 2.4219206870342505 -0.0022690154841796114
173 -2.0959346695934427 0.6449927604364881 0.6681455478071965
149 10.338407683451994 6.503249650710672 0.29281683788850255
132 0.26110254777151903 0.6333822440968729 0.32455128506992553
126 -0.1300888507171547 -5.2706065748905635 0.7867099070657139
124 1.6173737540136994 5.74106382196188 2.3013994983236437
102 -3.431538487250276 8.802619654962987 6.499825261511163
100 1.925193251615643 -2.7276877961495973 0.9752998001157361
99 -11.252142256872402 2.8438392384135955 6.028986213661997
34 1.691113838647417 -1.6352253313006595 3.1238272437966548
160 -0.6316018942565703 -1.1641700388446576 -4.891183478227771
39 -1.8949267577579116 1.6089986381627734 -1.1438941889831122
86 -4.607830488296071 -0.6830376740387315 5.7348574740061915
184 -1.0344481886587382 0.2686726403341718 2.099612366380277
33 -1.8520441356269133 1.2988802739063314 0.14399550547181283
1 1.4915131237562558 5.283075413788894 9.509617827521666
85 -1.9908323770095517 -3.045641202301907 -0.6385479067195893
61 3.6528978889770287 10.334763479600834 -0.4430520078794881
40 -2.4626023195107147 1.2681359965129206 -2.1822522975702348
114 1.5475043524503702 0.1601789411622003 0.11370580173534024
143 -6.378141447462298 -2.9259483667073924 2.0730135631448934
17 -0.01308017955507842 1.393451076079853 1.716895221424723
35 0.1409377282013202 5.8823698958213235 -6.41899689961163
10 10.706210562808097 -9.0288025726567 -11.0470552807525
52 -4.688861185345894 -1.5734189642439023 1.389179022922743
21 -2.1183475814699375 -2.439438006792285 0.42866397194988903
3 4.7191177790819046 3.979633802626948 -1.4451094116611694
138 -0.6423030676672394 1.8216095526839715 0.8949902793132374
23 -2.0458320221908495 -0.7059762949226321 -0.3435343096572243
54 1.770310958128503 -3.910142447406811 3.897582204074594
89 -2.8328615236337864 -2.0097443028560105 -0.4733822774877382
49 5.035683850161875 1.4513947091486568 -2.0759081377455146
67 -0.6917248726249898 0.2775948897376281 -1.7978918890639528
105 -1.297337497003143 0.9760947487151139 -4.591772826905923
27 -3.4913689022344387 -3.6897296616675805 -0.5497381423370055
117 5.091864688377422 1.2382913662013815 1.1391186999105791
12 -0.14357893773239244 -1.3194613055337256 6.62913340715237
41 -1.1864054508528046 -1.7622254812548053 1.58623599439075
131 0.6051184596782395 1.3860934983839566 3.270577182565483
115 -0.2639368498622579 -1.113174470143937 1.4098169932241444
70 -1.3445993409603714 2.0598633112276064 -1.7197795477856352
53 -7.022366857660761 -0.9675731707728928 2.619219578405863
174 1.6496685440798537 0.4972616755391415 -0.715535473299898
92 1.6984041316217628 -2.183443555015715 -1.9676118022253073
30 0.5511140090276146 0.9843973692049618 -2.4927617686035957
187 -3.9764784602671877 -0.66691803429246 0.1309395982483875
148 -1.4818307981502943 9.600477400406827 4.997451648339728
16 -2.2949207433365024 -2.2830914870208643 -1.7953907228496515
71 -1.793963623490831 -2.235999570587752 -1.7703255775502533
77 -4.308557044882418 -4.239107857663573 -4.832137047968262
4 3.671194890732482 -4.766497418041935 0.835998077422762
72 -4.55675202493318 -1.2446878110174768 -0.6007285509834831
90 -2.0125727654741703 2.492618008445425 -3.9832225343952135
176 2.6815768660991637 4.744713344518856 0.747103628514146
9 -6.11369560160199 -0.30559677278923875 7.406536956964072
171 1.9843141304486926 -3.1364855007913097 -1.4163836736922446
180 0.09826558601871059 2.438485167739459 -3.3147097039435325
159 0.0015482293756590281 2.798544744017545 -0.36242938495708305
122 -3.577114125426459 3.1701069309840704 -2.167893224683733
189 -0.3861453000245904 2.5491119828559436 4.209793432681481
59 -3.453496567644877 9.944518673314654 2.3557134735411314
165 3.9880377369307287 -1.173559189229623 -4.440452666805768
28 1.7110721643821953 -5.409327864554669 0.8386120396729714
152 2.683685298531729 8.23249265376957 4.48895079400193
164 2.272299886677916 2.19388023046498 2.76648249582883
104 -0.11422851933247467 10.583090619783814 6.779111810791156
172 -0.250936898069743 0.8672742380445312 2.994137716257368
123 -1.2744961903447847 0.17746568741349192 4.316680209714729
