LAMMPS (10 Sep 2025)
KOKKOS mode with Kokkos version 4.6.2 is enabled
  using double precision
  using view layout = legacy
  will use up to 1 GPU(s) per node
  using 1 OpenMP thread(s) per MPI task
package kokkos
package kokkos newton on neigh half
# Candidate 3: additional equilibration, not transport production.
# Atomic velocities retained from finite-temperature endpoint; thermostat reset.
units metal
atom_style atomic
boundary p p p
atom_modify map yes
read_data input.data
Reading data file ...
  triclinic box = (-0.30570712 -0.26773446 -0.11805562) to (25.215061 22.083034 9.7373575) with tilt (0.41930714 0.019678966 5.8445146)
WARNING: Triclinic box skew is large. LAMMPS will run inefficiently. (src/domain.cpp:221)
  1 by 1 by 1 MPI processor grid
  reading atoms ...
  192 atoms
  reading velocities ...
  192 velocities
  read_data CPU = 0.024 seconds
pair_style mliap unified ${model} 0
pair_style mliap unified /gs/fs/tgj-26ICP/uf03782/yang/li-research/models/mace/mace-mpa-0-medium.model-mliap_lammps.pt 0
pair_coeff * * Li Zr O Cl
neighbor 2.0 bin
neigh_modify delay 0 every 1 check yes
reset_timestep 0
timestep 0.0005
thermo 100
thermo_style custom step time atoms temp pe ke etotal press vol density lx ly lz fmax
thermo_modify flush yes lost error
dump traj all custom 100 equilibration.lammpstrj id type element x y z xu yu zu ix iy iz
dump_modify traj element Li Zr O Cl sort id
restart 20000 checkpoint.a.restart checkpoint.b.restart
fix equilibrate all npt temp 300 300 0.1 iso 1 1 1.0
run 100000
Neighbor list info ...
  update: every = 1 steps, delay = 0 steps, check = yes
  max neighbors/atom: 2000, page size: 100000
  master list distance cutoff = 8
  ghost atom cutoff = 8
  binsize = 8, bins = 4 4 2
  1 neighbor lists, perpetual/occasional/extra = 1 0 0
  (1) pair mliap/kk, perpetual
      attributes: full, newton on, kokkos_device
      pair build: full/bin/kk/device
      stencil: full/bin/3d
      bin: kk/device
Per MPI rank memory allocation (min/avg/max) = 41.26 | 41.26 | 41.26 Mbytes
   Step          Time         Atoms         Temp          PotEng         KinEng         TotEng         Press          Volume        Density           Lx             Ly             Lz            Fmax     
         0   0                    192   291.50589     -912.76933      7.1968978     -905.57243      288.50328      5621.6142      1.9832555      25.520768      22.350768      9.8554131      1.5200367    
       100   0.05                 192   300.65164     -912.85512      7.4226944     -905.43242     -136.99065      5623.8683      1.9824606      25.524179      22.353755      9.8567302      1.8090682    
       200   0.1                  192   279.14631     -912.09233      6.891756      -905.20057      1493.0276      5643.1958      1.9756708      25.553385      22.379334      9.8680088      1.7915701    
       300   0.15                 192   299.88049     -912.15813      7.4036558     -904.75448      823.24769      5706.1398      1.9538774      25.648041      22.462232      9.9045624      2.0052384    
       400   0.2                  192   303.79        -911.66672      7.5001763     -904.16655     -3531.8361      5775.8712      1.9302884      25.752095      22.553361      9.9447451      2.0291503    
       500   0.25                 192   328.35023     -912.04293      8.1065363     -903.9364       1054.2116      5763.0007      1.9345993      25.732953      22.536597      9.9373529      1.4712143    
       600   0.3                  192   312.56455     -911.72098      7.7168086     -904.00417     -493.45093      5752.1696      1.9382421      25.716822      22.522469      9.9311235      1.4525664    
       700   0.35                 192   303.77367     -911.5901       7.4997732     -904.09032      1993.1195      5740.3789      1.9422233      25.699238      22.50707       9.9243333      1.5474374    
       800   0.4                  192   275.9822      -910.99958      6.8136383     -904.18594      101.58719      5765.8333      1.9336489      25.737168      22.540289      9.9389808      2.0224169    
       900   0.45                 192   319.25824     -912.01458      7.882067      -904.13251     -1204.9113      5792.6705      1.9246904      25.777038      22.575206      9.9543773      1.6266227    
      1000   0.5                  192   310.31389     -911.94086      7.6612428     -904.27962      250.47337      5788.4585      1.9260909      25.770788      22.569733      9.951964       1.888561     
      1100   0.55                 192   287.47521     -911.87808      7.0973856     -904.7807      -153.55359      5790.7028      1.9253444      25.774119      22.572649      9.9532501      1.3896048    
      1200   0.6                  192   285.91749     -912.43737      7.0589275     -905.37844      480.71808      5790.2283      1.9255022      25.773415      22.572033      9.9529782      1.3842283    
      1300   0.65                 192   279.09413     -912.52295      6.8904678     -905.63248     -1590.781       5802.5701      1.9214068      25.791714      22.588059      9.9600447      1.2363441    
      1400   0.7                  192   274.13012     -912.30457      6.7679129     -905.53666     -946.64499      5784.2219      1.9275017      25.7645        22.564225      9.9495355      1.9567561    
      1500   0.75                 192   294.30997     -912.57713      7.266127      -905.311        1825.2473      5735.1731      1.9439862      25.691467      22.500264      9.9213324      1.5716984    
      1600   0.8                  192   292.27602     -912.37785      7.2159115     -905.16194     -718.1839       5721.3588      1.94868        25.670823      22.482184      9.9133602      1.1263048    
      1700   0.85                 192   300.27961     -912.37567      7.4135094     -904.96216      1929.8282      5710.0674      1.9525334      25.653924      22.467385      9.9068343      1.3908324    
      1800   0.9                  192   315.91805     -912.50045      7.7996021     -904.70085     -3022.1253      5733.4452      1.9445721      25.688887      22.498005      9.9203359      1.8472319    
      1900   0.95                 192   314.16597     -912.31291      7.7563454     -904.55657      3649.8912      5727.3873      1.9466289      25.679836      22.490078      9.9168408      1.5160362    
      2000   1                    192   307.15195     -912.14015      7.5831786     -904.55697     -1654.4935      5767.5408      1.9330765      25.739708      22.542513      9.9399618      1.501223     
      2100   1.05                 192   294.24061     -912.03243      7.2644145     -904.76801      1028.2391      5798.1889      1.9228586      25.785221      22.582372      9.9575373      1.9605332    
      2200   1.1                  192   265.55449     -911.73971      6.5561918     -905.18352     -1343.6892      5841.4666      1.9086127      25.849215      22.638418      9.9822503      1.7736912    
      2300   1.15                 192   268.02534     -912.22018      6.6171939     -905.60299     -715.40236      5849.6065      1.9059568      25.861217      22.648929      9.9868848      1.4542023    
      2400   1.2                  192   274.02277     -912.52615      6.7652627     -905.76089     -683.49208      5814.6642      1.9174104      25.80962       22.603741      9.9669597      1.586039     
      2500   1.25                 192   283.92239     -912.55556      7.0096713     -905.54589      2427.1894      5769.893       1.9322884      25.743207      22.545578      9.9413129      1.2746095    
      2600   1.3                  192   298.03864     -912.5455       7.358183      -905.18732      1747.0032      5766.7266      1.9333494      25.738497      22.541453      9.939494       1.4518821    
      2700   1.35                 192   288.83738     -911.85332      7.1310158     -904.7223       45.959813      5790.8356      1.9253003      25.774316      22.572822      9.9533261      1.6576549    
      2800   1.4                  192   319.95358     -912.20011      7.899234      -904.30088      199.40719      5848.9027      1.9061862      25.860179      22.64802       9.9864842      2.2959036    
      2900   1.45                 192   309.79247     -911.75146      7.6483696     -904.10309     -1281.5329      5916.3256      1.8844631      25.959167      22.734713      10.024711      1.8504551    
      3000   1.5                  192   268.92574     -910.70632      6.6394235     -904.0669      -569.45997      5939.2723      1.8771824      25.992685      22.764067      10.037654      1.5839069    
      3100   1.55                 192   299.14133     -911.39798      7.3854069     -904.01257     -509.65306      5942.3378      1.876214       25.997156      22.767983      10.039381      2.0549097    
      3200   1.6                  192   285.4896      -911.15333      7.0483636     -904.10497      1660.4292      5927.6975      1.8808479      25.975789      22.74927       10.031129      1.7694768    
      3300   1.65                 192   286.95196     -911.27447      7.0844674     -904.19        -1676.2127      5934.8871      1.8785694      25.986286      22.758463      10.035183      2.0581913    
      3400   1.7                  192   290.76603     -911.27719      7.1786318     -904.09856      1696.5289      5927.9738      1.8807602      25.976192      22.749623      10.031285      1.3225905    
      3500   1.75                 192   311.16378     -911.29656      7.6822255     -903.61434     -2612.719       5954.7976      1.8722882      26.015314      22.783885      10.046393      1.897348     
      3600   1.8                  192   346.97037     -911.4802       8.5662431     -902.91396     -1397.0842      5928.1064      1.8807182      25.976386      22.749793      10.03136       1.7786454    
      3700   1.85                 192   338.805       -910.99986      8.3646508     -902.6352       2741.8149      5861.1694      1.9021968      25.878245      22.663842      9.9934608      2.2990204    
      3800   1.9                  192   319.35555     -910.86864      7.8844693     -902.98417     -1794.6574      5844.8025      1.9075234      25.854135      22.642727      9.9841501      1.8600623    
      3900   1.95                 192   327.11252     -911.58938      8.0759789     -903.5134       3746.9094      5817.0386      1.9166277      25.813133      22.606817      9.9683162      1.5571939    
      4000   2                    192   305.44347     -911.5082       7.5409985     -903.96721     -2143.7879      5852.4637      1.9050263      25.865426      22.652616      9.9885106      1.7063421    
      4100   2.05                 192   287.96504     -911.40433      7.1094789     -904.29485      2215.6846      5848.4767      1.906325       25.859551      22.64747       9.9862418      1.841766     
      4200   2.1                  192   295.87693     -911.80529      7.3048132     -904.50048     -1405.0897      5855.7683      1.9039513      25.870294      22.656878      9.9903902      1.968953     
      4300   2.15                 192   291.48049     -911.77764      7.1962708     -904.58137      2505.8245      5842.6254      1.9082342      25.850925      22.639915      9.9829104      1.5954078    
      4400   2.2                  192   301.09941     -912.01547      7.4337493     -904.58172     -3759.6171      5861.6411      1.9020437      25.878939      22.66445       9.9937289      1.5792547    
      4500   2.25                 192   287.06369     -911.75107      7.0872257     -904.66384      2937.2606      5821.7413      1.9150795      25.820087      22.612908      9.9710017      2.1097294    
      4600   2.3                  192   310.96913     -912.31783      7.6774197     -904.64041     -2761.7353      5811.0911      1.9185893      25.804332      22.59911       9.9649177      1.7507021    
      4700   2.35                 192   314.2902      -912.31785      7.7594125     -904.55844      260.96256      5760.8743      1.9353134      25.729787      22.533825      9.9361305      1.5100574    
      4800   2.4                  192   307.19451     -911.99079      7.5842292     -904.40656      950.29961      5708.3028      1.953137       25.651281      22.46507       9.9058137      1.5766462    
      4900   2.45                 192   317.93171     -912.03399      7.8493166     -904.18468      2293.9536      5678.373       1.9634317      25.606371      22.425738      9.8884707      1.9460479    
      5000   2.5                  192   335.91562     -912.44697      8.2933158     -904.15365     -302.29393      5707.2134      1.9535098      25.64965       22.463641      9.9051835      2.4800891    
      5100   2.55                 192   292.97046     -911.59307      7.2330561     -904.36001     -3097.9929      5737.231       1.9432889      25.69454       22.502955      9.9225189      1.3542296    
      5200   2.6                  192   301.41926     -912.05538      7.441646      -904.61374      2340.2499      5715.3273      1.9507365      25.661799      22.474281      9.9098753      1.6781609    
      5300   2.65                 192   286.37586     -912.02773      7.0702442     -904.95748     -623.04238      5736.2323      1.9436272      25.693049      22.50165       9.9219431      1.4775742    
      5400   2.7                  192   320.11208     -913.20487      7.9031473     -905.30173      388.69742      5763.355       1.9344804      25.73348       22.537059      9.9375566      1.4138329    
      5500   2.75                 192   277.5444      -912.4844       6.8522071     -905.63219     -3177.8033      5792.9431      1.9245998      25.777442      22.57556       9.9545335      1.4822293    
      5600   2.8                  192   277.85538     -912.59166      6.8598846     -905.73177     -205.97966      5752.6067      1.9380948      25.717473      22.52304       9.9313751      1.523116     
      5700   2.85                 192   274.74182     -912.18362      6.783015      -905.40061      1168.8169      5700.9833      1.9556446      25.640313      22.455464      9.901578       1.6246064    
      5800   2.9                  192   316.97259     -912.46909      7.8256372     -904.64345      972.73208      5678.7106      1.9633149      25.606879      22.426183      9.8886666      1.4117536    
      5900   2.95                 192   309.32418     -911.88896      7.6368082     -904.25216      1216.7983      5693.9747      1.9580518      25.629801      22.446258      9.8975188      1.4666584    
      6000   3                    192   310.09703     -911.83412      7.6558888     -904.17823      161.17759      5748.2907      1.93955        25.71104       22.517406      9.9288907      2.0735101    
      6100   3.05                 192   309.69201     -911.93012      7.6458894     -904.28423     -2331.7576      5789.6178      1.9257053      25.772509      22.57124       9.9526284      1.5621328    
      6200   3.1                  192   287.98114     -911.60617      7.1098765     -904.4963       213.13418      5771.0854      1.9318892      25.74498       22.547131      9.9419977      1.849281     
      6300   3.15                 192   284.84755     -911.72887      7.0325122     -904.69636     -572.82895      5736.4408      1.9435566      25.69336       22.501922      9.9220634      1.7126016    
      6400   3.2                  192   310.22116     -912.56358      7.6589532     -904.90463      1560.8408      5694.478       1.9578787      25.630557      22.44692       9.8978104      1.9695948    
      6500   3.25                 192   282.62303     -912.15705      6.9775918     -905.17946      1440.1528      5691.8331      1.9587885      25.626588      22.443444      9.8962777      1.9836351    
      6600   3.3                  192   285.47809     -912.45754      7.0480794     -905.40946      1694.0805      5755.6733      1.9370622      25.722042      22.527041      9.9331395      1.9224807    
      6700   3.35                 192   308.81912     -913.10065      7.6243388     -905.47631     -405.85781      5866.242       1.9005519      25.885708      22.670378      9.9963429      1.5593764    
      6800   3.4                  192   285.60239     -912.57552      7.0511481     -905.52437     -2427.1424      5976.5051      1.8654878      26.046887      22.811537      10.058586      1.5829624    
      6900   3.45                 192   273.14714     -912.1162       6.7436445     -905.37255     -1367.1287      6030.929       1.8486534      26.125712      22.880571      10.089026      2.2657702    
      7000   3.5                  192   294.6929      -912.33537      7.2755811     -905.05979     -2214.6972      6027.861       1.8495943      26.121281      22.87669       10.087315      1.2829478    
      7100   3.55                 192   306.17857     -912.14379      7.559147      -904.58464      128.20189      5976.9004      1.8653644      26.047461      22.81204       10.058807      1.5354261    
      7200   3.6                  192   318.78192     -912.06913      7.8703073     -904.19882     -988.93846      5921.9599      1.8826702      25.967405      22.741927      10.027892      2.0551311    
      7300   3.65                 192   298.51328     -911.38811      7.3699013     -904.01821      2060.6728      5855.3954      1.9040725      25.869745      22.656397      9.9901781      1.723323     
      7400   3.7                  192   317.4042      -911.76609      7.8362932     -903.92979      111.56358      5835.0482      1.9107121      25.839744      22.630124      9.9785929      1.8948324    
      7500   3.75                 192   300.93852     -911.42013      7.429777      -903.99035      1472.3214      5829.6914      1.9124679      25.831835      22.623196      9.9755384      1.8410134    
      7600   3.8                  192   305.97593     -911.67408      7.5541443     -904.11994     -1433.6228      5855.2153      1.9041311      25.869479      22.656165      9.9900757      1.3426093    
      7700   3.85                 192   296.61368     -911.7109       7.3230025     -904.3879       92.163248      5858.1494      1.9031774      25.8738        22.659949      9.9917442      1.717065     
      7800   3.9                  192   293.07062     -912.1256       7.2355289     -904.89007      966.15992      5852.8595      1.9048975      25.866009      22.653126      9.9887357      1.7237324    
      7900   3.95                 192   267.44469     -911.88816      6.6028584     -905.2853      -897.63256      5872.9367      1.8983854      25.895552      22.678999      10.000144      1.6326993    
      8000   4                    192   285.52333     -912.40752      7.0491964     -905.35833     -37.995652      5874.4686      1.8978904      25.897803      22.680971      10.001014      1.4933955    
      8100   4.05                 192   266.51812     -911.86671      6.5799827     -905.28673     -1733.2826      5861.0563      1.9022335      25.878079      22.663696      9.9933965      1.5369162    
      8200   4.1                  192   296.83988     -912.25158      7.3285872     -904.92299      159.71872      5810.2516      1.9188665      25.80309       22.598022      9.9644379      1.5104579    
      8300   4.15                 192   293.73903     -911.57089      7.2520312     -904.31886      1108.545       5768.5867      1.932726       25.741264      22.543876      9.9405626      1.5947606    
      8400   4.2                  192   317.26856     -911.78613      7.8329443     -903.95318      2437.2002      5770.8883      1.9319551      25.744687      22.546874      9.9418845      1.6822182    
      8500   4.25                 192   310.18741     -911.64037      7.6581201     -903.98225     -1126.1004      5832.5468      1.9115316      25.836051      22.626889      9.9771668      1.3866757    
      8600   4.3                  192   307.35885     -911.64627      7.5882867     -904.05798      986.41709      5878.3697      1.8966309      25.903535      22.68599       10.003227      1.5701842    
      8700   4.35                 192   298.59515     -911.60716      7.3719225     -904.23523     -1488.0946      5932.4517      1.8793406      25.982731      22.75535       10.03381       2.1819113    
      8800   4.4                  192   299.12737     -911.7069       7.3850621     -904.32184     -1424.7398      5946.3901      1.8749354      26.003064      22.773157      10.041663      1.8280387    
      8900   4.45                 192   286.66674     -911.4234       7.0774255     -904.34598      872.55685      5909.6841      1.886581       25.94945       22.726202      10.020958      1.6657766    
      9000   4.5                  192   313.30076     -911.94253      7.7349845     -904.20754      313.85841      5890.8894      1.8926         25.921911      22.702084      10.010324      1.9807222    
      9100   4.55                 192   316.40062     -912.03263      7.811516      -904.22112      2226.0518      5884.6633      1.8946024      25.912776      22.694084      10.006796      1.5864397    
      9200   4.6                  192   287.52789     -911.7397       7.0986864     -904.64101     -578.37465      5931.3943      1.8796756      25.981188      22.753998      10.033214      2.030313     
      9300   4.65                 192   256.8913      -911.39887      6.3423091     -905.05657     -1640.5718      5966.2387      1.8686978      26.031964      22.798467      10.052823      2.5645301    
      9400   4.7                  192   273.92608     -911.97252      6.7628755     -905.20965     -1589.7069      5950.3385      1.8736913      26.008818      22.778196      10.043885      1.733712     
      9500   4.75                 192   292.35459     -912.40999      7.2178512     -905.19214      1245.2056      5889.7877      1.892954       25.920295      22.700669      10.009699      1.8750136    
      9600   4.8                  192   291.83198     -912.19007      7.2049487     -904.98513      356.29544      5846.9935      1.9068086      25.857365      22.645556      9.9853976      1.4962905    
      9700   4.85                 192   307.87811     -912.27062      7.6011066     -904.66951      16.753788      5826.7447      1.913435       25.827482      22.619384      9.9738574      1.6681777    
      9800   4.9                  192   321.18278     -912.12855      7.9295814     -904.19896      557.77008      5829.3198      1.9125898      25.831286      22.622716      9.9753265      1.3547695    
      9900   4.95                 192   319.54583     -911.6688       7.8891672     -903.77964     -1008.3249      5848.4644      1.906329       25.859533      22.647454      9.9862348      1.5993286    
     10000   5                    192   298.42609     -911.00719      7.3677486     -903.63944     -603.45271      5853.4695      1.904699       25.866908      22.653913      9.9890827      1.7514445    
     10100   5.05                 192   307.77456     -911.15702      7.5985499     -903.55847      827.82138      5849.6764      1.905934       25.861319      22.649019      9.9869246      1.4627225    
     10200   5.1                  192   294.68723     -910.75996      7.2754411     -903.48452      337.59693      5849.2514      1.9060725      25.860693      22.64847       9.9866827      1.9345046    
     10300   5.15                 192   302.29925     -910.91737      7.4633717     -903.454       -558.79856      5856.9497      1.9035672      25.872033      22.658402      9.991062       1.7808004    
     10400   5.2                  192   307.53991     -911.11263      7.5927568     -903.51987      486.88373      5855.6119      1.9040021      25.870063      22.656677      9.9903013      1.6751029    
     10500   5.25                 192   314.82806     -911.50643      7.7726917     -903.73374      176.57666      5881.8543      1.8955073      25.908652      22.690472      10.005203      1.5093821    
     10600   5.3                  192   314.24348     -911.88077      7.7582592     -904.12251     -577.34571      5906.0253      1.8877497      25.944093      22.721511      10.01889       1.9278824    
     10700   5.35                 192   301.90592     -912.14053      7.4536609     -904.68687     -2546.2232      5893.1779      1.8918651      25.925268      22.705024      10.01162       1.9322724    
     10800   5.4                  192   290.94665     -912.32296      7.1830909     -905.13987     -411.12752      5814.2914      1.9175333      25.809068      22.603258      9.9667467      1.3421122    
     10900   5.45                 192   304.84845     -912.6814       7.5263081     -905.15509      2498.9136      5720.6695      1.9489148      25.669792      22.481281      9.912962       1.549151     
     11000   5.5                  192   295.93495     -912.52531      7.3062455     -905.21906      2387.9595      5699.1138      1.9562862      25.63751       22.453009      9.9004955      1.6784099    
     11100   5.55                 192   282.70581     -912.3219       6.9796355     -905.34227      898.64639      5748.8412      1.9393643      25.71186       22.518124      9.9292076      1.4616212    
     11200   5.6                  192   301.10758     -912.6141       7.4339511     -905.18015     -1770.3851      5816.5164      1.9167998      25.81236       22.606141      9.9680179      1.5668878    
     11300   5.65                 192   291.52533     -911.90581      7.1973778     -904.70843      896.10757      5848.4727      1.9063263      25.859546      22.647465      9.9862395      2.173716     
     11400   5.7                  192   288.57973     -911.18674      7.1246548     -904.06208     -1958.7138      5891.3813      1.892442       25.922633      22.702716      10.010602      2.031896     
     11500   5.75                 192   307.28839     -911.26275      7.5865471     -903.6762      -1940.2008      5882.9531      1.8951532      25.910265      22.691885      10.005826      1.720295     
     11600   5.8                  192   329.17586     -911.70309      8.1269199     -903.57617      1221.402       5835.4489      1.9105809      25.840336      22.630642      9.9788213      1.5329335    
     11700   5.85                 192   335.32187     -912.00947      8.278657      -903.73082      980.14574      5818.9184      1.9160085      25.815913      22.609252      9.9693899      1.6850036    
     11800   5.9                  192   294.15287     -911.51638      7.2622483     -904.25413     -387.13668      5846.6128      1.9069328      25.856804      22.645064      9.9851808      2.0640484    
     11900   5.95                 192   293.11017     -911.86198      7.2365054     -904.62548     -1434.6219      5869.888       1.8993714      25.89107       22.675074      9.9984135      1.6587022    
     12000   6                    192   297.90227     -912.20005      7.3548162     -904.84523     -1021.6997      5838.3622      1.9096276      25.844635      22.634407      9.9804817      1.6062938    
     12100   6.05                 192   299.7043      -912.30915      7.3993059     -904.90985      7.8312176      5786.8308      1.9266327      25.768373      22.567617      9.9510311      1.7433228    
     12200   6.1                  192   305.7918      -912.39884      7.5495982     -904.84924      541.52733      5750.004       1.9389721      25.713594      22.519643      9.9298771      1.8432646    
     12300   6.15                 192   324.44657     -912.80916      8.01016       -904.799        1041.1786      5749.8084      1.9390381      25.713302      22.519387      9.9297645      2.1076482    
     12400   6.2                  192   306.77019     -912.48335      7.5737534     -904.9096      -553.97344      5774.1836      1.9308526      25.749587      22.551165      9.9437765      1.8769916    
     12500   6.25                 192   301.30455     -912.59093      7.438814      -905.15211     -1172.1856      5791.6651      1.9250245      25.775546      22.5739        9.9538014      2.586668     
     12600   6.3                  192   299.83798     -912.99355      7.4026063     -905.59094     -434.27175      5770.6661      1.9320295      25.744357      22.546584      9.9417569      1.603172     
     12700   6.35                 192   281.65431     -912.9811       6.9536752     -906.02742      607.67277      5725.1306      1.9473962      25.676463      22.487124      9.9155381      1.745429     
     12800   6.4                  192   263.62281     -912.72408      6.5085013     -906.21558      725.69619      5697.5903      1.9568093      25.635225      22.451008      9.8996132      1.7457155    
     12900   6.45                 192   288.38505     -913.16298      7.1198485     -906.04313      2882.5545      5697.0083      1.9570092      25.634352      22.450244      9.8992762      1.8461768    
     13000   6.5                  192   281.08492     -912.54081      6.9396177     -905.6012      -2441.5843      5745.297       1.9405607      25.706575      22.513496      9.9271667      1.6010763    
     13100   6.55                 192   274.6164      -911.81678      6.7799186     -905.03687      2185.8364      5759.0195      1.9359367      25.727026      22.531406      9.9350641      1.7281572    
     13200   6.6                  192   299.50138     -912.09813      7.394296      -904.70384     -493.33368      5805.8881      1.9203087      25.796629      22.592363      9.9619428      1.5963027    
     13300   6.65                 192   297.32851     -911.92698      7.3406506     -904.58633      1300.6312      5854.4376      1.904384       25.868334      22.655162      9.9896334      1.6204917    
     13400   6.7                  192   302.70798     -912.06119      7.4734628     -904.58773     -2048.392       5912.6635      1.8856303      25.95381       22.730021      10.022642      1.5441945    
     13500   6.75                 192   310.55237     -912.31977      7.6671304     -904.65264     -2470.6755      5917.4241      1.8841133      25.960774      22.73612       10.025331      1.962303     
     13600   6.8                  192   305.40021     -912.33895      7.5399305     -904.79902      1699.3222      5877.4865      1.8969159      25.902237      22.684854      10.002726      1.6865706    
     13700   6.85                 192   299.06227     -912.37484      7.383455      -904.99138     -32.211847      5873.3878      1.8982396      25.896215      22.67958       10.0004        1.1639247    
     13800   6.9                  192   292.76573     -912.40771      7.2280018     -905.17971      1710.7319      5885.5896      1.8943042      25.914135      22.695274      10.007321      1.3762856    
     13900   6.95                 192   286.4738      -912.41147      7.0726623     -905.33881     -3714.1282      5932.3202      1.8793823      25.982539      22.755182      10.033736      1.5198843    
     14000   7                    192   280.4609      -912.33287      6.9242117     -905.40866      1199.7738      5917.2383      1.8841725      25.960502      22.735882      10.025226      1.6970784    
     14100   7.05                 192   273.47153     -911.98853      6.7516531     -905.23688     -786.96694      5904.1389      1.8883528      25.941331      22.719092      10.017823      1.4115648    
     14200   7.1                  192   325.81046     -912.68065      8.0438327     -904.63682     -436.44057      5878.1382      1.8967056      25.903195      22.685693      10.003096      1.8818375    
     14300   7.15                 192   309.73331     -911.83832      7.646909      -904.19141     -1407.8819      5856.177       1.9038184      25.870896      22.657405      9.9906226      2.0183907    
     14400   7.2                  192   298.3455      -911.35664      7.365759      -903.99088      3113.2273      5801.1307      1.9218835      25.789581      22.586191      9.9592211      1.923302     
     14500   7.25                 192   308.01731     -911.34159      7.6045432     -903.73704     -1480.9124      5787.6777      1.9263508      25.76963       22.568718      9.9515166      1.742871     
     14600   7.3                  192   308.66651     -911.27147      7.6205712     -903.6509       634.83696      5773.0593      1.9312286      25.747915      22.549701      9.943131       2.0973527    
     14700   7.35                 192   311.54523     -911.39896      7.6916429     -903.70731     -1301.1914      5749.9256      1.9389986      25.713477      22.51954       9.9298319      1.8351541    
     14800   7.4                  192   320.96795     -912.04532      7.9242776     -904.12104      297.22894      5702.7627      1.9550344      25.64298       22.4578        9.902608       1.473514     
     14900   7.45                 192   300.45453     -912.35701      7.4178281     -904.93918     -257.19644      5663.7889      1.9684875      25.58443       22.406523      9.8799977      1.2636716    
     15000   7.5                  192   302.72844     -912.70656      7.4739679     -905.23259      1388.8524      5639.4747      1.9769744      25.547767      22.374414      9.8658394      1.6183004    
     15100   7.55                 192   288.52209     -912.45427      7.1232317     -905.33104      298.38082      5642.6714      1.9758545      25.552593      22.37864       9.8677031      1.4336802    
     15200   7.6                  192   293.93963     -912.58427      7.2569838     -905.32729      1404.6488      5664.3464      1.9682937      25.58527       22.407258      9.8803219      1.9028534    
     15300   7.65                 192   288.39959     -912.19437      7.1202074     -905.07416     -2475.1445      5706.4595      1.9537679      25.64852       22.462652      9.9047474      1.8892402    
     15400   7.7                  192   308.86487     -912.27376      7.6254684     -904.64829      516.17638      5697.1266      1.9569685      25.63453       22.450399      9.8993447      1.7858344    
     15500   7.75                 192   314.33597     -912.09474      7.7605427     -904.3342       588.34423      5689.8204      1.9594814      25.623567      22.440798      9.8951111      2.1090353    
     15600   7.8                  192   304.48685     -911.7019       7.5173807     -904.18452     -647.10213      5695.3158      1.9575907      25.631813      22.44802       9.8982957      1.4942509    
     15700   7.85                 192   292.42748     -911.35156      7.2196508     -904.13191      1623.7172      5702.9975      1.9549539      25.643332      22.458108      9.902744       2.3042495    
     15800   7.9                  192   294.8145      -911.38246      7.2785831     -904.10388     -850.10314      5733.7734      1.9444608      25.689377      22.498434      9.9205252      1.6868688    
     15900   7.95                 192   310.67854     -911.71253      7.6702454     -904.04228     -506.3248       5740.8939      1.942049       25.700007      22.507743      9.9246301      2.0140784    
     16000   8                    192   338.98044     -912.39132      8.3689821     -904.02234      2281.8409      5744.212       1.9409272      25.704957      22.512079      9.9265418      2.4998513    
     16100   8.05                 192   312.91552     -912.10932      7.7254736     -904.38385     -939.95935      5805.0104      1.9205991      25.795329      22.591225      9.9614408      1.5835316    
     16200   8.1                  192   302.88484     -912.30062      7.4778291     -904.82279      1630.9948      5865.6358      1.9007483      25.884817      22.669597      9.9959986      1.7420618    
     16300   8.15                 192   280.19389     -912.11506      6.9176195     -905.19745     -2258.2495      5950.5389      1.8736282      26.00911       22.778452      10.043997      1.8344874    
     16400   8.2                  192   282.18997     -912.23954      6.9669        -905.27264     -967.83113      6002.7111      1.8573437      26.084902      22.84483       10.073266      2.3998424    
     16500   8.25                 192   270.67816     -911.81154      6.6826886     -905.12885     -642.79542      6018.5791      1.8524468      26.107867      22.864942      10.082134      1.4939675    
     16600   8.3                  192   284.69361     -911.69987      7.0287116     -904.67115     -1830.0442      5998.2856      1.858714       26.07849       22.839214      10.07079       2.0520292    
     16700   8.35                 192   295.64216     -911.59112      7.299017      -904.29211      412.1508       5913.1001      1.8854911      25.954449      22.73058       10.022889      1.3185676    
     16800   8.4                  192   299.82593     -911.35384      7.4023087     -903.95153      1374.5574      5824.8488      1.9140578      25.82468       22.616931      9.9727755      1.4511458    
     16900   8.45                 192   301.06864     -911.24678      7.4329896     -903.81379     -269.77885      5781.3403      1.9284624      25.760221      22.560478      9.947883       1.8851731    
     17000   8.5                  192   308.0888      -911.42285      7.6063082     -903.81654      1983.0733      5747.6684      1.93976        25.710112      22.516593      9.9285324      1.6704248    
     17100   8.55                 192   316.14899     -911.74245      7.8053036     -903.93715     -1185.6179      5753.0797      1.9379355      25.718178      22.523657      9.9316473      1.6927159    
     17200   8.6                  192   293.13362     -911.4083       7.2370844     -904.17122      944.86514      5746.7566      1.9400678      25.708752      22.515402      9.9280074      1.7836865    
     17300   8.65                 192   294.80557     -911.79344      7.2783627     -904.51507     -654.1628       5753.1911      1.937898       25.718344      22.523803      9.9317114      1.6442513    
     17400   8.7                  192   275.56478     -911.88834      6.8033329     -905.085        3119.0666      5780.5984      1.9287099      25.759119      22.559513      9.9474574      1.8450743    
     17500   8.75                 192   262.63027     -911.93027      6.4839968     -905.44627     -3213.6025      5861.8248      1.9019841      25.87921       22.664687      9.9938333      1.7598153    
     17600   8.8                  192   308.48439     -913.19675      7.6160748     -905.58068      119.57034      5873.7075      1.8981363      25.896685      22.679991      10.000582      1.9123618    
     17700   8.85                 192   274.82708     -912.71831      6.7851199     -905.93319     -1368.7175      5862.5898      1.9017359      25.880335      22.665673      9.994268       1.5634622    
     17800   8.9                  192   259.75626     -912.88613      6.4130411     -906.47309      2519.9498      5832.6133      1.9115098      25.83615       22.626975      9.9772047      1.4907846    
     17900   8.95                 192   250.28254     -912.97626      6.1791474     -906.79711     -1392.3559      5842.5072      1.9082728      25.85075       22.639762      9.982843       1.7599909    
     18000   9                    192   270.95545     -913.32475      6.6895344     -906.63521      827.67405      5837.9762      1.9097538      25.844066      22.633908      9.9802617      1.3711713    
     18100   9.05                 192   261.69321     -912.55599      6.460862      -906.09513     -540.0528       5859.2284      1.9028269      25.875388      22.66134       9.9923576      1.7253882    
     18200   9.1                  192   270.57807     -912.21318      6.6802175     -905.53296      67.087734      5884.0372      1.894804       25.911857      22.693279      10.006441      1.5681471    
     18300   9.15                 192   300.73953     -912.54841      7.4248644     -905.12354     -1199.1162      5905.0851      1.8880503      25.942717      22.720305      10.018358      1.8860245    
     18400   9.2                  192   287.71051     -911.88225      7.103195      -904.77905     -256.95427      5908.6972      1.8868961      25.948005      22.724937      10.0204        1.5049243    
     18500   9.25                 192   291.73616     -911.62183      7.202583      -904.41924      326.93843      5899.3677      1.8898801      25.934341      22.71297       10.015124      1.6133695    
     18600   9.3                  192   318.42929     -911.96374      7.8616013     -904.10214      115.16262      5898.5668      1.8901367      25.933167      22.711942      10.01467       1.8096605    
     18700   9.35                 192   297.11493     -911.37815      7.3353778     -904.04277      78.611951      5899.8123      1.8897377      25.934993      22.713541      10.015375      2.1548065    
     18800   9.4                  192   318.40228     -911.9327       7.8609345     -904.07177      532.10412      5887.5914      1.8936602      25.917073      22.697847      10.008455      2.4274873    
     18900   9.45                 192   311.20486     -911.95895      7.6832395     -904.27571     -495.6447       5877.8849      1.8967873      25.902823      22.685367      10.002952      2.7358047    
     19000   9.5                  192   294.5335      -911.90561      7.2716457     -904.63397     -345.72031      5855.2461      1.9041211      25.869525      22.656205      9.9900932      2.0105008    
     19100   9.55                 192   294.25366     -912.2053       7.2647366     -904.94056      790.23614      5830.9481      1.9120557      25.833691      22.624822      9.9762552      1.7860361    
     19200   9.6                  192   289.40979     -912.38415      7.1451479     -905.239        808.54452      5828.2537      1.9129396      25.829711      22.621337      9.9747183      2.2141009    
     19300   9.65                 192   282.10168     -912.40011      6.9647204     -905.43539     -1106.0806      5846.0155      1.9071276      25.855923      22.644293      9.9848408      1.7457762    
     19400   9.7                  192   259.11523     -911.8542       6.3972149     -905.45698      927.95937      5842.5043      1.9082737      25.850746      22.639759      9.9828414      1.5483321    
     19500   9.75                 192   297.82335     -912.37574      7.3528677     -905.02287      1067.3655      5852.0214      1.9051703      25.864775      22.652045      9.9882589      3.1591107    
     19600   9.8                  192   294.07129     -911.62889      7.2602342     -904.36866     -609.42756      5886.2419      1.8940943      25.915093      22.696113      10.00769       1.94705      
     19700   9.85                 192   303.51168     -911.45284      7.4933051     -903.95953     -1332.467       5910.746       1.886242       25.951004      22.727563      10.021558      1.6703258    
     19800   9.9                  192   299.84073     -911.16875      7.4026742     -903.76607     -429.40084      5897.4346      1.8904996      25.931508      22.710489      10.014029      1.6173809    
     19900   9.95                 192   303.94422     -911.11105      7.5039838     -903.60707      200.37458      5874.1564      1.8979913      25.897344      22.680569      10.000836      2.3517278    
     20000   10                   192   320.60525     -911.57225      7.9153229     -903.65693     -279.7721       5862.5525      1.901748       25.880281      22.665625      9.9942468      2.1478447    
     20100   10.05                192   298.03664     -911.2985       7.3581335     -903.94036     -130.10142      5841.2719      1.9086763      25.848928      22.638167      9.9821394      1.4271532    
     20200   10.1                 192   296.34935     -911.56084      7.3164765     -904.24436     -1350.0831      5811.9475      1.9183066      25.8056        22.60022       9.9654072      1.5709475    
     20300   10.15                192   278.0759      -911.40436      6.8653291     -904.53903      745.41029      5766.3563      1.9334736      25.737946      22.54097       9.9392813      1.8618385    
     20400   10.2                 192   283.26317     -911.80946      6.9933959     -904.81607     -364.98757      5734.8754      1.9440871      25.691023      22.499875      9.9211607      1.7489011    
     20500   10.25                192   302.47278     -912.57521      7.4676559     -905.10755     -665.15023      5688.4772      1.9599441      25.62155       22.439032      9.8943324      1.8356761    
     20600   10.3                 192   273.88194     -912.2213       6.7617857     -905.45952      1659.7798      5644.36        1.9752634      25.555142      22.380873      9.8686874      1.7434812    
     20700   10.35                192   288.97425     -912.79408      7.1343949     -905.65968      284.39262      5628.2612      1.9809133      25.530823      22.359574      9.859296       1.6663379    
     20800   10.4                 192   278.9288      -912.51583      6.8863861     -905.62944      2134.9625      5633.173       1.9791861      25.538248      22.366077      9.8621632      2.6370051    
     20900   10.45                192   307.58715     -912.91624      7.593923      -905.32232      1010.9338      5709.3494      1.952779       25.652849      22.466443      9.9064191      2.0070785    
     21000   10.5                 192   285.6786      -911.7531       7.0530299     -904.70007     -2733.3493      5814.3124      1.9175264      25.8091        22.603285      9.9667587      2.08928      
     21100   10.55                192   306.88575     -911.76147      7.5766065     -904.18487     -2091.9951      5853.7043      1.9046226      25.867254      22.654216      9.9892163      2.1528748    
     21200   10.6                 192   309.99635     -911.78023      7.6534031     -904.12683     -720.02719      5836.7589      1.9101521      25.842269      22.632335      9.979568       1.3829167    
     21300   10.65                192   295.11849     -911.42337      7.2860882     -904.13728      868.28968      5808.1197      1.9195709      25.799933      22.595258      9.963219       2.3969165    
     21400   10.7                 192   306.58484     -911.70824      7.5691775     -904.13907     -613.31634      5800.5129      1.9220882      25.788665      22.585389      9.9588675      1.832841     
     21500   10.75                192   294.79325     -911.4351       7.2780586     -904.15704     -1101.877       5792.586       1.9247185      25.776912      22.575096      9.9543289      1.9093591    
     21600   10.8                 192   316.8688      -911.92282      7.8230748     -904.09974      283.40483      5770.6426      1.9320374      25.744322      22.546554      9.9417434      1.5898481    
     21700   10.85                192   301.90874     -911.55769      7.4537306     -904.10396     -88.960115      5759.5797      1.9357484      25.72786       22.532137      9.9353862      2.0562664    
     21800   10.9                 192   301.25598     -911.88694      7.4376147     -904.44933      2560.0555      5778.2463      1.929495       25.755624      22.556452      9.9461081      2.0358358    
     21900   10.95                192   272.48514     -911.63991      6.7273005     -904.91261     -1255.6489      5844.369       1.9076649      25.853496      22.642167      9.9839033      1.7357758    
     22000   11                   192   261.02864     -911.55568      6.4444546     -905.11122     -1361.5262      5874.4605      1.897893       25.897791      22.68096       10.001009      1.7227504    
     22100   11.05                192   283.61498     -911.96278      7.0020816     -904.9607       306.54326      5864.8983      1.9009874      25.883732      22.668647      9.9955796      1.7303226    
     22200   11.1                 192   295.52671     -911.88627      7.2961667     -904.5901       284.51555      5841.2092      1.9086968      25.848836      22.638086      9.9821037      1.9321987    
     22300   11.15                192   331.07737     -912.36785      8.1738659     -904.19399      2860.1977      5830.2681      1.9122787      25.832687      22.623942      9.9758673      1.4342024    
     22400   11.2                 192   302.74316     -911.58079      7.4743314     -904.10646     -1617.3049      5896.2022      1.8908947      25.929702      22.708907      10.013332      1.790385     
     22500   11.25                192   296.2578      -911.25238      7.3142163     -903.93817      1772.1572      5950.9057      1.8735127      26.009645      22.77892       10.044204      1.8359007    
     22600   11.3                 192   284.62547     -910.82867      7.0270293     -903.80164     -1221.5641      6017.3177      1.8528351      26.106043      22.863344      10.08143       2.1074746    
     22700   11.35                192   325.73455     -911.17112      8.0419586     -903.12916     -2782.807       6032.4267      1.8481944      26.127875      22.882464      10.089861      1.744699     
     22800   11.4                 192   349.41433     -911.10326      8.6265814     -902.47667      2242.3224      5984.6553      1.8629473      26.058722      22.821901      10.063156      2.1025268    
     22900   11.45                192   347.09241     -911.172        8.5692562     -902.60274     -1591.3455      5982.017       1.8637689      26.054892      22.818547      10.061677      2.0721954    
     23000   11.5                 192   299.62743     -910.5649       7.3974081     -903.16749      1946.763       5967.3013      1.8683651      26.03351       22.799821      10.05342       1.957293     
     23100   11.55                192   293.8909      -910.79184      7.2557807     -903.53606     -3410.4312      5975.7455      1.8657249      26.045784      22.81057       10.05816       1.7443322    
     23200   11.6                 192   307.13644     -911.44205      7.5827958     -903.85926      1980.5229      5920.0263      1.8832851      25.964578      22.739452      10.0268        2.3044931    
     23300   11.65                192   309.37206     -911.88351      7.6379902     -904.24552      447.3119       5890.2961      1.8927907      25.921041      22.701322      10.009987      1.5730542    
     23400   11.7                 192   266.33758     -911.12575      6.5755254     -904.55022      1804.0054      5895.0167      1.8912749      25.927964      22.707385      10.012661      1.9412149    
     23500   11.75                192   288.03782     -911.54628      7.1112757     -904.435       -41.876522      5933.168       1.8791137      25.983777      22.756266      10.034214      2.0145625    
     23600   11.8                 192   326.7208      -912.28665      8.0663077     -904.22034     -94.618363      5967.8172      1.8682036      26.03426       22.800478      10.053709      1.5506362    
     23700   11.85                192   285.38693     -911.27154      7.0458287     -904.22571     -441.4871       5989.1041      1.8615635      26.065178      22.827555      10.065649      1.8534595    
     23800   11.9                 192   298.84861     -911.59728      7.3781799     -904.2191      -1165.4944      5992.0617      1.8606446      26.069467      22.831312      10.067306      1.4123701    
     23900   11.95                192   305.58776     -911.87809      7.5445606     -904.33353     -1590.8775      5953.9628      1.8725507      26.014098      22.78282       10.045923      1.9256007    
     24000   12                   192   303.91558     -912.24249      7.5032769     -904.73921      2086.4747      5878.6517      1.8965399      25.903949      22.686353      10.003387      1.7443026    
     24100   12.05                192   260.10351     -911.67141      6.4216143     -905.2498       674.3556       5866.9475      1.9003234      25.886746      22.671287      9.9967437      1.727463     
     24200   12.1                 192   277.51867     -912.15019      6.8515719     -905.29862     -669.39259      5873.1688      1.8983104      25.895893      22.679298      10.000276      1.5030418    
     24300   12.15                192   281.97397     -912.05556      6.9615673     -905.09399      467.62682      5866.5158      1.9004632      25.886111      22.670731      9.9964985      1.6610198    
     24400   12.2                 192   286.17528     -911.80258      7.0652921     -904.73728      636.40843      5856.5544      1.9036957      25.871451      22.657892      9.9908372      1.9789549    
     24500   12.25                192   302.1148      -911.75842      7.4588179     -904.2996       1165.2505      5861.0065      1.9022496      25.878005      22.663632      9.9933682      1.4632352    
     24600   12.3                 192   327.66511     -912.12876      8.0896215     -904.03914      258.50897      5894.6046      1.8914072      25.92736       22.706856      10.012427      1.454157     
     24700   12.35                192   314.39709     -911.85096      7.7620515     -904.08891     -2510.3668      5916.874       1.8842885      25.959969      22.735415      10.02502       1.5644876    
     24800   12.4                 192   320.93132     -912.1461       7.923373      -904.22273     -1251.8066      5891.1136      1.892528       25.92224       22.702372      10.01045       1.2972193    
     24900   12.45                192   290.68871     -911.53896      7.1767228     -904.36224      336.35593      5847.4576      1.9066573      25.858049      22.646155      9.9856617      1.6475254    
     25000   12.5                 192   287.63649     -911.4885       7.1013675     -904.38714      1437.0064      5815.5674      1.9171126      25.810956      22.604911      9.9674758      1.713547     
     25100   12.55                192   308.83871     -911.9564       7.6248224     -904.33157     -1454.7496      5813.9085      1.9176596      25.808502      22.602762      9.9665279      1.3946781    
     25200   12.6                 192   311.48614     -912.05436      7.6901841     -904.36417      834.2781       5794.2989      1.9241495      25.779453      22.577321      9.95531        1.42371      
     25300   12.65                192   312.17699     -912.23358      7.7072402     -904.52634     -566.97149      5790.0542      1.9255601      25.773156      22.571807      9.9528784      2.2096041    
     25400   12.7                 192   274.53605     -911.58153      6.7779347     -904.80359      491.15961      5773.1291      1.9312053      25.748019      22.549792      9.9431711      1.8223838    
     25500   12.75                192   298.49617     -912.26883      7.3694786     -904.89935      898.6312       5750.4446      1.9388236      25.714251      22.520218      9.9301307      1.6150121    
     25600   12.8                 192   289.87905     -912.12971      7.1567333     -904.97297      1315.4318      5770.012       1.9322486      25.743384      22.545733      9.9413813      2.2084016    
     25700   12.85                192   295.90421     -912.21343      7.3054866     -904.90795     -1474.1711      5827.7909      1.9130915      25.829027      22.620738      9.9744542      1.3132914    
     25800   12.9                 192   293.08969     -912.06561      7.2359998     -904.82961     -637.23219      5853.7792      1.9045982      25.867364      22.654313      9.9892589      1.3736387    
     25900   12.95                192   277.48715     -911.51097      6.8507935     -904.66018     -1981.0412      5855.4209      1.9040642      25.869782      22.65643       9.9901926      1.6315066    
     26000   13                   192   315.10376     -911.60205      7.7794983     -903.82255      2085.1018      5807.4448      1.919794       25.798934      22.594382      9.9628331      2.1084649    
     26100   13.05                192   338.73362     -911.51151      8.3628887     -903.14862      646.77761      5783.1726      1.9278514      25.762942      22.562861      9.9489338      1.8678545    
     26200   13.1                 192   333.68908     -911.43585      8.2383456     -903.1975      -24.783478      5782.3238      1.9281344      25.761681      22.561757      9.948447       2.0290597    
     26300   13.15                192   282.93764     -910.54366      6.985359      -903.5583       1603.7277      5782.4491      1.9280926      25.761867      22.56192       9.9485189      1.836041     
     26400   13.2                 192   303.7055      -911.36857      7.4980903     -903.87048     -1506.2094      5805.4117      1.9204663      25.795923      22.591745      9.9616703      1.4324718    
     26500   13.25                192   302.10961     -911.62346      7.4586898     -904.16478      38.996223      5814.3959      1.9174989      25.809223      22.603393      9.9668064      2.1886055    
     26600   13.3                 192   309.01206     -912.05559      7.6291023     -904.42649     -3061.3575      5806.4879      1.9201103      25.797517      22.593141      9.9622858      2.0581425    
     26700   13.35                192   277.61653     -911.52596      6.8539878     -904.67197      3841.3719      5742.1029      1.9416401      25.701811      22.509323      9.9253268      2.7497901    
     26800   13.4                 192   308.1545      -912.37823      7.6079303     -904.7703       881.17785      5759.0082      1.9359405      25.727009      22.531391      9.9350576      1.8646108    
     26900   13.45                192   288.71903     -911.93735      7.1280939     -904.80926      753.505        5821.319       1.9152184      25.819463      22.612361      9.9707606      1.6099075    
     27000   13.5                 192   279.83882     -911.54639      6.9088532     -904.63753     -1027.5936      5887.5464      1.8936747      25.917007      22.697789      10.00843       1.787374     
     27100   13.55                192   310.59826     -911.66522      7.6682635     -903.99695     -1324.5493      5933.1415      1.8791221      25.983738      22.756232      10.034199      1.7491276    
     27200   13.6                 192   320.53103     -911.40006      7.9134906     -903.48656     -1570.9622      5942.6669      1.8761101      25.997636      22.768403      10.039566      2.4056265    
     27300   13.65                192   323.12846     -911.37784      7.9776176     -903.40022     -1768.2661      5889.9296      1.8929084      25.920504      22.700851      10.00978       1.5393258    
     27400   13.7                 192   319.6287      -911.3277       7.891213      -903.43649      1430.1756      5803.4025      1.9211312      25.792947      22.589139      9.960521       1.9831137    
     27500   13.75                192   323.47939     -911.69789      7.9862816     -903.71161      72.887906      5759.0651      1.9359214      25.727094      22.531466      9.9350903      1.8693491    
     27600   13.8                 192   291.76215     -911.44559      7.2032246     -904.24236      1917.9589      5729.3932      1.9459473      25.682834      22.492703      9.9179984      2.1854536    
     27700   13.85                192   310.89854     -912.31203      7.675677      -904.63635     -1137.6739      5723.2597      1.9480328      25.673666      22.484674      9.9144579      2.2510543    
     27800   13.9                 192   298.44784     -912.20387      7.3682856     -904.83558      723.84894      5719.6411      1.9492652      25.668254      22.479934      9.912368       1.8098305    
     27900   13.95                192   301.52394     -912.24699      7.4442303     -904.80276      257.99538      5744.5266      1.9408209      25.705426      22.51249       9.926723       2.2293538    
     28000   14                   192   288.17566     -911.8503       7.1146789     -904.73562      36.220577      5768.7254      1.9326795      25.741471      22.544057      9.9406422      1.5096232    
     28100   14.05                192   304.84222     -912.13644      7.5261544     -904.61029     -192.19173      5781.3432      1.9284614      25.760225      22.560481      9.9478846      1.6509104    
     28200   14.1                 192   290.774       -911.75279      7.1788284     -904.57396      2192.5475      5794.0736      1.9242243      25.779119      22.577028      9.955181       2.1358089    
     28300   14.15                192   292.5544      -911.72549      7.2227843     -904.50271     -1743.6875      5837.743       1.9098301      25.843722      22.633607      9.9801288      1.5535125    
     28400   14.2                 192   313.78707     -911.98652      7.746991      -904.23953      571.26615      5842.2524      1.908356       25.850374      22.639433      9.9826979      1.91667      
     28500   14.25                192   310.25915     -911.48394      7.6598913     -903.82404      163.34482      5864.6285      1.9010748      25.883335      22.6683        9.9954264      1.5955224    
     28600   14.3                 192   315.63678     -911.15677      7.7926579     -903.36411      776.30773      5895.39        1.8911552      25.928511      22.707864      10.012872      1.7540624    
     28700   14.35                192   330.65898     -911.25077      8.1635362     -903.08723     -3027.7403      5919.0153      1.8836068      25.9631        22.738157      10.02623       2.9406306    
     28800   14.4                 192   312.66064     -910.89482      7.7191809     -903.17564     -1310.4962      5867.0123      1.9003024      25.886841      22.671371      9.9967805      1.681551     
     28900   14.45                192   329.09575     -911.56868      8.1249421     -903.44373      3108.1967      5776.1085      1.9302091      25.752448      22.55367       9.9448813      2.2609005    
     29000   14.5                 192   325.331       -912.14479      8.0319955     -904.11279      1688.4591      5740.0327      1.9423404      25.698722      22.506618      9.9241338      1.8216562    
     29100   14.55                192   293.02106     -911.97693      7.2343053     -904.74262      829.88101      5766.7339      1.9333469      25.738508      22.541462      9.9394982      2.0663138    
     29200   14.6                 192   280.76222     -911.8543       6.9316508     -904.92265     -959.99369      5816.8138      1.9167018      25.8128        22.606526      9.9681878      2.5204782    
     29300   14.65                192   303.0417      -912.4235       7.4817018     -904.9418       1960.2985      5836.7632      1.9101507      25.842276      22.632341      9.9795704      1.7340009    
     29400   14.7                 192   301.30652     -912.37288      7.4388626     -904.93402     -2812.3543      5885.7752      1.8942445      25.914408      22.695513      10.007426      1.9478177    
     29500   14.75                192   282.23059     -911.90614      6.9679029     -904.93824     -1028.3786      5884.4552      1.8946694      25.91247       22.693816      10.006678      1.5475105    
     29600   14.8                 192   292.67049     -911.95752      7.2256504     -904.73187      810.66817      5846.8641      1.9068508      25.857174      22.645389      9.9853239      2.0194254    
     29700   14.85                192   305.007       -911.83135      7.5302225     -904.30113      504.21298      5821.6986      1.9150935      25.820024      22.612853      9.9709773      1.6820266    
     29800   14.9                 192   316.79973     -911.73498      7.8213695     -903.91361      853.56935      5838.2963      1.9096491      25.844538      22.634322      9.9804441      1.9055033    
     29900   14.95                192   319.60312     -911.59771      7.8905817     -903.70713     -457.84094      5888.918       1.8932336      25.919019      22.699552      10.009207      1.6163918    
     30000   15                   192   273.27793     -910.46717      6.7468735     -903.72029      1019.9536      5912.2286      1.885769       25.953174      22.729463      10.022396      1.455309     
     30100   15.05                192   313.67327     -911.48946      7.7441815     -903.74528     -1808.9424      5937.349       1.8777905      25.989879      22.76161       10.036571      1.2952728    
     30200   15.1                 192   299.04623     -911.44439      7.3830589     -904.06133      1702.1893      5922.8203      1.8823967      25.968663      22.743029      10.028378      1.499451     
     30300   15.15                192   307.56118     -912.31328      7.5932819     -904.72        -289.00977      5916.0222      1.8845598      25.958723      22.734324      10.024539      1.6946941    
     30400   15.2                 192   294.47927     -912.54235      7.2703067     -905.27204      1976.9681      5907.8378      1.8871705      25.946747      22.723835      10.019914      2.7389796    
     30500   15.25                192   308.8705      -913.1009       7.6256072     -905.47529     -3573.157       5931.3662      1.8796845      25.981147      22.753962      10.033198      1.7377902    
     30600   15.3                 192   280.68933     -912.5333       6.9298513     -905.60345     -160.43179      5891.648       1.8923563      25.923024      22.703059      10.010753      1.7187372    
     30700   15.35                192   276.7582      -912.28856      6.8327967     -905.45576      1878.7526      5826.368       1.9135588      25.826925      22.618897      9.9736424      1.8546431    
     30800   15.4                 192   291.17741     -912.22928      7.1887882     -905.0405       1115.0226      5800.1259      1.9222164      25.788092      22.584887      9.9586461      1.9128862    
     30900   15.45                192   324.99288     -912.5853       8.0236478     -904.56166     -1701.1235      5797.9824      1.9229271      25.784915      22.582104      9.9574191      1.158519     
     31000   15.5                 192   334.83919     -912.59589      8.2667402     -904.32915     -193.88567      5776.0172      1.9302396      25.752312      22.553551      9.9448289      1.3478445    
     31100   15.55                192   329.12572     -912.49273      8.1256822     -904.36704      1040.7634      5758.8406      1.9359969      25.726759      22.531173      9.9349612      1.2600004    
     31200   15.6                 192   308.57237     -912.25274      7.6182469     -904.6345      -1956.7245      5765.1934      1.9338635      25.736216      22.539455      9.9386131      1.7303418    
     31300   15.65                192   307.60151     -912.48499      7.5942776     -904.89072      2199.8668      5757.5073      1.9364452      25.724774      22.529434      9.9341944      1.6081912    
     31400   15.7                 192   285.31163     -912.13171      7.0439698     -905.08774     -1632.4993      5783.3339      1.9277976      25.763181      22.563071      9.9490263      1.7858514    
     31500   15.75                192   283.58987     -912.12693      7.0014617     -905.12547      1393.7703      5777.4117      1.9297737      25.754384      22.555366      9.9456292      1.7302921    
     31600   15.8                 192   313.96792     -912.80047      7.751456      -905.04902     -408.95615      5789.153       1.9258599      25.771819      22.570636      9.952362       1.3915304    
     31700   15.85                192   321.6805      -912.96932      7.9418693     -905.02745      1796.2601      5818.3142      1.9162075      25.815019      22.60847       9.9690448      1.6466       
     31800   15.9                 192   300.96325     -912.46532      7.4303878     -905.03494      629.76585      5881.5062      1.8956194      25.908141      22.690024      10.005006      1.5599372    
     31900   15.95                192   272.3476      -911.77009      6.7239047     -905.04619     -2935.2387      5953.422       1.8727208      26.01331       22.78213       10.045619      2.073316     
     32000   16                   192   283.71761     -911.85319      7.0046156     -904.84858     -810.96538      5960.3826      1.8705339      26.023444      22.791006      10.049533      1.8950612    
     32100   16.05                192   311.56873     -911.91832      7.6922229     -904.22609      672.60689      5937.1553      1.8778517      25.989596      22.761362      10.036462      2.0257193    
     32200   16.1                 192   296.07355     -910.96216      7.3096673     -903.65249     -1296.9543      5910.4987      1.8863209      25.950642      22.727246      10.021418      2.4874359    
     32300   16.15                192   319.60594     -911.30811      7.8906512     -903.41746      2128.2238      5852.6418      1.9049684      25.865689      22.652845      9.9886119      2.269704     
     32400   16.2                 192   310.84454     -911.2655       7.6743438     -903.59115      532.89686      5845.2837      1.9073664      25.854844      22.643348      9.9844241      2.251092     
     32500   16.25                192   309.48267     -911.55151      7.640721      -903.91079      790.68095      5857.7855      1.9032956      25.873264      22.65948       9.9915373      2.8328924    
     32600   16.3                 192   308.70046     -911.82213      7.6214093     -904.20072     -29.085881      5886.8521      1.893898       25.915988      22.696897      10.008036      1.484882     
     32700   16.35                192   302.42984     -911.93125      7.4665959     -904.46465     -443.11516      5915.6886      1.884666       25.958235      22.733897      10.024351      1.6396067    
     32800   16.4                 192   295.42938     -911.9743       7.2937636     -904.68053     -636.82321      5924.3332      1.881916       25.970874      22.744965      10.029231      1.5351136    
     32900   16.45                192   291.41007     -911.96719      7.1945322     -904.77265     -136.02193      5911.0783      1.886136       25.95149       22.727989      10.021746      1.825676     
     33000   16.5                 192   294.75923     -912.07639      7.2772187     -904.79917     -694.22405      5896.1657      1.8909064      25.929648      22.70886       10.013311      1.342053     
     33100   16.55                192   276.64052     -911.64993      6.8298915     -904.82004     -835.7081       5853.3692      1.9047316      25.86676       22.653784      9.9890257      2.4727361    
     33200   16.6                 192   316.31233     -912.3488       7.8093364     -904.53946      2506.0538      5780.6807      1.9286825      25.759241      22.55962       9.9475046      2.2508739    
     33300   16.65                192   327.35673     -912.43078      8.0820081     -904.34877     -322.91963      5761.0088      1.9352683      25.729988      22.534         9.9362079      2.2440137    
     33400   16.7                 192   310.92841     -912.02905      7.6764145     -904.35263      1051.4072      5750.0541      1.9389552      25.713669      22.519708      9.9299059      1.6783916    
     33500   16.75                192   307.05426     -912.22185      7.5807667     -904.64108      2220.4523      5773.1157      1.9312098      25.747999      22.549774      9.9431634      1.9236667    
     33600   16.8                 192   283.21862     -912.09067      6.9922962     -905.09838     -1139.8878      5843.7352      1.9078718      25.852561      22.641348      9.9835424      1.6687089    
     33700   16.85                192   282.74289     -912.37294      6.9805509     -905.39239      74.636707      5895.3074      1.8911817      25.92839       22.707758      10.012825      1.9782033    
     33800   16.9                 192   272.72769     -912.22312      6.7332887     -905.48984     -3261.6999      5944.4001      1.8755631      26.000163      22.770617      10.040542      1.7037107    
     33900   16.95                192   286.60583     -912.36897      7.0759218     -905.29305     -852.65284      5931.377       1.8796811      25.981162      22.753976      10.033205      1.7251924    
     34000   17                   192   288.35202     -911.90367      7.1190331     -904.78464     -42.972908      5888.5354      1.8933566      25.918458      22.69906       10.00899       2.350673     
     34100   17.05                192   316.98896     -912.10402      7.8260414     -904.27798     -27.170381      5858.1049      1.9031918      25.873734      22.659891      9.9917188      1.9293008    
     34200   17.1                 192   310.42781     -911.81301      7.6640553     -904.14895      1809.4932      5841.3302      1.9086573      25.849014      22.638242      9.9821726      2.4810976    
     34300   17.15                192   272.88648     -910.89556      6.737209      -904.15835     -799.08256      5858.0536      1.9032085      25.873659      22.659825      9.9916897      1.8473362    
     34400   17.2                 192   303.25882     -911.58375      7.4870623     -904.09669      883.72767      5852.7986      1.9049173      25.86592       22.653048      9.9887011      1.7725303    
     34500   17.25                192   325.5651      -912.12308      8.0377752     -904.0853      -1118.551       5854.496       1.904365       25.86842       22.655237      9.9896666      1.7491185    
     34600   17.3                 192   334.71175     -912.42879      8.2635939     -904.16519      197.75443      5843.7367      1.9078713      25.852563      22.64135       9.9835432      2.1134894    
     34700   17.35                192   312.58911     -912.39658      7.7174149     -904.67917     -1329.8409      5833.3418      1.9112711      25.837225      22.627918      9.9776201      1.7838784    
     34800   17.4                 192   305.31866     -912.87248      7.5379169     -905.33456      739.88118      5799.907       1.922289       25.787767      22.584603      9.9585207      1.6382881    
     34900   17.45                192   303.44144     -913.13379      7.491571      -905.64222     -104.49542      5772.3132      1.9314783      25.746806      22.548729      9.9427027      1.6925861    
     35000   17.5                 192   283.38973     -912.7478       6.9965206     -905.75128      1147.8119      5756.8466      1.9366674      25.72379       22.528572      9.9338144      2.5127922    
     35100   17.55                192   285.08847     -912.75773      7.0384602     -905.71927     -279.0424       5766.0797      1.9335663      25.737535      22.54061       9.9391224      2.35368      
     35200   17.6                 192   290.90722     -912.76924      7.1821174     -905.58712      514.36084      5785.4708      1.9270856      25.766354      22.565849      9.9502515      2.1977615    
     35300   17.65                192   279.93047     -912.24618      6.911116      -905.33507      1911.8925      5828.4633      1.9128708      25.830021      22.621608      9.9748379      2.5982057    
     35400   17.7                 192   297.62679     -912.10183      7.3480149     -904.75382     -2005.9104      5895.6316      1.8910777      25.928865      22.708175      10.013009      2.0667062    
     35500   17.75                192   298.91788     -911.60872      7.3798901     -904.22883      1196.0945      5923.2859      1.8822487      25.969343      22.743625      10.02864       2.1016339    
     35600   17.8                 192   309.07972     -911.73238      7.6307726     -904.1016      -1867.2439      5941.9452      1.876338       25.996584      22.767481      10.03916       2.2825006    
     35700   17.85                192   326.43108     -912.19572      8.059155      -904.13657      1452.766       5933.3139      1.8790675      25.98399       22.756452      10.034297      1.6099205    
     35800   17.9                 192   304.33153     -911.83354      7.5135461     -904.32        -1647.9479      5942.9972      1.8760058      25.998118      22.768825      10.039752      2.2295303    
     35900   17.95                192   314.95454     -912.34199      7.7758143     -904.56618      318.94352      5925.9357      1.8814071      25.973215      22.747015      10.030136      2.0022759    
     36000   18                   192   289.3129      -912.09805      7.1427559     -904.95529     -1138.4092      5909.2114      1.8867319      25.948758      22.725596      10.020691      2.08306      
     36100   18.05                192   286.9329      -912.29846      7.0839969     -905.21446      3465.2402      5864.6137      1.9010796      25.883313      22.668281      9.995418       2.2260071    
     36200   18.1                 192   269.81038     -912.00575      6.6612641     -905.34449     -440.36288      5886.9703      1.89386        25.916162      22.697049      10.008103      1.7449875    
     36300   18.15                192   277.06319     -912.10411      6.8403266     -905.26378      2597.7254      5918.0642      1.8839095      25.96171       22.736939      10.025693      2.343774     
     36400   18.2                 192   295.20979     -912.40637      7.2883423     -905.11802     -1474.6965      6000.5139      1.8580238      26.081719      22.842042      10.072037      1.6504348    
     36500   18.25                192   302.59724     -912.39536      7.4707286     -904.92463     -660.07727      6047.9257      1.8434581      26.150232      22.902045      10.098495      2.4762405    
     36600   18.3                 192   272.38562     -911.62206      6.7248434     -904.89721     -2261.4419      6054.6868      1.8413995      26.159973      22.910576      10.102256      1.6322666    
     36700   18.35                192   291.02624     -911.94479      7.185056      -904.75973     -268.85028      6014.2033      1.8537946      26.101538      22.859399      10.07969       1.4635758    
     36800   18.4                 192   322.03775     -912.55226      7.9506894     -904.60157     -69.737466      5955.9733      1.8719186      26.017026      22.785384      10.047054      1.9687483    
     36900   18.45                192   308.73612     -912.22936      7.6222895     -904.60707      1282.6115      5905.6086      1.8878829      25.943483      22.720977      10.018654      2.1699957    
     37000   18.5                 192   303.73271     -912.13835      7.4987621     -904.63959      907.24874      5892.9485      1.8919387      25.924931      22.704729      10.01149       1.6512066    
     37100   18.55                192   279.29943     -911.67118      6.8955364     -904.77565      3163.3393      5920.2902      1.8832012      25.964964      22.73979       10.026949      1.9508545    
     37200   18.6                 192   300.41834     -912.32689      7.4169347     -904.90996     -3140.5789      5990.1071      1.8612518      26.066632      22.828829      10.066211      2.3432695    
     37300   18.65                192   288.13408     -912.47089      7.1136524     -905.35723     -2538.8988      5966.6013      1.8685843      26.032492      22.798929      10.053027      1.5997324    
     37400   18.7                 192   267.06227     -912.42236      6.593417      -905.82894      2230.6523      5867.5904      1.9001152      25.887692      22.672115      9.9971088      1.7934867    
     37500   18.75                192   296.06381     -913.32107      7.3094269     -906.01164      1062.1767      5803.4801      1.9211055      25.793062      22.58924       9.9605653      1.7574837    
     37600   18.8                 192   282.50797     -913.06562      6.9747512     -906.09087      1197.4019      5774.6227      1.9307058      25.750239      22.551736      9.9440285      2.0156802    
     37700   18.85                192   285.31832     -912.90031      7.0441348     -905.85617     -1106.2962      5784.0834      1.9275478      25.764294      22.564045      9.9494561      1.7431219    
     37800   18.9                 192   291.45018     -912.3642       7.1955224     -905.16868      174.46572      5786.7153      1.9266711      25.768201      22.567467      9.9509649      1.5869899    
     37900   18.95                192   298.98602     -912.09458      7.3815725     -904.71301     -13.795968      5788.3923      1.926113       25.77069       22.569647      9.9519261      2.3421877    
     38000   19                   192   316.06667     -912.39621      7.8032713     -904.59294      695.06455      5802.7639      1.9213426      25.792001      22.58831       9.9601556      1.6208802    
     38100   19.05                192   329.54399     -912.8308       8.1360087     -904.69479      1363.4798      5851.654       1.9052899      25.864233      22.651571      9.9880499      2.6367185    
     38200   19.1                 192   306.85432     -912.50507      7.5758305     -904.92924     -1149.8254      5928.5366      1.8805817      25.977014      22.750343      10.031603      1.6559551    
     38300   19.15                192   287.92903     -912.32341      7.10859       -905.21482     -1040           5979.3324      1.8646057      26.050994      22.815133      10.060172      1.6857168    
     38400   19.2                 192   278.83189     -912.3447       6.8839934     -905.46071     -315.34245      6002.4542      1.8574232      26.08453       22.844504      10.073122      1.8230734    
     38500   19.25                192   291.05742     -912.72706      7.1858258     -905.54123     -1976.3609      6016.5902      1.8530591      26.104991      22.862423      10.081024      2.0036026    
     38600   19.3                 192   320.14812     -913.33438      7.9040369     -905.43034     -855.3373       5984.99        1.8628431      26.059208      22.822327      10.063344      1.7313972    
     38700   19.35                192   314.43379     -912.81857      7.7629576     -905.05562      99.455817      5932.9368      1.879187       25.983439      22.75597       10.034084      1.7062618    
     38800   19.4                 192   316.64144     -912.33952      7.8174617     -904.52206      3301.1349      5900.8147      1.8894166      25.936461      22.714827      10.015942      2.2755476    
     38900   19.45                192   317.45188     -911.9366       7.8374704     -904.09913     -1036.162       5938.1594      1.8775342      25.991061      22.762645      10.037027      1.7442818    
     39000   19.5                 192   298.37898     -911.16514      7.3665856     -903.79856     -1183.0413      5954.4302      1.8724038      26.014779      22.783416      10.046186      1.4496148    
     39100   19.55                192   325.92126     -911.58114      8.0465681     -903.53458     -2023.9384      5927.404       1.8809411      25.97536       22.748894      10.030964      1.8189639    
     39200   19.6                 192   332.5585      -911.65538      8.2104329     -903.44494      3129.8014      5883.1911      1.8950765      25.910615      22.692191      10.005961      1.7554997    
     39300   19.65                192   312.47024     -911.57244      7.7144801     -903.85796      2.3514982      5921.4407      1.8828353      25.966646      22.741263      10.027599      1.6450139    
     39400   19.7                 192   286.73935     -911.8481       7.0792183     -904.76888     -2400.2693      5944.2921      1.8755972      26.000006      22.770479      10.040481      1.7332344    
     39500   19.75                192   307.98487     -912.80898      7.6037423     -905.20524      358.78404      5909.4475      1.8866565      25.949104      22.725899      10.020824      1.8617014    
     39600   19.8                 192   264.4248      -911.99647      6.5283013     -905.46817     -1150.7812      5874.2984      1.8979454      25.897553      22.680752      10.000917      1.5500006    
     39700   19.85                192   285.97839     -912.41697      7.0604312     -905.35654      3206.148       5813.7535      1.9177107      25.808273      22.602561      9.9664393      2.1555129    
     39800   19.9                 192   291.3272      -912.35072      7.1924861     -905.15823      326.73094      5840.3368      1.9089819      25.847549      22.636959      9.9816067      1.923465     
     39900   19.95                192   305.99794     -912.34359      7.5546875     -904.7889      -1750.9826      5874.3211      1.897938       25.897587      22.680781      10.00093       1.845361     
     40000   20                   192   313.22373     -912.23472      7.7330828     -904.50163     -788.35206      5877.6909      1.8968499      25.902538      22.685117      10.002842      1.8040377    
     40100   20.05                192   307.88931     -911.88262      7.6013831     -904.28124      1599.3549      5868.8816      1.8996971      25.889591      22.673778      9.9978421      2.2029675    
     40200   20.1                 192   313.93825     -911.86732      7.7507234     -904.11659     -2837.2146      5866.8124      1.9003671      25.886547      22.671113      9.9966669      2.5003293    
     40300   20.15                192   324.868       -912.06482      8.0205646     -904.04426      2348.5078      5812.0746      1.9182647      25.805788      22.600385      9.9654799      1.8265478    
     40400   20.2                 192   355.10191     -912.8751       8.7670002     -904.1081       723.61919      5803.24        1.921185       25.792706      22.588928      9.960428       1.4317363    
     40500   20.25                192   299.47436     -912.1883       7.3936291     -904.79467      1998.7848      5846.6824      1.9069101      25.856907      22.645154      9.9852204      1.3841645    
     40600   20.3                 192   286.65815     -912.46416      7.0772136     -905.38695     -841.6091       5924.6936      1.8818015      25.9714        22.745426      10.029435      1.6253368    
     40700   20.35                192   286.71754     -912.62477      7.0786797     -905.54609     -2077.7009      5977.2954      1.8652412      26.048035      22.812542      10.059029      1.4992535    
     40800   20.4                 192   285.1881      -912.58705      7.0409199     -905.54613     -1164.8061      5966.4516      1.8686312      26.032274      22.798739      10.052942      2.0747761    
     40900   20.45                192   293.59589     -912.56829      7.2484973     -905.31979      3416.8051      5926.3035      1.8812903      25.973752      22.747486      10.030343      1.8388838    
     41000   20.5                 192   292.64389     -912.15857      7.2249937     -904.93357     -3286.3675      5950.1543      1.8737493      26.00855       22.777961      10.043781      1.4511668    
     41100   20.55                192   334.31767     -912.79867      8.2538644     -904.54481      2200.4411      5924.8578      1.8817494      25.97164       22.745636      10.029527      1.735555     
     41200   20.6                 192   291.6092      -911.71011      7.1994484     -904.51066     -1258.6656      5931.7978      1.8795478      25.981777      22.754514      10.033442      1.6913307    
     41300   20.65                192   280.31223     -911.44605      6.920541      -904.52551     -2575.0654      5920.0489      1.8832779      25.964612      22.739481      10.026813      1.7229961    
     41400   20.7                 192   307.16197     -912.05968      7.583426      -904.47626      1980.17        5844.4423      1.9076409      25.853604      22.642262      9.983945       1.5847433    
     41500   20.75                192   314.72685     -912.24002      7.7701929     -904.46983     -766.69111      5807.7509      1.9196928      25.799387      22.594779      9.9630081      1.546859     
     41600   20.8                 192   306.40109     -912.25449      7.5646407     -904.68985      3338.0356      5791.46        1.9250927      25.775242      22.573633      9.9536838      1.9917646    
     41700   20.85                192   285.97887     -912.62176      7.0604431     -905.56132     -859.8244       5850.5401      1.9056527      25.862592      22.650133      9.9874161      1.6594968    
     41800   20.9                 192   285.46105     -913.13349      7.0476587     -906.08583      1986.6825      5903.6654      1.8885043      25.940637      22.718484      10.017555      1.3186113    
     41900   20.95                192   256.04303     -912.54831      6.3213664     -906.22694     -2161.6172      5979.5378      1.8645417      26.051292      22.815395      10.060287      1.3497655    
     42000   21                   192   272.9478      -912.67197      6.7387231     -905.93324      30.845923      6008.9305      1.8554213      26.093908      22.852717      10.076744      1.6817726    
     42100   21.05                192   276.27683     -912.28664      6.8209124     -905.46573     -1488.0664      6008.7122      1.8554887      26.093592      22.85244       10.076622      2.1780721    
     42200   21.1                 192   295.65224     -912.30689      7.2992659     -905.00762      970.91261      5966.5387      1.8686039      26.032401      22.798849      10.052991      2.0427278    
     42300   21.15                192   291.46839     -911.8793       7.1959722     -904.68333      938.32847      5944.4664      1.8755422      26.00026       22.770701      10.04058       1.5191898    
     42400   21.2                 192   261.21787     -910.96906      6.4491264     -904.51993      77.699584      5945.0247      1.875366       26.001074      22.771414      10.040894      2.1270903    
     42500   21.25                192   294.24597     -911.53297      7.2645468     -904.26842      88.795256      5928.3442      1.8806427      25.976733      22.750097      10.031494      1.5649984    
     42600   21.3                 192   332.84193     -912.23509      8.2174304     -904.01766      820.25378      5911.6958      1.885939       25.952394      22.728781      10.022095      1.3154109    
     42700   21.35                192   323.18125     -912.14631      7.9789209     -904.16738     -550.60401      5920.4686      1.8831444      25.965225      22.740018      10.02705       1.6142844    
     42800   21.4                 192   305.30831     -912.15962      7.5376615     -904.62196      498.40965      5928.3214      1.88065        25.9767        22.750068      10.031481      1.5995484    
     42900   21.45                192   279.2415      -912.04414      6.8941061     -905.15003      1165.5621      5951.6698      1.8732722      26.010758      22.779895      10.044634      1.6494843    
     43000   21.5                 192   270.68629     -912.02767      6.6828892     -905.34478     -423.5421       5994.0178      1.8600374      26.072304      22.833796      10.068401      1.7499324    
     43100   21.55                192   291.00611     -912.46045      7.1845589     -905.27589      614.70149      6035.0119      1.8474027      26.131606      22.885733      10.091302      1.2975454    
     43200   21.6                 192   288.62219     -912.18481      7.1257031     -905.05911     -1559.2784      6073.1509      1.8358011      26.186538      22.933841      10.112515      1.6360856    
     43300   21.65                192   299.42026     -912.21301      7.3922932     -904.82071     -936.55359      6062.5185      1.8390208      26.171248      22.92045       10.10661       1.4650206    
     43400   21.7                 192   296.82254     -911.92339      7.3281589     -904.59523     -412.36543      6019.8074      1.8520688      26.109643      22.866497      10.08282       1.5183545    
     43500   21.75                192   301.25892     -911.81779      7.4376873     -904.3801      -1629.623       5958.7914      1.8710334      26.021128      22.788977      10.048638      1.8449511    
     43600   21.8                 192   318.28005     -912.06612      7.8579169     -904.20821      1365.0685      5875.0338      1.8977078      25.898634      22.681698      10.001334      1.8887977    
     43700   21.85                192   306.7626      -911.65685      7.5735659     -904.08328      408.89955      5829.4898      1.912534       25.831537      22.622936      9.9754234      2.396146     
     43800   21.9                 192   300.78261     -911.62639      7.4259279     -904.20046      658.66283      5815.5982      1.9171024      25.811002      22.604951      9.9674933      1.6150793    
     43900   21.95                192   315.14108     -912.35182      7.7804197     -904.5714       490.74488      5827.6231      1.9131466      25.828779      22.620521      9.9743585      1.5656721    
     44000   22                   192   297.28623     -912.58214      7.3396068     -905.24253     -399.35042      5861.8563      1.9019739      25.879256      22.664727      9.9938512      1.460919     
     44100   22.05                192   279.89712     -912.48543      6.9102925     -905.57514     -931.83752      5892.2189      1.892173       25.923861      22.703792      10.011076      1.6892108    
     44200   22.1                 192   295.70313     -912.91036      7.3005223     -905.60984     -694.52043      5899.5771      1.889813       25.934648      22.713239      10.015242      1.5200328    
     44300   22.15                192   282.47246     -912.52096      6.9738744     -905.54709      1083.9542      5889.9313      1.8929079      25.920506      22.700854      10.009781      1.6235877    
     44400   22.2                 192   293.22297     -912.58175      7.2392904     -905.34246     -638.45556      5880.1281      1.8960637      25.906117      22.688252      10.004224      3.072135     
     44500   22.25                192   309.19943     -912.58308      7.6337282     -904.94935      1124.6112      5865.6017      1.9007594      25.884767      22.669554      9.9959792      2.3408855    
     44600   22.3                 192   329.14198     -912.54245      8.1260836     -904.41636     -532.08348      5876.0554      1.8973779      25.900135      22.683013      10.001914      1.6676139    
     44700   22.35                192   312.29816     -911.80048      7.7102318     -904.09024      1683.4683      5876.9726      1.8970818      25.901482      22.684193      10.002434      2.2579851    
     44800   22.4                 192   282.95363     -911.04278      6.9857538     -904.05703     -909.56565      5908.3405      1.88701        25.947483      22.72448       10.020199      1.9174522    
     44900   22.45                192   331.26904     -912.21868      8.1785978     -904.04008      872.63026      5931.04        1.8797879      25.98067       22.753545      10.033015      1.6052072    
     45000   22.5                 192   291.7831      -911.43267      7.2037418     -904.22892     -1010.3611      5948.3714      1.8743109      26.005952      22.775686      10.042778      1.5924893    
     45100   22.55                192   304.61927     -911.90414      7.5206501     -904.38349     -1139.1346      5936.5558      1.8780414      25.988722      22.760596      10.036124      1.5185027    
     45200   22.6                 192   306.27678     -912.22375      7.5615718     -904.66218     -644.10486      5898.5603      1.8901387      25.933158      22.711934      10.014667      1.5299372    
     45300   22.65                192   317.79361     -912.85713      7.8459072     -905.01122      1352.9114      5854.0236      1.9045187      25.867724      22.654628      9.9893979      2.0234442    
     45400   22.7                 192   271.87784     -912.11676      6.7123071     -905.40445     -792.71722      5834.7016      1.9108256      25.839233      22.629676      9.9783953      2.0814629    
     45500   22.75                192   282.42809     -912.51932      6.9727789     -905.54654      1577.3394      5802.8007      1.9213304      25.792055      22.588358      9.9601767      1.5083844    
     45600   22.8                 192   295.20866     -912.79369      7.2883145     -905.50537      0.65745048     5800.2074      1.9221894      25.788212      22.584993      9.9586927      1.6475782    
     45700   22.85                192   297.28387     -912.66977      7.3395487     -905.33022     -370.86807      5805.6922      1.9203735      25.796339      22.592109      9.9618308      1.2714597    
     45800   22.9                 192   301.16238     -912.35831      7.4353039     -904.923        341.18328      5810.6007      1.9187513      25.803606      22.598474      9.9646374      1.713568     
     45900   22.95                192   334.14896     -912.42897      8.2496994     -904.17927     -800.6533       5818.2442      1.9162306      25.814916      22.608379      9.9690048      1.5874678    
     46000   23                   192   327.00084     -911.87525      8.0732216     -903.80203      267.12398      5808.8984      1.9193136      25.801086      22.596267      9.9636642      1.7964945    
     46100   23.05                192   325.20913     -911.81009      8.0289867     -903.78111      1890.2913      5818.3117      1.9162083      25.815016      22.608467      9.9690433      1.6030228    
     46200   23.1                 192   330.46562     -912.13309      8.1587624     -903.97433      450.21218      5875.0286      1.8977095      25.898626      22.681692      10.001331      1.8325908    
     46300   23.15                192   316.45727     -912.12768      7.8129147     -904.31477     -1375.0147      5938.6232      1.8773876      25.991738      22.763238      10.037289      1.7578254    
     46400   23.2                 192   298.59778     -912.20434      7.3719874     -904.83235      1246.3354      5978.9898      1.8647126      26.050496      22.814697      10.059979      1.5552407    
     46500   23.25                192   268.89687     -911.75955      6.6387109     -905.12084     -2240.9096      6036.61        1.8469137      26.133913      22.887753      10.092193      1.5192611    
     46600   23.3                 192   287.20912     -912.21678      7.0908162     -905.12596      385.05338      6042.8414      1.8450091      26.142902      22.895625      10.095664      1.7347339    
     46700   23.35                192   288.6754      -912.15434      7.1270168     -905.02733     -338.5904       6030.7284      1.8487149      26.125422      22.880317      10.088914      1.6497913    
     46800   23.4                 192   314.58734     -912.56901      7.7667486     -904.80226     -39.289579      6009.18        1.8553442      26.094269      22.853033      10.076883      1.6812394    
     46900   23.45                192   313.09532     -912.23956      7.7299125     -904.50964     -3140.1037      5986.8049      1.8622784      26.061842      22.824634      10.064361      2.1429675    
     47000   23.5                 192   327.0075      -912.14698      8.0733861     -904.0736       1787.7356      5916.524       1.8843999      25.959457      22.734967      10.024823      1.4738333    
     47100   23.55                192   328.15807     -911.79329      8.1017921     -903.69149      3275.8481      5906.1453      1.8877113      25.944269      22.721665      10.018957      1.9752892    
     47200   23.6                 192   315.89942     -911.42804      7.7991421     -903.6289      -487.91357      5962.3922      1.8699034      26.026369      22.793567      10.050662      1.9340008    
     47300   23.65                192   321.16582     -911.88336      7.9291626     -903.9542      -1034.4116      5995.6327      1.8595364      26.074645      22.835847      10.069305      1.8990658    
     47400   23.7                 192   306.69822     -912.23926      7.5719765     -904.66728     -762.49495      6004.1561      1.8568967      26.086995      22.846663      10.074074      1.5921458    
     47500   23.75                192   303.09014     -912.65839      7.4828978     -905.17549      623.29533      5992.9044      1.860383       26.070689      22.832382      10.067777      1.8644341    
     47600   23.8                 192   299.45939     -912.95425      7.3932594     -905.56099     -2396.7559      5969.5557      1.8676595      26.036788      22.802692      10.054686      1.5406076    
     47700   23.85                192   285.77427     -912.85579      7.0553916     -905.8004      -457.12383      5890.1077      1.8928512      25.920765      22.70108       10.009881      1.6800299    
     47800   23.9                 192   269.71059     -912.36599      6.6588004     -905.70719      2461.7773      5809.2031      1.9192129      25.801537      22.596662      9.9638384      1.735821     
     47900   23.95                192   286.02841     -912.46062      7.0616661     -905.39895      578.42813      5778.7657      1.9293216      25.756396      22.557128      9.9464061      2.0633456    
     48000   24                   192   284.48189     -911.98767      7.0234845     -904.96418     -650.43251      5777.0229      1.9299036      25.753806      22.55486       9.945406       2.5564092    
     48100   24.05                192   313.22377     -912.25114      7.7330838     -904.51805      1522.5911      5794.387       1.9241203      25.779584      22.577436      9.9553605      1.4837859    
     48200   24.1                 192   321.632       -912.28604      7.940672      -904.34536     -237.09796      5852.0112      1.9051736      25.86476       22.652032      9.9882531      1.801659     
     48300   24.15                192   312.61493     -912.02251      7.7180524     -904.30446     -1879.7688      5912.3404      1.8857334      25.953337      22.729607      10.022459      1.9543458    
     48400   24.2                 192   294.26248     -911.62202      7.2649545     -904.35707     -1368.6702      5917.5227      1.8840819      25.960918      22.736246      10.025387      1.9014539    
     48500   24.25                192   294.63539     -911.64143      7.2741611     -904.36727      2378.4593      5885.146       1.894447       25.913484      22.694704      10.007069      1.7343354    
     48600   24.3                 192   306.58839     -911.87808      7.5692649     -904.30882      1.2181363      5893.205       1.8918564      25.925307      22.705059      10.011635      1.4174866    
     48700   24.35                192   309.4085      -911.93529      7.6388898     -904.2964      -1083.0782      5901.7448      1.8891189      25.937824      22.716021      10.016469      1.7049388    
     48800   24.4                 192   309.7641      -912.19671      7.6476692     -904.54904     -1106.0139      5869.1626      1.8996062      25.890004      22.67414       9.9980016      1.912462     
     48900   24.45                192   279.65791     -912.12562      6.9043867     -905.22124      1009.451       5818.7645      1.9160592      25.815685      22.609053      9.969302       1.3001764    
     49000   24.5                 192   290.05045     -912.79389      7.160965      -905.63292      216.61484      5794.9733      1.9239256      25.780453      22.578197      9.9556962      1.8140255    
     49100   24.55                192   279.09917     -912.70406      6.8905923     -905.81346      3615.8728      5800.0659      1.9222363      25.788003      22.584809      9.9586117      1.2456039    
     49200   24.6                 192   300.08172     -913.10058      7.4086238     -905.69195     -3831.802       5868.0547      1.8999648      25.888375      22.672713      9.9973725      1.3727417    
     49300   24.65                192   323.39957     -913.32857      7.9843109     -905.34426      1508.057       5872.612       1.8984904      25.895075      22.678581      9.9999599      1.6378776    
     49400   24.7                 192   287.50086     -912.08682      7.098019      -904.9888      -194.76795      5906.23        1.8876843      25.944393      22.721774      10.019005      2.017876     
     49500   24.75                192   299.75596     -912.01448      7.4005814     -904.61389      572.05467      5960.9377      1.8703597      26.024252      22.791713      10.049845      1.6553283    
     49600   24.8                 192   318.31295     -912.11019      7.8587289     -904.25146     -1187.2563      6020.7511      1.8517785      26.111007      22.867692      10.083347      1.3865852    
     49700   24.85                192   313.11059     -911.90903      7.7302897     -904.17874     -1862.8199      6031.1987      1.8485707      26.126102      22.880912      10.089176      1.7577195    
     49800   24.9                 192   278.11918     -911.08806      6.8663977     -904.22166      1338.6288      6003.4679      1.8571095      26.085998      22.84579       10.073689      1.9204719    
     49900   24.95                192   299.33279     -911.63265      7.3901337     -904.24252     -1428.4139      5981.6782      1.8638745      26.0544        22.818116      10.061487      1.5160208    
     50000   25                   192   299.37949     -911.77347      7.3912867     -904.38218      1833.2944      5939.5537      1.8770935      25.993096      22.764427      10.037813      1.5791966    
     50100   25.05                192   303.12349     -912.03282      7.4837212     -904.5491      -228.77448      5927.0284      1.8810602      25.974811      22.748414      10.030752      1.9678366    
     50200   25.1                 192   282.07559     -911.8003       6.9640761     -904.83622      3037.0311      5933.6073      1.8789746      25.984418      22.756827      10.034462      1.8059079    
     50300   25.15                192   290.61234     -912.31707      7.1748373     -905.14223     -3408.2669      5993.112       1.8603185      26.07099       22.832646      10.067894      1.3348395    
     50400   25.2                 192   283.65002     -912.8042       7.0029467     -905.80125      447.87376      5987.1848      1.8621602      26.062393      22.825116      10.064574      1.5012125    
     50500   25.25                192   254.59349     -912.71756      6.2855791     -906.43198     -3302.6981      5963.1156      1.8696765      26.027421      22.794489      10.051069      1.3342486    
     50600   25.3                 192   267.83198     -913.04014      6.6124202     -906.42772      2548.4918      5876.5637      1.8972137      25.900882      22.683667      10.002202      1.8391604    
     50700   25.35                192   279.23232     -913.00327      6.8938796     -906.1094      -492.37765      5837.4578      1.9099234      25.843301      22.633238      9.9799663      1.4387723    
     50800   25.4                 192   303.42408     -913.17702      7.4911424     -905.68588      1824.19        5815.221       1.9172268      25.810444      22.604463      9.9672779      1.8592458    
     50900   25.45                192   299.53315     -912.71803      7.3950805     -905.32295     -2243.6876      5830.5277      1.9121936      25.83307       22.624278      9.9760154      1.5515112    
     51000   25.5                 192   292.53993     -912.30653      7.2224271     -905.0841       134.39516      5808.038       1.9195979      25.799812      22.595152      9.9631723      1.7819394    
     51100   25.55                192   304.103       -912.43299      7.5079041     -904.92508      1414.0935      5765.6193      1.9337207      25.73685       22.54001       9.9388578      1.6311391    
     51200   25.6                 192   292.96754     -912.03336      7.2329842     -904.80038      2828.8381      5759.2659      1.9358539      25.727393      22.531727      9.9352058      1.6697271    
     51300   25.65                192   286.06762     -911.73669      7.0626341     -904.67405     -1917.9077      5811.7039      1.9183871      25.805239      22.599904      9.965268       1.7252282    
     51400   25.7                 192   295.36401     -911.74967      7.2921497     -904.45752      3708.3568      5845.3185      1.907355       25.854896      22.643393      9.984444       1.752523     
     51500   25.75                192   303.01777     -911.48646      7.4811111     -904.00535     -4358.3294      5934.3229      1.878748       25.985463      22.757742      10.034865      2.3161783    
     51600   25.8                 192   322.82254     -911.44531      7.970065      -903.47525     -1095.3652      5935.8806      1.878255       25.987736      22.759733      10.035743      1.8815586    
     51700   25.85                192   354.91722     -911.92082      8.7624404     -903.15838      499.46718      5902.8148      1.8887764      25.939392      22.717393      10.017074      1.5121316    
     51800   25.9                 192   328.7568      -911.60629      8.1165739     -903.48972     -1806.2845      5886.3063      1.8940736      25.915187      22.696195      10.007727      1.8506581    
     51900   25.95                192   312.59731     -912.15528      7.7176173     -904.43766      336.2052       5836.595       1.9102058      25.842028      22.632123      9.9794746      1.670096     
     52000   26                   192   317.46519     -912.73275      7.8377989     -904.89495      335.0924       5789.3226      1.9258035      25.772071      22.570856      9.9524592      1.5946584    
     52100   26.05                192   303.52521     -912.62714      7.4936391     -905.1335       1339.1467      5764.5335      1.9340849      25.735234      22.538595      9.9382339      1.6892695    
     52200   26.1                 192   276.04586     -912.11714      6.8152099     -905.30193      938.65456      5793.842       1.9243012      25.778775      22.576728      9.9550483      1.6692145    
     52300   26.15                192   295.37753     -912.49113      7.2924837     -905.19864     -2055.632       5850.9361      1.9055237      25.863176      22.650644      9.9876414      2.2119924    
     52400   26.2                 192   283.6943      -912.00895      7.0040399     -905.00491     -703.66713      5867.1088      1.9002711      25.886983      22.671495      9.9968353      2.1830208    
     52500   26.25                192   292.23503     -911.79864      7.2148994     -904.58374      135.06087      5862.4271      1.9017887      25.880096      22.665463      9.9941756      2.3176085    
     52600   26.3                 192   295.8039      -911.41907      7.3030101     -904.11606      224.0633       5853.4101      1.9047183      25.866821      22.653837      9.989049       2.1948637    
     52700   26.35                192   310.4186      -911.44995      7.663828      -903.78612     -1338.7317      5839.3131      1.9093166      25.846038      22.635636      9.9810235      2.179839     
     52800   26.4                 192   332.72469     -911.85548      8.214536      -903.64094      2053.4867      5811.8328      1.9183445      25.80543       22.600072      9.9653417      2.3348108    
     52900   26.45                192   315.62787     -911.50414      7.792438      -903.7117      -158.66478      5827.2586      1.9132663      25.828241      22.620049      9.9741506      1.8797981    
     53000   26.5                 192   327.45248     -912.01968      8.0843719     -903.9353       667.39684      5850.3526      1.9057138      25.862316      22.649891      9.9873094      1.7630743    
     53100   26.55                192   302.74214     -911.97177      7.4743061     -904.49746     -1632.7434      5876.8939      1.8971071      25.901367      22.684092      10.00239       1.4613974    
     53200   26.6                 192   325.64851     -912.99207      8.0398342     -904.95224     -456.69446      5867.7821      1.9000531      25.887974      22.672362      9.9972177      2.1088684    
     53300   26.65                192   313.68681     -912.92571      7.7445157     -905.1812      -1305.4432      5844.7506      1.9075403      25.854059      22.64266       9.9841206      1.6039648    
     53400   26.7                 192   296.02865     -912.56176      7.3085589     -905.2532      -927.39866      5797.3724      1.9231294      25.78401       22.581312      9.9570699      2.1717124    
     53500   26.75                192   303.08234     -912.69121      7.4827053     -905.20851      1604.931       5746.8662      1.9400308      25.708916      22.515546      9.9280705      1.8142864    
     53600   26.8                 192   270.98576     -911.84322      6.6902827     -905.15294      968.3459       5744.4236      1.9408557      25.705273      22.512355      9.9266637      2.2100056    
     53700   26.85                192   296.38221     -912.11674      7.3172878     -904.79945     -63.791609      5767.1731      1.9331997      25.739161      22.542034      9.9397505      1.8224459    
     53800   26.9                 192   306.25349     -911.94862      7.5609967     -904.38763      1219.8132      5791.0428      1.9252314      25.774623      22.573091      9.9534449      2.3089967    
     53900   26.95                192   334.77196     -912.39017      8.2650803     -904.12509     -647.9444       5829.1045      1.9126604      25.830968      22.622437      9.9752036      1.9436904    
     54000   27                   192   311.39341     -911.88198      7.6878947     -904.19408     -363.95841      5840.6058      1.908894       25.847945      22.637306      9.9817599      2.437241     
     54100   27.05                192   284.58296     -911.48609      7.0259797     -904.46011      1433.8237      5827.9816      1.9130289      25.829309      22.620984      9.9745631      1.5241698    
     54200   27.1                 192   310.10095     -912.45845      7.6559855     -904.80246     -696.45771      5831.9507      1.911727       25.835171      22.626119      9.9768269      1.3480489    
     54300   27.15                192   286.03309     -912.58388      7.0617816     -905.5221      -863.33023      5814.4062      1.9174955      25.809238      22.603407      9.9668123      1.3865027    
     54400   27.2                 192   290.26428     -913.22927      7.1662441     -906.06302      1656.4812      5779.9494      1.9289265      25.758155      22.558668      9.9470852      1.4417367    
     54500   27.25                192   281.21142     -913.12447      6.942741      -906.18173      1644.4908      5799.024       1.9225817      25.786458      22.583456      9.9580153      1.4564608    
     54600   27.3                 192   285.25404     -913.08824      7.042548      -906.04569     -1984.302       5865.9149      1.9006579      25.885227      22.669957      9.9961572      1.5832987    
     54700   27.35                192   276.98826     -912.60067      6.8384768     -905.7622      -1284.8174      5891.7855      1.8923122      25.923226      22.703235      10.010831      1.6365294    
     54800   27.4                 192   283.75478     -912.36433      7.0055332     -905.3588      -1501.4784      5873.2114      1.8982966      25.895956      22.679353      10.0003        2.1546596    
     54900   27.45                192   269.29488     -911.57993      6.6485372     -904.93139      1469.1476      5829.7584      1.9124459      25.831934      22.623283      9.9755766      1.8307019    
     55000   27.5                 192   285.27559     -911.6448       7.04308       -904.60172     -764.00853      5798.4079      1.922786       25.785545      22.582657      9.9576627      1.8666836    
     55100   27.55                192   318.28818     -912.17488      7.8581174     -904.31677      2837.7822      5767.0057      1.9332558      25.738912      22.541816      9.9396544      1.4869539    
     55200   27.6                 192   309.1196      -911.93422      7.6317573     -904.30246     -1618.2631      5794.0736      1.9242243      25.779119      22.577028      9.955181       1.9579316    
     55300   27.65                192   332.9646      -912.6349       8.2204589     -904.41445      1253.1557      5810.7403      1.9187052      25.803813      22.598655      9.9647172      1.8495896    
     55400   27.7                 192   291.84171     -912.03446      7.2051888     -904.82927      883.27092      5851.7893      1.9052459      25.864433      22.651745      9.9881269      1.8285399    
     55500   27.75                192   286.75184     -912.43596      7.0795267     -905.35643     -368.02652      5921.2603      1.8828926      25.966382      22.741032      10.027497      2.0276793    
     55600   27.8                 192   263.6396      -912.04189      6.5089157     -905.53297     -1320.7248      5969.8844      1.8675567      26.037266      22.80311       10.05487       2.779059     
     55700   27.85                192   260.61146     -911.8996       6.4341549     -905.46545     -1067.4312      5966.1945      1.8687117      26.0319        22.798411      10.052798      2.0195893    
     55800   27.9                 192   311.05832     -912.91818      7.6796216     -905.23855      956.64564      5929.5653      1.8802554      25.978517      22.751659      10.032183      1.5658524    
     55900   27.95                192   291.27306     -912.28419      7.1911496     -905.09304     -577.19629      5902.5147      1.8888725      25.938952      22.717008      10.016904      1.4249309    
     56000   28                   192   295.09218     -912.26142      7.2854386     -904.97598     -256.13459      5867.2449      1.9002271      25.887184      22.67167       9.9969126      1.8051183    
     56100   28.05                192   309.97006     -912.51719      7.652754      -904.86444      311.98289      5829.1559      1.9126435      25.831044      22.622504      9.975233       1.7159572    
     56200   28.1                 192   292.37623     -912.03588      7.2183854     -904.81749     -624.78587      5801.6301      1.9217181      25.790321      22.586839      9.9595069      1.7109082    
     56300   28.15                192   287.9584      -911.70846      7.1093149     -904.59914      1710.0748      5772.5119      1.9314118      25.747101      22.548988      9.9428168      2.1014487    
     56400   28.2                 192   327.40472     -912.5321       8.083193      -904.44891      322.99329      5786.1675      1.9268536      25.767388      22.566755      9.9506509      1.5178436    
     56500   28.25                192   301.53589     -912.04142      7.4445255     -904.59689     -845.83751      5809.7462      1.9190335      25.802341      22.597367      9.9641489      1.2917627    
     56600   28.3                 192   310.4842      -912.65754      7.6654475     -904.99209     -2020.997       5804.8857      1.9206403      25.795144      22.591063      9.9613694      1.7142158    
     56700   28.35                192   269.3746      -912.30252      6.6505054     -905.65201      2989.8313      5771.642       1.9317029      25.745808      22.547855      9.9423173      2.0681541    
     56800   28.4                 192   283.46268     -912.92694      6.9983215     -905.92862     -1954.4956      5777.9463      1.9295952      25.755179      22.556062      9.9459359      1.4029981    
     56900   28.45                192   286.78337     -912.93837      7.0803052     -905.85806      1320.8395      5758.4434      1.9361304      25.726168      22.530655      9.9347328      1.7932607    
     57000   28.5                 192   293.27731     -912.85384      7.2406319     -905.61321      2177.9058      5762.1497      1.9348851      25.731686      22.535487      9.9368637      2.4112623    
     57100   28.55                192   297.01933     -912.70009      7.3330175     -905.36707      98.028983      5808.8417      1.9193323      25.801002      22.596194      9.9636318      1.5008649    
     57200   28.6                 192   305.94965     -912.49671      7.5534953     -904.94322     -3148.3327      5852.709       1.9049465      25.865788      22.652932      9.9886501      1.6255873    
     57300   28.65                192   318.79064     -912.5799       7.8705226     -904.70937     -1013.4984      5818.5457      1.9161313      25.815362      22.60877       9.969177       1.7069004    
     57400   28.7                 192   292.51399     -911.87542      7.2217865     -904.65363     -76.971686      5752.789       1.9380334      25.717745      22.523278      9.93148        1.5875289    
     57500   28.75                192   318.36819     -912.47536      7.8600927     -904.61527     -345.87279      5684.5263      1.9613063      25.615617      22.433836      9.8920412      1.9828971    
     57600   28.8                 192   314.12735     -912.82497      7.7553921     -905.06958      2497.2671      5631.9979      1.979599       25.536472      22.364521      9.8614774      2.3383651    
     57700   28.85                192   266.39432     -912.50777      6.5769262     -905.93084     -435.78866      5649.8481      1.9733446      25.563422      22.388124      9.8718848      1.9189319    
     57800   28.9                 192   290.73462     -913.21651      7.1778563     -906.03865      215.67675      5684.0061      1.9614858      25.614836      22.433152      9.8917395      1.5521358    
     57900   28.95                192   283.62805     -912.87107      7.0024044     -905.86866     -1000.3307      5724.7108      1.947539       25.675835      22.486574      9.9152958      1.6370732    
     58000   29                   192   287.99649     -912.63928      7.1102555     -905.52903     -2572.874       5729.7135      1.9458386      25.683312      22.493122      9.9181832      1.7591017    
     58100   29.05                192   311.09134     -912.74519      7.6804369     -905.06475      3616.2372      5678.723       1.9633107      25.606897      22.426199      9.8886738      1.8873429    
     58200   29.1                 192   312.847       -912.46881      7.7237819     -904.74503      89.915501      5681.1109      1.9624854      25.610486      22.429342      9.8900597      1.5263269    
     58300   29.15                192   308.81028     -912.30319      7.6241206     -904.67907      2582.3735      5703.4995      1.9547819      25.644085      22.458767      9.9030345      1.7857873    
     58400   29.2                 192   312.07406     -912.46955      7.704699      -904.76485     -1217.3996      5777.6693      1.9296877      25.754767      22.555701      9.945777       2.095666     
     58500   29.25                192   308.89542     -912.64266      7.6262225     -905.01644     -344.94338      5825.3335      1.9138986      25.825396      22.617558      9.9730521      1.5810304    
     58600   29.3                 192   274.49971     -912.24428      6.7770376     -905.46725     -216.02503      5858.3527      1.9031113      25.874099      22.660211      9.9918597      1.714894     
     58700   29.35                192   299.23451     -913.00798      7.3877075     -905.62027     -2896.8453      5871.2548      1.8989292      25.89308       22.676834      9.9991895      1.6873593    
     58800   29.4                 192   278.94304     -912.57474      6.8867375     -905.688        357.75236      5809.9718      1.918959       25.802675      22.597659      9.9642779      1.4260955    
     58900   29.45                192   288.35344     -912.48901      7.1190681     -905.36994      1733.5742      5760.3044      1.9355049      25.728939      22.533082      9.9358029      2.2193407    
     59000   29.5                 192   308.06111     -912.28776      7.6056245     -904.68214     -396.90864      5754.749       1.9373734      25.720665      22.525835      9.9326077      1.8477955    
     59100   29.55                192   312.13127     -911.99635      7.7061114     -904.29024      2169.2094      5760.1714      1.9355496      25.728741      22.532908      9.9357264      2.081006     
     59200   29.6                 192   294.62668     -911.44436      7.2739461     -904.17041     -568.13412      5798.2964      1.9228229      25.78538       22.582512      9.9575989      1.8215       
     59300   29.65                192   323.13469     -912.13784      7.9777714     -904.16007      1622.3984      5836.1354      1.9103562      25.841349      22.631529      9.9792126      2.0231903    
     59400   29.7                 192   297.38328     -911.69253      7.342003      -904.35052     -1680.6247      5898.6182      1.8901202      25.933243      22.712008      10.014699      1.8797715    
     59500   29.75                192   300.54433     -912.05177      7.4200451     -904.63173     -2243.4951      5916.5594      1.8843887      25.959509      22.735012      10.024843      1.7653723    
     59600   29.8                 192   305.18367     -912.54193      7.5345844     -905.00734     -1053.4911      5881.7862      1.8955292      25.908552      22.690385      10.005165      2.1245826    
     59700   29.85                192   295.49147     -912.67235      7.2952967     -905.37705      2157.6248      5828.856       1.912742       25.830601      22.622116      9.9750619      1.6072984    
     59800   29.9                 192   290.90659     -912.96797      7.1821021     -905.78587     -786.00282      5818.9989      1.9159821      25.816032      22.609357      9.9694358      1.699323     
     59900   29.95                192   271.05487     -912.79901      6.691989      -906.10702      1896.2476      5808.5005      1.919445       25.800497      22.595751      9.9634367      2.0167769    
     60000   30                   192   269.21736     -912.8066       6.6466232     -906.15998     -1783.1939      5818.8505      1.9160309      25.815812      22.609164      9.9693511      1.8382692    
     60100   30.05                192   281.29054     -912.72857      6.9446942     -905.78388      2710.3314      5806.5274      1.9200973      25.797575      22.593193      9.9623084      1.6048441    
     60200   30.1                 192   313.55357     -912.5731       7.7412261     -904.83187     -1376.0457      5845.1525      1.9074092      25.854651      22.643179      9.9843494      1.654589     
     60300   30.15                192   303.58717     -911.92667      7.4951689     -904.4315      -1409.897       5855.4825      1.9040442      25.869873      22.65651       9.9902277      2.0970325    
     60400   30.2                 192   311.24468     -911.92282      7.6842228     -904.23859      904.1282       5846.6222      1.9069297      25.856818      22.645076      9.9851862      1.9129652    
     60500   30.25                192   302.85411     -911.54421      7.4770706     -904.06714      1208.5773      5871.4818      1.8988558      25.893413      22.677126      9.9993184      2.1450737    
     60600   30.3                 192   312.15129     -911.7984       7.7066057     -904.09179     -902.92597      5919.0729      1.8835885      25.963185      22.738231      10.026262      1.840063     
     60700   30.35                192   305.36111     -911.97245      7.5389652     -904.43349     -3770.8494      5920.2618      1.8832102      25.964923      22.739753      10.026933      2.5479721    
     60800   30.4                 192   288.21397     -911.97194      7.1156247     -904.85632      499.02879      5848.6534      1.9062674      25.859812      22.647698      9.9863424      2.1163668    
     60900   30.45                192   283.3394      -912.22597      6.995278      -905.23069     -694.42613      5789.266       1.9258223      25.771987      22.570782      9.9524268      1.7522554    
     61000   30.5                 192   288.2934      -912.38919      7.1175858     -905.27161      2348.5824      5734.324       1.9442741      25.690199      22.499154      9.9208428      1.2248425    
     61100   30.55                192   303.40913     -912.67782      7.4907733     -905.18705     -150.30774      5727.3863      1.9466292      25.679835      22.490077      9.9168402      1.8959899    
     61200   30.6                 192   290.74739     -912.32695      7.1781715     -905.14878      2999.7237      5717.4089      1.9500263      25.664914      22.477009      9.9110783      2.409456     
     61300   30.65                192   285.17181     -912.1675       7.0405178     -905.12698     -534.0137       5741.1479      1.9419631      25.700386      22.508075      9.9247765      2.1821109    
     61400   30.7                 192   308.02722     -912.65474      7.6047878     -905.04995      1997.0989      5757.434       1.9364698      25.724665      22.529338      9.9341523      2.0152853    
     61500   30.75                192   295.49186     -912.29248      7.2953062     -904.99718     -1862.4281      5799.858       1.9223053      25.787695      22.584539      9.9584927      1.6093352    
     61600   30.8                 192   311.78625     -912.68813      7.6975935     -904.99053      1072.9177      5804.1891      1.9208708      25.794112      22.590159      9.960971       2.6914772    
     61700   30.85                192   304.98574     -912.7005       7.5296978     -905.1708      -4188.8181      5802.5796      1.9214036      25.791728      22.588071      9.9600502      1.6339464    
     61800   30.9                 192   261.82015     -911.78854      6.463996      -905.32455      3421.1992      5733.5765      1.9445275      25.689083      22.498176      9.9204116      3.1768413    
     61900   30.95                192   284.12976     -912.15278      7.0147909     -905.13799      1791.9057      5729.2828      1.9459848      25.682669      22.492559      9.9179347      1.9937582    
     62000   31                   192   281.50488     -911.75582      6.9499862     -904.80584     -2080.0817      5773.9512      1.9309303      25.749241      22.550862      9.9436431      2.3494365    
     62100   31.05                192   298.63285     -911.77477      7.3728532     -904.40191      1378.2604      5776.082       1.930218       25.752408      22.553636      9.9448661      1.8671725    
     62200   31.1                 192   324.4689      -912.12252      8.0107115     -904.11181     -3129.8207      5777.8215      1.9296369      25.754993      22.5559        9.9458643      2.2832223    
     62300   31.15                192   324.51498     -912.25405      8.011849      -904.2422       1909.9181      5730.1496      1.9456905      25.683964      22.493693      9.9184348      1.9980844    
     62400   31.2                 192   302.68644     -912.22548      7.4729309     -904.75255     -2527.3551      5702.3748      1.9551674      25.642399      22.457291      9.9023835      1.9775435    
     62500   31.25                192   298.97104     -912.61523      7.3812025     -905.23403      2144.4298      5641.4498      1.9762823      25.550749      22.377025      9.866991       2.601726     
     62600   31.3                 192   302.57991     -912.85848      7.470301      -905.38818     -170.77524      5604.1891      1.989422       25.494372      22.327651      9.8452198      1.6296359    
     62700   31.35                192   304.67889     -912.91953      7.5221221     -905.39741      3575.3759      5589.7197      1.9945718      25.472412      22.308419      9.8367394      1.6009538    
     62800   31.4                 192   280.80081     -912.32159      6.9326035     -905.38898     -2130.3139      5639.85        1.9768429      25.548334      22.37491       9.8660582      1.9795057    
     62900   31.45                192   288.5081      -912.39801      7.1228863     -905.27512      1419.31        5667.7675      1.9671057      25.59042       22.411768      9.8823106      1.8713701    
     63000   31.5                 192   278.3101      -911.88481      6.8711111     -905.0137      -2422.6779      5693.8905      1.9580807      25.629675      22.446148      9.89747        1.6017498    
     63100   31.55                192   324.83923     -912.61151      8.0198544     -904.59166      2780.9173      5676.9279      1.9639315      25.604199      22.423836      9.8876317      1.6987791    
     63200   31.6                 192   326.92336     -912.49335      8.0713087     -904.42204     -2391.5081      5712.2618      1.9517833      25.65721       22.470263      9.9081033      1.5847297    
     63300   31.65                192   315.66204     -912.48419      7.7932815     -904.69091      2826.4264      5725.6524      1.9472187      25.677243      22.487807      9.9158394      1.4022588    
     63400   31.7                 192   302.97474     -912.53863      7.4800488     -905.05858     -2718.6928      5783.6552      1.9276905      25.763658      22.563488      9.9492106      1.5001289    
     63500   31.75                192   289.33732     -912.54299      7.1433587     -905.39963     -1004.0166      5793.7813      1.9243214      25.778685      22.576649      9.9550135      1.8403933    
     63600   31.8                 192   278.67779     -912.51432      6.880189      -905.63413      446.89896      5776.1098      1.9302087      25.75245       22.553672      9.944882       1.8407172    
     63700   31.85                192   300.99155     -913.06471      7.4310863     -905.63362      105.24161      5753.6658      1.9377381      25.719051      22.524422      9.9319845      1.8069074    
     63800   31.9                 192   277.73823     -912.45102      6.8569925     -905.59403      43.481648      5741.3496      1.9418949      25.700687      22.508339      9.9248927      1.6707584    
     63900   31.95                192   285.84277     -912.44397      7.0570828     -905.38689     -335.76165      5748.1033      1.9396133      25.71076       22.517161      9.9287828      2.1552038    
     64000   32                   192   310.64352     -912.67472      7.6693808     -905.00534      1195.4275      5749.573       1.9391175      25.712951      22.51908       9.9296289      1.6195769    
     64100   32.05                192   316.77828     -912.57055      7.8208401     -904.74971     -907.9244       5777.9951      1.9295789      25.755251      22.556126      9.9459639      1.7573648    
     64200   32.1                 192   297.05964     -911.95877      7.3340127     -904.62476     -23.520378      5798.7578      1.92267        25.786064      22.583111      9.957863       1.6697699    
     64300   32.15                192   294.23473     -911.83863      7.2642693     -904.57436     -2317.2686      5803.673       1.9210416      25.793348      22.58949       9.9606757      1.7896926    
     64400   32.2                 192   319.97376     -912.35702      7.8997323     -904.45729     -1261.4433      5752.7607      1.938043       25.717703      22.523241      9.9314637      1.499545     
     64500   32.25                192   315.30856     -911.91517      7.7845546     -904.13062      2811.1117      5670.377       1.9662004      25.594346      22.415207      9.883827       1.8313577    
     64600   32.3                 192   340.64693     -912.17526      8.4101257     -903.76513      2707.5156      5651.6784      1.9727056      25.566182      22.390541      9.8729507      1.7251122    
     64700   32.35                192   312.73743     -911.54662      7.7210767     -903.82554      27.82219       5702.0223      1.9552883      25.64187       22.456828      9.9021795      1.5349356    
     64800   32.4                 192   340.79047     -912.51773      8.4136695     -904.10406     -853.63928      5753.1952      1.9378966      25.71835       22.523808      9.9317138      1.7936444    
     64900   32.45                192   300.65052     -912.28877      7.4226669     -904.8661       519.92343      5803.6775      1.9210401      25.793354      22.589496      9.9606783      2.1652466    
     65000   32.5                 192   292.79954     -912.47464      7.2288364     -905.24581     -2206.5484      5875.7007      1.8974924      25.899614      22.682556      10.001713      1.5565756    
     65100   32.55                192   279.11699     -912.20903      6.8910323     -905.318       -1698.6469      5908.7965      1.8868644      25.948151      22.725064      10.020456      1.8446495    
     65200   32.6                 192   311.48512     -912.87224      7.6901589     -905.18208     -2482.8926      5891.9604      1.892256       25.923482      22.70346       10.01093       1.516171     
     65300   32.65                192   300.7823      -912.43178      7.4259204     -905.00586      109.40537      5822.5592      1.9148105      25.821296      22.613967      9.9714687      2.1513248    
     65400   32.7                 192   317.19256     -912.59156      7.8310681     -904.76049      2709.2399      5774.4601      1.9307601      25.749998      22.551525      9.9439352      2.4723822    
     65500   32.75                192   301.18994     -912.14127      7.4359843     -904.70529     -69.676741      5791.0033      1.9252445      25.774565      22.57304       9.9534222      2.9053003    
     65600   32.8                 192   290.32258     -911.96211      7.1676836     -904.79443     -1722.017       5803.0039      1.9212631      25.792356      22.588622      9.9602929      1.5891502    
     65700   32.85                192   294.63375     -912.20546      7.2741206     -904.93134     -91.017959      5783.6354      1.9276971      25.763629      22.563463      9.9491992      1.7240868    
     65800   32.9                 192   296.44519     -912.4118       7.3188426     -905.09295     -797.31127      5758.3021      1.9361779      25.725957      22.53047       9.9346515      1.8291513    
     65900   32.95                192   295.13084     -912.50468      7.2863932     -905.21829      2172.1484      5725.1289      1.9473967      25.67646       22.487122      9.9155372      1.921        
     66000   33                   192   309.27446     -913.01989      7.6355805     -905.38431     -1881.6651      5725.6568      1.9472172      25.67725       22.487813      9.9158419      1.7873184    
     66100   33.05                192   284.09832     -912.65947      7.0140146     -905.64546      494.81097      5701.9111      1.9553264      25.641704      22.456682      9.9021151      1.7837262    
     66200   33.1                 192   260.25229     -912.20483      6.4252876     -905.77954      338.34277      5671.9826      1.9656438      25.596762      22.417323      9.8847598      1.8997683    
     66300   33.15                192   284.65838     -912.53041      7.0278419     -905.50257      2912.9182      5631.2287      1.9798694      25.535309      22.363503      9.8610285      2.4708349    
     66400   33.2                 192   296.73821     -912.36617      7.326077      -905.04009      375.76648      5642.2049      1.9760178      25.551889      22.378024      9.8674312      1.9685238    
     66500   33.25                192   316.50681     -912.44953      7.8141379     -904.6354       1492.8934      5676.0181      1.9642463      25.602831      22.422638      9.8871035      2.7317141    
     66600   33.3                 192   313.07787     -912.12538      7.7294818     -904.3959      -421.69656      5727.8622      1.9464675      25.680546      22.4907        9.9171148      1.4620403    
     66700   33.35                192   316.74134     -912.21156      7.8199281     -904.39163      112.87565      5774.9184      1.9306069      25.750679      22.552121      9.9441982      2.0770583    
     66800   33.4                 192   322.59561     -912.52438      7.9644623     -904.55992     -3301.2465      5805.2844      1.9205084      25.795735      22.59158       9.9615975      1.8141995    
     66900   33.45                192   294.71454     -912.13175      7.2761153     -904.85563      3078.4934      5771.9801      1.9315897      25.746311      22.548296      9.9425114      1.9962886    
     67000   33.5                 192   296.20993     -912.36175      7.3130344     -905.04871     -4031.4041      5777.0206      1.9299044      25.753803      22.554857      9.9454047      1.6053235    
     67100   33.55                192   291.15267     -912.30843      7.1881772     -905.12026      4028.8831      5733.9196      1.9444112      25.689595      22.498625      9.9206095      2.2233325    
     67200   33.6                 192   301.35806     -912.58526      7.4401349     -905.14512     -1706.0158      5767.217       1.933185       25.739227      22.542091      9.9397757      1.6511071    
     67300   33.65                192   290.21999     -912.21775      7.1651508     -905.0526       850.27454      5778.0511      1.9295602      25.755334      22.556198      9.9459961      2.1091829    
     67400   33.7                 192   307.71994     -912.47893      7.5972014     -904.88173      744.13299      5794.852       1.9239659      25.780273      22.578039      9.9556267      2.2801097    
     67500   33.75                192   295.60139     -911.96139      7.2980103     -904.66338     -3936.7533      5821.2605      1.9152377      25.819376      22.612285      9.9707272      2.2431525    
     67600   33.8                 192   291.79314     -911.67501      7.2039897     -904.47102      4967.9853      5782.285       1.9281473      25.761624      22.561706      9.9484248      2.2538768    
     67700   33.85                192   316.93641     -912.11821      7.824744      -904.29346     -2803.1671      5811.5757      1.9184293      25.80505       22.599738      9.9651947      1.6591801    
     67800   33.9                 192   301.08034     -911.72377      7.4332786     -904.29049      25.235114      5797.1455      1.9232047      25.783674      22.581018      9.95694        1.8269171    
     67900   33.95                192   301.59909     -911.85716      7.4460858     -904.41108     -843.54026      5757.1077      1.9365796      25.724179      22.528913      9.9339646      2.1431417    
     68000   34                   192   309.95121     -912.24554      7.6522887     -904.59325      1457.4239      5713.4515      1.9513769      25.658991      22.471822      9.9087911      2.3944959    
     68100   34.05                192   290.4509      -912.22196      7.1708515     -905.0511      -35.728309      5691.6692      1.9588449      25.626342      22.443228      9.8961828      2.1548698    
     68200   34.1                 192   291.61747     -912.70825      7.1996527     -905.50859     -55.696272      5662.3543      1.9689862      25.58227       22.404631      9.8791634      1.9443316    
     68300   34.15                192   285.60033     -912.87002      7.0510974     -905.81892      3831.8574      5634.8454      1.9785986      25.540775      22.36829       9.8631391      2.0838036    
     68400   34.2                 192   273.63276     -912.73646      6.7556337     -905.98083     -1071.7624      5686.7569      1.960537       25.618967      22.43677       9.8933349      1.4573522    
     68500   34.25                192   299.95319     -913.16216      7.4054507     -905.75671     -1161.4404      5731.523       1.9452242      25.686016      22.49549       9.9192272      2.2962245    
     68600   34.3                 192   283.21479     -912.53132      6.9922014     -905.53912     -278.74331      5738.9384      1.9427108      25.697089      22.505187      9.9235032      1.9130589    
     68700   34.35                192   310.60456     -912.66477      7.668419      -904.99635      748.04587      5750.9984      1.9386369      25.715076      22.520941      9.9304494      2.2453053    
     68800   34.4                 192   303.16154     -911.90411      7.4846607     -904.41945     -567.93336      5761.067       1.9352487      25.730074      22.534076      9.9362413      2.1031999    
     68900   34.45                192   290.39762     -911.35933      7.169536      -904.18979      148.03539      5753.8434      1.9376783      25.719316      22.524654      9.9320867      1.642059     
     69000   34.5                 192   310.71763     -911.79651      7.6712105     -904.1253      -225.56436      5733.3725      1.9445967      25.688778      22.497909      9.920294       2.1837527    
     69100   34.55                192   297.34083     -911.56166      7.3409549     -904.2207       2734.4841      5706.7219      1.9536781      25.648913      22.462996      9.9048992      2.257002     
     69200   34.6                 192   279.20546     -911.26441      6.8932165     -904.37119     -931.9734       5727.931       1.9464441      25.680649      22.49079       9.9171546      2.1228072    
     69300   34.65                192   301.12677     -911.85811      7.4344247     -904.42368      2427.6564      5728.9542      1.9460965      25.682178      22.492129      9.917745       2.0148387    
     69400   34.7                 192   284.14855     -911.62352      7.0152548     -904.60827     -335.53269      5766.0008      1.9335928      25.737417      22.540507      9.939077       1.8399767    
     69500   34.75                192   289.23186     -911.84767      7.1407551     -904.70692     -1446.0322      5797.9739      1.9229299      25.784902      22.582093      9.9574142      2.1186432    
     69600   34.8                 192   313.0393      -912.56894      7.7285295     -904.84041     -696.71096      5785.2644      1.9271543      25.766048      22.565581      9.9501332      1.8000125    
     69700   34.85                192   304.60774     -912.80291      7.5203654     -905.28254      1384.2586      5758.7588      1.9360244      25.726638      22.531066      9.9349142      1.703517     
     69800   34.9                 192   296.89715     -913.32355      7.3300009     -905.99355      837.51352      5752.9353      1.9379842      25.717963      22.523469      9.9315642      2.016529     
     69900   34.95                192   261.5767      -912.86172      6.4579854     -906.40374     -182.09397      5773.3212      1.931141       25.748305      22.550042      9.9432814      1.4488317    
     70000   35                   192   268.88046     -912.97953      6.6383058     -906.34123     -339.18178      5785.7231      1.9270016      25.766728      22.566177      9.9503961      1.5070191    
     70100   35.05                192   292.43175     -913.20504      7.2197562     -905.98529      3215.7417      5797.8057      1.9229857      25.784653      22.581875      9.9573179      1.9702212    
     70200   35.1                 192   288.09896     -912.70687      7.1127851     -905.59409     -3016.269       5856.0288      1.9038666      25.870677      22.657214      9.9905383      1.7910892    
     70300   35.15                192   294.70855     -912.55187      7.2759674     -905.2759      -370.05548      5847.3495      1.9066925      25.85789       22.646015      9.9856002      1.80898      
     70400   35.2                 192   303.45542     -912.42197      7.4919161     -904.93005      591.34842      5823.2465      1.9145845      25.822312      22.614856      9.971861       1.5121097    
     70500   35.25                192   320.3281      -912.6191       7.9084804     -904.71062      1701.4164      5816.7016      1.9167388      25.812634      22.606381      9.9681237      1.3809191    
     70600   35.3                 192   310.58914     -912.37529      7.6680383     -904.70725     -2508.9638      5842.3254      1.9083322      25.850482      22.639528      9.9827395      1.6587974    
     70700   35.35                192   316.95563     -912.62482      7.8252186     -904.7996       475.93232      5806.3279      1.9201632      25.79728       22.592934      9.9621943      1.8404749    
     70800   35.4                 192   295.80808     -912.24157      7.3031133     -904.93845      776.03604      5767.9042      1.9329547      25.740249      22.542987      9.9401706      1.552081     
     70900   35.45                192   306.18584     -912.76923      7.5593265     -905.2099       665.19885      5757.3319      1.9365042      25.724513      22.529205      9.9340936      1.5000636    
     71000   35.5                 192   272.81549     -912.42728      6.7354564     -905.69182      545.01895      5751.1154      1.9385974      25.71525       22.521093      9.9305168      1.988894     
     71100   35.55                192   274.14896     -912.86272      6.7683781     -906.09434     -1053.0321      5766.4156      1.9334537      25.738034      22.541047      9.9393153      1.9520139    
     71200   35.6                 192   264.33044     -912.80207      6.5259718     -906.2761       2059.1392      5775.8924      1.9302814      25.752126      22.553389      9.9447573      1.8442785    
     71300   35.65                192   296.55041     -913.48428      7.3214405     -906.16284     -4503.4698      5807.38        1.9198154      25.798838      22.594298      9.962796       1.5401487    
     71400   35.7                 192   307.89971     -913.29482      7.6016398     -905.69318      2964.9811      5762.0145      1.9349305      25.731485      22.535311      9.9367861      1.509351     
     71500   35.75                192   278.53066     -911.93385      6.8765564     -905.05729      73.098855      5753.3859      1.9378324      25.718634      22.524057      9.9318235      1.7844315    
     71600   35.8                 192   327.18942     -912.70465      8.0778775     -904.62678      1580.4613      5755.3773      1.9371619      25.721601      22.526655      9.9329692      1.6164624    
     71700   35.85                192   309.41587     -912.21973      7.6390718     -904.58066     -1904.5106      5781.5122      1.9284051      25.760476      22.560701      9.9479816      1.8245247    
     71800   35.9                 192   320.34462     -912.47998      7.9088882     -904.57109      72.356885      5771.4984      1.9317509      25.745595      22.547668      9.9422348      1.3918285    
     71900   35.95                192   313.89872     -912.36574      7.7497475     -904.61599     -412.03981      5756.8363      1.9366709      25.723774      22.528559      9.9338085      1.702239     
     72000   36                   192   315.50731     -912.68701      7.7894615     -904.89755      114.80122      5738.0377      1.9430157      25.695744      22.50401       9.9229839      1.4580866    
     72100   36.05                192   281.33051     -912.37963      6.9456812     -905.43394      1956.5159      5713.8019      1.9512573      25.659516      22.472282      9.9089936      1.6917556    
     72200   36.1                 192   285.85631     -912.88996      7.0574173     -905.83254     -419.84928      5730.3866      1.94561        25.684318      22.494003      9.9185716      1.7817322    
     72300   36.15                192   272.70157     -912.66414      6.7326438     -905.93149      2013.0631      5741.9802      1.9416816      25.701628      22.509163      9.9252561      1.426768     
     72400   36.2                 192   272.64506     -912.55198      6.7312488     -905.82073      24.884615      5801.4634      1.9217733      25.790074      22.586623      9.9594115      1.4633126    
     72500   36.25                192   283.4265      -912.46743      6.9974283     -905.47        -3059.4399      5857.1274      1.9035095      25.872295      22.658631      9.9911631      1.6997227    
     72600   36.3                 192   285.52857     -912.29745      7.0493257     -905.24812     -307.53932      5841.7221      1.9085292      25.849592      22.638748      9.9823959      1.7603942    
     72700   36.35                192   288.70641     -912.24588      7.1277825     -905.1181      -513.56519      5809.2795      1.9191877      25.801651      22.596761      9.9638821      1.5084667    
     72800   36.4                 192   298.35649     -912.3397       7.3660302     -904.97367      302.2626       5757.4977      1.9364484      25.72476       22.529421      9.9341889      2.3224494    
     72900   36.45                192   306.07614     -912.49456      7.5566182     -904.93794      1573.4768      5715.4369      1.9506991      25.661963      22.474425      9.9099387      1.75142      
     73000   36.5                 192   320.0464      -912.99596      7.9015256     -905.09443     -336.72795      5712.3123      1.9517661      25.657286      22.470329      9.9081325      1.8132308    
     73100   36.55                192   299.32792     -912.66626      7.3900135     -905.27625      479.47445      5719.1622      1.9494284      25.667537      22.479307      9.9120913      1.2320878    
     73200   36.6                 192   281.95141     -912.33924      6.9610103     -905.37823     -1552.9324      5732.9343      1.9447454      25.688124      22.497336      9.9200413      1.5398146    
     73300   36.65                192   288.16257     -912.50126      7.1143556     -905.38691     -563.14573      5706.5858      1.9537247      25.648709      22.462817      9.9048204      1.673222     
     73400   36.7                 192   309.11821     -912.6946       7.631723      -905.06287      1537.2227      5663.8161      1.968478       25.584471      22.406559      9.8800135      1.4981481    
     73500   36.75                192   309.42438     -912.27779      7.639282      -904.63851      1077.385       5664.1185      1.9683729      25.584927      22.406957      9.8801893      1.6703709    
     73600   36.8                 192   290.03462     -911.57337      7.1605741     -904.4128       2922.3298      5713.1295      1.9514869      25.658509      22.4714        9.9086049      1.8267942    
     73700   36.85                192   328.96889     -912.10836      8.1218102     -903.98655     -4351.8366      5806.9784      1.9199481      25.798243      22.593778      9.9625664      1.657745     
     73800   36.9                 192   300.60357     -911.25201      7.4215076     -903.8305       1653.1453      5832.8585      1.9114294      25.836512      22.627293      9.9773446      1.8956243    
     73900   36.95                192   303.95537     -911.1876       7.5042592     -903.68334     -1689.8365      5877.323       1.8969686      25.901997      22.684644      10.002633      1.4624184    
     74000   37                   192   317.05607     -911.49103      7.8276983     -903.66333      382.44089      5888.4994      1.8933682      25.918405      22.699014      10.00897       1.5637321    
     74100   37.05                192   300.43802     -911.46426      7.4174204     -904.04684     -1101.4312      5895.5128      1.8911158      25.928691      22.708022      10.012942      1.2069377    
     74200   37.1                 192   299.54791     -912.12563      7.3954449     -904.73018      826.59092      5872.1138      1.8986514      25.894342      22.67794       9.9996771      1.5327808    
     74300   37.15                192   296.14466     -912.46738      7.3114231     -905.15596     -207.48928      5853.8664      1.9045698      25.867493      22.654425      9.9893085      1.7065798    
     74400   37.2                 192   292.76682     -912.56149      7.2280285     -905.33347      1594.5048      5831.3234      1.9119326      25.834245      22.625307      9.9764692      1.5727506    
     74500   37.25                192   275.97594     -912.18708      6.8134838     -905.3736       931.53266      5830.8603      1.9120845      25.833561      22.624708      9.9762051      2.5743227    
     74600   37.3                 192   265.25863     -911.81892      6.5488875     -905.27003     -201.86486      5842.1102      1.9084025      25.850165      22.63925       9.9826169      1.8942999    
     74700   37.35                192   299.82967     -912.34825      7.4024011     -904.94585     -1243.1477      5835.6216      1.9105244      25.840591      22.630865      9.9789198      1.5727238    
     74800   37.4                 192   334.36352     -912.77881      8.2549965     -904.52381      1862.4436      5800.7075      1.9220237      25.788954      22.585642      9.9589789      1.1714536    
     74900   37.45                192   304.25848     -911.77886      7.5117425     -904.26712     -1339.7768      5800.7378      1.9220137      25.788999      22.585681      9.9589963      1.5399685    
     75000   37.5                 192   307.70396     -911.70376      7.596807      -904.10695      2057.9911      5796.5829      1.9233913      25.78284       22.580287      9.9566179      1.7755511    
     75100   37.55                192   297.87031     -911.42537      7.3540271     -904.07134     -4576.7123      5814.501       1.9174642      25.809379      22.60353       9.9668664      1.7598053    
     75200   37.6                 192   314.54601     -911.9524       7.7657281     -904.18667      1512.0463      5743.9385      1.9410197      25.704549      22.511721      9.9263842      2.4017457    
     75300   37.65                192   326.28627     -912.34109      8.0555797     -904.28551      783.88424      5694.2856      1.9579449      25.630268      22.446667      9.8976989      1.6670914    
     75400   37.7                 192   301.45083     -912.1969       7.4424254     -904.75447      653.40168      5689.3195      1.959654       25.622815      22.440139      9.8948207      1.5403567    
     75500   37.75                192   293.09777     -912.46043      7.2361992     -905.22424     -136.14653      5710.7538      1.9522987      25.654952      22.468285      9.9072313      1.6808899    
     75600   37.8                 192   277.07782     -912.37364      6.8406877     -905.53296      1255.086       5739.6886      1.9424569      25.698208      22.506168      9.9239355      2.5809622    
     75700   37.85                192   285.73923     -912.73305      7.0545266     -905.67852     -711.91262      5770.5111      1.9320815      25.744126      22.546383      9.9416678      1.5402412    
     75800   37.9                 192   288.41186     -912.86401      7.1205104     -905.7435      -507.61348      5779.3119      1.9291393      25.757207      22.557839      9.9467194      1.9925512    
     75900   37.95                192   281.07053     -912.60135      6.9392626     -905.66209      696.27888      5768.6543      1.9327033      25.741365      22.543964      9.9406014      1.8412581    
     76000   38                   192   275.9507      -912.07147      6.8128606     -905.25861      1605.6471      5767.9669      1.9329337      25.740342      22.543068      9.9402065      1.4956201    
     76100   38.05                192   302.42507     -912.04118      7.4664781     -904.5747      -472.4262       5798.5154      1.9227503      25.785705      22.582796      9.9577242      1.915987     
     76200   38.1                 192   298.40679     -911.65974      7.367272      -904.29247     -1034.1708      5826.0534      1.9136621      25.82646       22.61849       9.9734629      1.4917204    
     76300   38.15                192   300.01446     -911.61182      7.4069632     -904.20485     -1478.4874      5809.2849      1.9191859      25.801659      22.596769      9.9638852      2.0499884    
     76400   38.2                 192   307.50099     -911.68304      7.591796      -904.09125      948.27892      5741.6124      1.941806       25.701079      22.508682      9.9250442      1.5356437    
     76500   38.25                192   314.31447     -911.83864      7.7600118     -904.07862     -818.30887      5697.8208      1.9567301      25.635571      22.451311      9.8997468      1.5526654    
     76600   38.3                 192   319.08404     -912.10253      7.8777663     -904.22477      873.89983      5649.1129      1.9736015      25.562313      22.387153      9.8714566      1.4397324    
     76700   38.35                192   295.03285     -911.88027      7.2839738     -904.59629      1765.3318      5632.0119      1.9795941      25.536493      22.36454       9.8614856      1.950118     
     76800   38.4                 192   301.39281     -912.52427      7.440993      -905.08328      127.5443       5670.1483      1.9662797      25.594002      22.414906      9.8836941      1.9846482    
     76900   38.45                192   269.5571      -912.10872      6.6550111     -905.45371      109.98857      5726.0339      1.947089       25.677813      22.488306      9.9160596      1.8977494    
     77000   38.5                 192   288.95974     -912.62311      7.1340368     -905.48907     -2285.6835      5782.2399      1.9281624      25.761557      22.561648      9.9483989      1.222167     
     77100   38.55                192   315.94676     -913.21837      7.800311      -905.41806      299.4965       5799.721       1.9223507      25.787492      22.584361      9.9584143      1.6397948    
     77200   38.6                 192   278.22183     -912.43322      6.8689319     -905.56429     -862.0657       5820.8872      1.9153605      25.818824      22.611802      9.9705141      1.4205569    
     77300   38.65                192   276.50172     -912.52053      6.8264646     -905.69407     -1484.6723      5813.491       1.9177973      25.807884      22.602221      9.9662894      2.1822274    
     77400   38.7                 192   269.65462     -912.42323      6.6574186     -905.76581      2186.603       5765.0425      1.9339142      25.735991      22.539258      9.9385264      1.6368343    
     77500   38.75                192   242.90439     -911.63859      5.9969907     -905.6416       775.57979      5758.0319      1.9362688      25.725555      22.530118      9.9344961      1.9710929    
     77600   38.8                 192   289.59011     -912.24912      7.1495997     -905.09952      441.2448       5769.5974      1.9323874      25.742768      22.545192      9.9411431      2.0247949    
     77700   38.85                192   292.70721     -911.85116      7.226557      -904.6246       45.885424      5784.7767      1.9273168      25.765323      22.564947      9.9498536      1.8011611    
     77800   38.9                 192   310.50933     -911.97183      7.666068      -904.30576      1795.0521      5811.9288      1.9183128      25.805572      22.600196      9.9653965      1.6839693    
     77900   38.95                192   301.26185     -911.55929      7.4377597     -904.12153     -1888.5639      5869.0553      1.8996409      25.889846      22.674002      9.9979407      1.8548917    
     78000   39                   192   313.47511     -911.81686      7.739289      -904.07757     -1180.3329      5878.9478      1.8964444      25.904384      22.686734      10.003555      1.9165898    
     78100   39.05                192   299.58767     -911.6907       7.3964264     -904.29427     -811.44713      5831.4819      1.9118807      25.834479      22.625512      9.9765596      2.0476281    
     78200   39.1                 192   320.17819     -912.4645       7.9047792     -904.55972      1907.016       5756.5749      1.9367588      25.723385      22.528218      9.9336581      1.6324033    
     78300   39.15                192   292.27629     -912.34449      7.2159179     -905.12857      342.17679      5710.0031      1.9525554      25.653828      22.4673        9.9067972      1.6279267    
     78400   39.2                 192   294.55627     -912.75102      7.2722077     -905.47881      2031.274       5668.9022      1.9667119      25.592127      22.413264      9.88297        1.3704585    
     78500   39.25                192   315.90346     -913.43444      7.7992418     -905.6352       1572.0997      5691.621       1.9588615      25.62627       22.443165      9.8961548      1.3046269    
     78600   39.3                 192   291.39275     -912.86822      7.1941046     -905.67411     -2510.3682      5761.7709      1.9350123      25.731122      22.534994      9.936646       1.4518249    
     78700   39.35                192   308.39202     -913.15229      7.6137943     -905.53849     -1182.4113      5797.7813      1.9229938      25.784616      22.581843      9.957304       1.4632128    
     78800   39.4                 192   291.62728     -912.60036      7.1998948     -905.40047     -1858.6967      5797.0152      1.9232479      25.783481      22.580849      9.9568654      1.5708938    
     78900   39.45                192   302.97479     -912.71766      7.48005       -905.23761      382.76243      5761.9761      1.9349434      25.731428      22.535261      9.936764       1.9550511    
     79000   39.5                 192   286.05872     -912.22449      7.0624144     -905.16207      2063.6692      5742.8184      1.9413982      25.702878      22.510258      9.925739       2.2597317    
     79100   39.55                192   296.77415     -912.40229      7.3269644     -905.07532     -1611.683       5772.407       1.9314469      25.746946      22.548852      9.9427566      1.5662805    
     79200   39.6                 192   294.80019     -912.25518      7.2782297     -904.97695      1273.3926      5788.974       1.9259194      25.771554      22.570403      9.9522595      2.0701016    
     79300   39.65                192   313.50835     -912.66596      7.7401096     -904.92585     -2378.8489      5812.4419      1.9181435      25.806332      22.600861      9.9656898      1.4235799    
     79400   39.7                 192   309.2967      -912.57321      7.6361296     -904.93708      1032.7971      5798.0795      1.9228949      25.785058      22.58223       9.9574747      1.5676615    
     79500   39.75                192   291.73547     -912.19265      7.202566      -904.99008     -1670.6173      5783.0536      1.9278911      25.762765      22.562706      9.9488656      1.7577087    
     79600   39.8                 192   327.28161     -913.04815      8.0801534     -904.968        801.93775      5751.7942      1.9383686      25.716262      22.521979      9.9309075      1.5640955    
     79700   39.85                192   274.93835     -911.88548      6.7878671     -905.09761      2662.1825      5744.4684      1.9408406      25.70534       22.512414      9.9266895      2.1938261    
     79800   39.9                 192   306.28562     -912.73786      7.5617901     -905.17607     -1643.496       5784.9153      1.9272706      25.765529      22.565127      9.949933       1.4537785    
     79900   39.95                192   294.92747     -912.57466      7.2813721     -905.29329     -454.84322      5807.9953      1.919612       25.799749      22.595096      9.9631478      1.5249338    
     80000   40                   192   271.19801     -912.22303      6.695523      -905.5275      -542.52842      5804.7506      1.920685       25.794944      22.590888      9.9612922      2.0464016    
     80100   40.05                192   303.76572     -913.199        7.4995771     -905.69942      1656.8333      5782.6503      1.9280255      25.762166      22.562182      9.9486343      1.7638968    
     80200   40.1                 192   272.439       -912.59145      6.7261613     -905.86529     -804.97773      5787.501       1.9264096      25.769367      22.568488      9.9514153      1.5791184    
     80300   40.15                192   273.37467     -912.53929      6.7492618     -905.79003      982.82363      5783.3215      1.9278018      25.763163      22.563054      9.9490192      2.0547762    
     80400   40.2                 192   286.44967     -912.47483      7.0720666     -905.40276     -116.06587      5788.0547      1.9262253      25.770189      22.569208      9.9517326      1.9077247    
     80500   40.25                192   327.69282     -912.96         8.0903057     -904.86969      93.191677      5790.833       1.9253011      25.774312      22.572819      9.9533247      2.0231441    
     80600   40.3                 192   310.16476     -912.31443      7.6575608     -904.65687      546.91604      5804.7736      1.9206774      25.794978      22.590918      9.9613053      1.5455322    
     80700   40.35                192   312.49165     -912.21635      7.7150086     -904.50134     -2219.0614      5815.3272      1.9171918      25.810601      22.6046        9.9673385      2.1541727    
     80800   40.4                 192   306.15071     -912.01446      7.5584593     -904.456        4195.2882      5782.4038      1.9281077      25.7618        22.561861      9.9484929      1.7032076    
     80900   40.45                192   309.31647     -912.16668      7.6366178     -904.53006     -2631.5623      5810.9079      1.9186498      25.804061      22.598873      9.964813       1.6487483    
     81000   40.5                 192   298.40219     -912.09822      7.3671586     -904.73106      428.53301      5806.2814      1.9201786      25.797211      22.592874      9.9621678      1.5188238    
     81100   40.55                192   291.03348     -912.35236      7.1852346     -905.16713     -1359.232       5796.2648      1.9234969      25.782368      22.579874      9.9564358      1.6197917    
     81200   40.6                 192   267.28534     -912.40069      6.5989242     -905.80176      2858.869       5773.6725      1.9310235      25.748827      22.550499      9.9434831      1.9967269    
     81300   40.65                192   259.34038     -912.50156      6.4027736     -906.09878     -3569.1657      5788.5243      1.926069       25.770886      22.569818      9.9520017      2.1579195    
     81400   40.7                 192   283.18134     -913.01352      6.9913758     -906.02214      2354.381       5735.9351      1.943728       25.692605      22.501261      9.9217717      2.2879485    
     81500   40.75                192   300.00678     -913.16576      7.4067737     -905.75899      2072.5695      5723.7238      1.9478748      25.67436       22.485282      9.9147259      2.8140052    
     81600   40.8                 192   308.39533     -913.17601      7.613876      -905.56214      2440.9638      5771.2733      1.9318263      25.74526       22.547375      9.9421056      1.6045353    
     81700   40.85                192   303.2725      -912.77347      7.4874        -905.28607     -3677.0224      5870.7295      1.8990992      25.892307      22.676158      9.9988913      1.7551529    
     81800   40.9                 192   301.49457     -912.40454      7.4435053     -904.96104     -1683.0556      5898.9829      1.8900034      25.933777      22.712476      10.014906      1.7511089    
     81900   40.95                192   288.24812     -911.59507      7.1164677     -904.4786       241.10736      5884.6459      1.894608       25.91275       22.694061      10.006786      2.0268942    
     82000   41                   192   321.02897     -911.66046      7.9257841     -903.73468      1276.0413      5883.0815      1.8951118      25.910454      22.69205       10.005899      1.7885368    
     82100   41.05                192   340.94307     -911.80388      8.4174369     -903.38644     -424.19516      5917.49        1.8840923      25.96087       22.736204      10.025368      2.7423782    
     82200   41.1                 192   332.7434      -911.64943      8.2149978     -903.43443     -1966.6442      5949.9113      1.8738258      26.008196      22.777651      10.043644      1.8772416    
     82300   41.15                192   326.83109     -911.84035      8.0690308     -903.77132      512.06919      5933.6155      1.878972       25.98443       22.756838      10.034467      1.6698682    
     82400   41.2                 192   307.95125     -911.79493      7.6029122     -904.19202     -1827.6556      5894.5477      1.8914254      25.927276      22.706783      10.012395      1.7692927    
     82500   41.25                192   309.35658     -912.07361      7.6376081     -904.436        4295.4171      5827.0873      1.9133225      25.827988      22.619827      9.9740529      1.8339027    
     82600   41.3                 192   278.87931     -911.55763      6.8851641     -904.67246     -1744.4304      5825.602       1.9138104      25.825793      22.617905      9.9732053      1.695903     
     82700   41.35                192   320.57797     -912.70618      7.9146495     -904.79153      2379.2122      5807.0135      1.9199365      25.798295      22.593823      9.9625864      2.1061291    
     82800   41.4                 192   280.18512     -911.91806      6.917403      -905.00066     -1530.3808      5818.3473      1.9161966      25.815068      22.608513      9.9690637      1.5543684    
     82900   41.45                192   289.77099     -912.1457       7.1540656     -904.99163      2485.8319      5814.9366      1.9173205      25.810023      22.604094      9.9671154      1.7048367    
     83000   41.5                 192   316.37812     -912.63072      7.8109605     -904.81976     -2276.1491      5855.4707      1.904048       25.869855      22.656494      9.9902209      1.883101     
     83100   41.55                192   306.98836     -912.3197       7.5791397     -904.74056     -1624.9644      5844.0011      1.907785       25.852953      22.641692      9.9836938      1.5214039    
     83200   41.6                 192   298.96584     -911.87809      7.3810742     -904.49702      757.69924      5801.8962      1.9216299      25.790715      22.587184      9.9596591      2.0973908    
     83300   41.65                192   311.04716     -911.59743      7.6793462     -903.91808      377.30334      5781.0987      1.928543       25.759862      22.560163      9.9477444      1.8656561    
     83400   41.7                 192   331.07545     -911.62445      8.1738183     -903.45063      1758.0577      5776.703       1.9300105      25.753331      22.554444      9.9452225      2.0075942    
     83500   41.75                192   294.90581     -910.77044      7.2808374     -903.48961     -1332.658       5797.8353      1.9229759      25.784697      22.581913      9.9573349      1.6309364    
     83600   41.8                 192   342.22012     -912.09413      8.4489658     -903.64517      352.71152      5799.4342      1.9224457      25.787067      22.583989      9.9582502      1.9929199    
     83700   41.85                192   306.02309     -911.8244       7.5553084     -904.26909     -855.63505      5799.9971      1.9222591      25.787901      22.58472       9.9585723      1.877581     
     83800   41.9                 192   303.81596     -912.3151       7.5008174     -904.81429      878.04525      5802.2942      1.9214981      25.791305      22.587701      9.9598869      1.8137851    
     83900   41.95                192   273.70229     -911.71527      6.7573504     -904.95792     -1009.9603      5832.347       1.9115971      25.835757      22.626631      9.9770529      1.5891903    
     84000   42                   192   294.87901     -912.12774      7.2801757     -904.84756     -972.62014      5843.1904      1.9080497      25.851758      22.640645      9.9832321      1.6774974    
     84100   42.05                192   323.58885     -912.69659      7.9889839     -904.7076       511.46168      5836.2843      1.9103075      25.841569      22.631722      9.9792975      1.8143672    
     84200   42.1                 192   318.2973      -912.56725      7.8583427     -904.70891     -146.2258       5836.4598      1.91025        25.841828      22.631948      9.9793975      1.8266124    
     84300   42.15                192   311.45309     -912.5175       7.689368      -904.82813     -298.78336      5836.0463      1.9103854      25.841218      22.631414      9.9791618      1.6723508    
     84400   42.2                 192   291.33044     -912.29129      7.1925663     -905.09873     -30.759896      5839.1284      1.909377       25.845766      22.635397      9.9809182      1.7555495    
     84500   42.25                192   288.10973     -912.53632      7.1130511     -905.42327      72.47462       5851.3617      1.9053851      25.863803      22.651194      9.9878836      2.3417056    
     84600   42.3                 192   283.49757     -912.93151      6.9991831     -905.93232      444.6961       5857.709       1.9033205      25.873151      22.659381      9.9914937      1.9638774    
     84700   42.35                192   277.98463     -913.23618      6.8630756     -906.37311     -2168.3248      5860.7284      1.9023399      25.877596      22.663274      9.9932102      2.2172938    
     84800   42.4                 192   274.86742     -913.25605      6.7861159     -906.46993      767.45724      5823.3053      1.9145652      25.822399      22.614933      9.9718945      1.2624043    
     84900   42.45                192   274.70111     -913.01008      6.7820098     -906.22807      98.495247      5797.3227      1.9231459      25.783937      22.581248      9.9570414      1.2550099    
     85000   42.5                 192   282.73065     -912.78418      6.9802487     -905.80393      775.76962      5781.4125      1.9284383      25.760328      22.560571      9.9479244      2.272749     
     85100   42.55                192   276.21572     -912.31954      6.8194037     -905.50014      818.87259      5775.2095      1.9305096      25.751112      22.5525        9.9443654      2.6193218    
     85200   42.6                 192   289.88725     -912.42446      7.1569358     -905.26753     -746.53968      5787.4001      1.9264432      25.769218      22.568357      9.9513575      1.9973863    
     85300   42.65                192   288.7024      -912.15171      7.1276835     -905.02403      1210.7018      5795.6074      1.9237151      25.781393      22.579021      9.9560594      1.6754286    
     85400   42.7                 192   288.20501     -911.93354      7.1154034     -904.81813      49.659163      5811.1977      1.9185542      25.80449       22.599248      9.9649787      2.0784473    
     85500   42.75                192   292.67299     -911.86804      7.2257122     -904.64232     -1161.9594      5810.8698      1.9186624      25.804005      22.598823      9.9647913      1.7525366    
     85600   42.8                 192   314.87992     -912.25907      7.773972      -904.48509      533.72656      5771.4575      1.9317646      25.745534      22.547615      9.9422113      2.3344501    
     85700   42.85                192   306.12056     -912.09095      7.5577149     -904.53324     -1976.222       5732.9148      1.944752       25.688095      22.497311      9.92003        2.1995014    
     85800   42.9                 192   309.61204     -912.53047      7.6439149     -904.88656      2453.5859      5652.4217      1.9724462      25.567303      22.391523      9.8733835      1.6609729    
     85900   42.95                192   286.36196     -912.46391      7.069901      -905.39401      1419.589       5622.2121      1.9830446      25.521673      22.351561      9.8557625      1.5588195    
     86000   43                   192   277.93618     -912.64566      6.8618795     -905.78378      747.77147      5645.4484      1.9748825      25.556785      22.382311      9.8693217      1.3258636    
     86100   43.05                192   281.1999      -912.82024      6.9424564     -905.87778      97.599065      5682.3592      1.9620543      25.612362      22.430985      9.890784       1.6433711    
     86200   43.1                 192   289.08209     -912.99382      7.1370574     -905.85677      535.01925      5733.2257      1.9446465      25.688559      22.497717      9.9202093      1.4725564    
     86300   43.15                192   285.44725     -912.73398      7.0473181     -905.68666     -3249.3904      5773.7278      1.931005       25.748909      22.550571      9.9435148      1.8973052    
     86400   43.2                 192   310.8193      -913.08301      7.6737206     -905.40929      2462.672       5760.2547      1.9355216      25.728865      22.533017      9.9357743      1.5297607    
     86500   43.25                192   294.11656     -912.41207      7.261352      -905.15072     -590.55531      5782.2885      1.9281462      25.761629      22.561711      9.9484268      1.6127187    
     86600   43.3                 192   299.88529     -911.93306      7.4037744     -904.52929      3340.1915      5806.1827      1.9202112      25.797065      22.592746      9.9621113      2.0548549    
     86700   43.35                192   320.64682     -911.66619      7.9163493     -903.74984     -2733.641       5888.9325      1.8932289      25.919041      22.69957       10.009215      1.5863524    
     86800   43.4                 192   317.47711     -911.34227      7.8380932     -903.50417     -723.31197      5905.9768      1.8877652      25.944022      22.721449      10.018862      1.6296808    
     86900   43.45                192   326.1063      -911.65992      8.0511365     -903.60879     -1772.0127      5882.7403      1.8952218      25.909953      22.691611      10.005705      1.6685364    
     87000   43.5                 192   321.92015     -911.9294       7.947786      -903.98161      3026.3961      5833.2674      1.9112954      25.837116      22.627821      9.9775777      1.6147983    
     87100   43.55                192   304.49747     -912.04954      7.517643      -904.5319       31.883102      5839.4125      1.9092841      25.846185      22.635764      9.9810801      1.9289787    
     87200   43.6                 192   283.4828      -911.963        6.9988184     -904.96419      1119.7643      5850.9223      1.9055282      25.863155      22.650627      9.9876336      2.1649152    
     87300   43.65                192   316.45198     -913.03323      7.8127842     -905.22044     -1866.754       5877.1333      1.8970299      25.901719      22.6844        10.002526      1.5657634    
     87400   43.7                 192   289.7049      -912.6486       7.1524338     -905.49617      422.83104      5879.6978      1.8962025      25.905485      22.687699      10.00398       1.3073402    
     87500   43.75                192   304.88697     -913.1428       7.5272592     -905.61554     -695.62498      5890.9253      1.8925885      25.921964      22.702131      10.010344      1.4621934    
     87600   43.8                 192   287.22171     -912.77244      7.091127      -905.68131     -1061.1111      5894.7779      1.8913516      25.927614      22.707078      10.012526      1.4473459    
     87700   43.85                192   303.62277     -913.08979      7.4960478     -905.59374     -262.04026      5868.7032      1.8997549      25.889328      22.673549      9.9977408      1.4677955    
     87800   43.9                 192   315.8615      -913.14185      7.7982059     -905.34365      1027.3435      5862.589       1.9017361      25.880334      22.665672      9.9942676      1.9718022    
     87900   43.95                192   301.86692     -912.39649      7.452698      -904.9438      -1148.3181      5884.7679      1.8945688      25.912929      22.694218      10.006855      1.5330749    
     88000   44                   192   320.02999     -912.22433      7.9011204     -904.32321      233.55728      5874.4203      1.897906       25.897732      22.680909      10.000986      2.4509602    
     88100   44.05                192   309.0389      -911.567        7.6297648     -903.93723      1652.782       5875.8695      1.8974379      25.899862      22.682774      10.001809      1.8811489    
     88200   44.1                 192   296.10697     -911.14371      7.3104926     -903.83321     -653.36165      5907.0446      1.8874239      25.945586      22.722818      10.019466      1.9126804    
     88300   44.15                192   292.26706     -911.02057      7.2156903     -903.80488     -321.46075      5926.3947      1.8812614      25.973886      22.747603      10.030395      1.670754     
     88400   44.2                 192   317.32858     -911.73757      7.8344261     -903.90314      1202.3576      5933.0287      1.8791578      25.983574      22.756088      10.034136      1.8670567    
     88500   44.25                192   297.9342      -911.73787      7.3556045     -904.38227     -2200.6863      5947.1365      1.8747001      26.004152      22.77411       10.042083      1.620972     
     88600   44.3                 192   288.38811     -912.21515      7.1199239     -905.09523     -824.3007       5905.5226      1.8879104      25.943357      22.720867      10.018605      2.0843702    
     88700   44.35                192   309.87507     -913.08508      7.6504088     -905.43467      1165.0659      5841.6798      1.9085431      25.84953       22.638694      9.9823718      1.7469418    
     88800   44.4                 192   297.20969     -912.91936      7.3377173     -905.58164      1431.3385      5811.2339      1.9185422      25.804544      22.599295      9.9649994      1.9746192    
     88900   44.45                192   284.23677     -912.60676      7.0174329     -905.58932     -432.20231      5825.3651      1.9138882      25.825443      22.617599      9.9730701      1.7526457    
     89000   44.5                 192   290.71468     -912.59984      7.1773639     -905.42248     -834.72165      5846.0192      1.9071264      25.855929      22.644298      9.9848429      1.8259523    
     89100   44.55                192   299.6498      -912.54923      7.3979604     -905.15127      232.69632      5839.237       1.9093415      25.845926      22.635538      9.9809801      2.0199437    
     89200   44.6                 192   323.65079     -912.86556      7.9905134     -904.87505     -1136.7384      5821.5496      1.9151426      25.819803      22.61266       9.9708922      1.794766     
     89300   44.65                192   305.44486     -912.34026      7.5410328     -904.79923      3140.3303      5766.2483      1.9335098      25.737786      22.540829      9.9392192      2.0526142    
     89400   44.7                 192   302.62779     -912.29913      7.4714831     -904.82765      522.95871      5758.6554      1.9360591      25.726484      22.530931      9.9348547      1.9072723    
     89500   44.75                192   313.26988     -912.76674      7.7342223     -905.03252     -295.45907      5776.8546      1.9299598      25.753556      22.554641      9.9453095      1.5992613    
     89600   44.8                 192   298.47377     -912.98596      7.3689256     -905.61703     -806.74799      5802.7447      1.9213489      25.791972      22.588285      9.9601446      2.4126392    
     89700   44.85                192   268.83716     -912.79287      6.6372367     -906.15563     -2207.2333      5816.7824      1.9167121      25.812754      22.606486      9.9681699      1.8975616    
     89800   44.9                 192   268.86536     -912.97158      6.6379329     -906.33365      671.08043      5778.2391      1.9294974      25.755614      22.556443      9.9461039      1.8257843    
     89900   44.95                192   304.2782      -913.74475      7.5122295     -906.23252     -1963.7925      5746.4623      1.9401671      25.708313      22.515018      9.9278379      1.6449689    
     90000   45                   192   299.68027     -913.53616      7.3987127     -906.13745      3792.5816      5709.8774      1.9525984      25.65364       22.467136      9.9067245      1.8998097    
     90100   45.05                192   294.45206     -913.3903       7.269635      -906.12067      133.66552      5759.2855      1.9358473      25.727422      22.531753      9.935217       1.4860321    
     90200   45.1                 192   274.00666     -912.54079      6.7648649     -905.77593     -1766.8504      5835.2529      1.9106451      25.840047      22.630388      9.9787096      2.0904249    
     90300   45.15                192   296.18332     -912.31155      7.3123774     -904.99917     -1006.5607      5856.7538      1.9036309      25.871745      22.658149      9.9909506      1.9587066    
     90400   45.2                 192   290.76374     -911.7604       7.1785751     -904.58182      2312.0731      5841.495       1.9086034      25.849257      22.638455      9.9822665      2.1516392    
     90500   45.25                192   308.29128     -912.06621      7.6113071     -904.4549      -954.47413      5863.3945      1.9014749      25.88152       22.66671       9.9947253      2.0676125    
     90600   45.3                 192   320.99726     -912.34491      7.9250011     -904.41991     -186.20516      5878.119       1.8967118      25.903166      22.685668      10.003085      1.6591026    
     90700   45.35                192   298.90868     -911.89103      7.3796632     -904.51137      1082.513       5883.948       1.8948328      25.911726      22.693164      10.00639       2.2424324    
     90800   45.4                 192   332.57499     -913.03183      8.21084       -904.82099     -1186.6071      5898.9384      1.8900176      25.933712      22.712419      10.014881      1.862371     
     90900   45.45                192   285.22756     -912.44379      7.0418941     -905.4019       135.87379      5888.2526      1.8934476      25.918043      22.698697      10.00883       1.9295202    
     91000   45.5                 192   296.20581     -913.07494      7.3129328     -905.76201     -1400.0059      5863.4714      1.90145        25.881633      22.666809      9.994769       1.9736809    
     91100   45.55                192   292.16121     -913.15957      7.2130769     -905.9465       1294.8843      5811.9194      1.9183159      25.805558      22.600184      9.9653911      1.4711491    
     91200   45.6                 192   289.83843     -913.08901      7.1557306     -905.93328     -160.56222      5779.0788      1.9292171      25.756861      22.557536      9.9465857      1.6459351    
     91300   45.65                192   312.89697     -913.57817      7.7250155     -905.85315     -281.54679      5754.3443      1.9375096      25.720062      22.525307      9.9323749      1.5899721    
     91400   45.7                 192   295.91538     -913.03664      7.3057623     -905.73088      2200.5825      5725.3997      1.9473047      25.676865      22.487476      9.9156935      1.7071084    
     91500   45.75                192   300.7525      -912.96516      7.4251845     -905.53997     -841.32728      5744.4121      1.9408596      25.705256      22.51234       9.9266571      1.5727952    
     91600   45.8                 192   301.17159     -912.65022      7.4355312     -905.21469      2616.7849      5772.2258      1.9315075      25.746676      22.548616      9.9426525      2.0936092    
     91700   45.85                192   313.22537     -912.31225      7.7331234     -904.57912     -3169.5414      5833.1177      1.9113445      25.836895      22.627628      9.9774923      1.5660217    
     91800   45.9                 192   320.48379     -911.76603      7.9123242     -903.85371      434.0669       5846.1273      1.9070911      25.856088      22.644437      9.9849044      1.9910751    
     91900   45.95                192   321.35142     -911.58748      7.9337448     -903.65373     -2506.3953      5848.2804      1.906389       25.859262      22.647217      9.9861301      2.3881988    
     92000   46                   192   340.31454     -912.243        8.4019194     -903.84108      3637.9685      5819.1922      1.9159184      25.816318      22.609607      9.9695462      1.6961076    
     92100   46.05                192   326.65734     -912.3734       8.0647412     -904.30865     -997.14157      5846.6682      1.9069147      25.856886      22.645136      9.9852124      2.199117     
     92200   46.1                 192   308.66418     -912.45502      7.6205135     -904.83451      1123.0336      5876.9934      1.897075       25.901513      22.68422       10.002446      1.7210185    
     92300   46.15                192   290.67204     -912.3227       7.1763112     -905.14638     -3583.6058      5915.972       1.8845758      25.95865       22.73426       10.024511      1.8490818    
     92400   46.2                 192   307.98627     -912.94582      7.6037767     -905.34205      1873.6164      5885.6137      1.8942965      25.914171      22.695305      10.007334      1.3669083    
     92500   46.25                192   273.23452     -912.28464      6.7458016     -905.53884     -2999.3032      5879.094       1.8963972      25.904599      22.686922      10.003638      1.580743     
     92600   46.3                 192   311.47677     -913.26173      7.6899527     -905.57177      599.73033      5800.0706      1.9222348      25.78801       22.584815      9.9586144      1.6662597    
     92700   46.35                192   311.51145     -913.04952      7.690809      -905.35871     -440.36929      5715.6546      1.9506248      25.662289      22.47471       9.9100645      1.6780256    
     92800   46.4                 192   302.6503      -912.73865      7.4720386     -905.26661      2228.4276      5629.65        1.9804246      25.532923      22.361413      9.8601069      1.7928836    
     92900   46.45                192   318.56365     -913.04006      7.8649185     -905.17514      1540.0469      5580.2328      1.9979628      25.457993      22.295791      9.8311713      1.7653673    
     93000   46.5                 192   305.20637     -913.06305      7.5351447     -905.5279       5162.7197      5599.0558      1.991246       25.486586      22.320832      9.8422129      1.9910831    
     93100   46.55                192   287.70311     -913.1772       7.1030122     -906.07418     -1956.0962      5727.6675      1.9465336      25.680255      22.490445      9.9170025      1.4395717    
     93200   46.6                 192   261.32608     -912.62798      6.4517981     -906.17618     -3228.4847      5820.625       1.9154468      25.818437      22.611462      9.9703644      1.5485714    
     93300   46.65                192   271.99362     -912.73179      6.7151655     -906.01663      188.96301      5818.6935      1.9160826      25.81558       22.608961      9.9692614      1.7743259    
     93400   46.7                 192   289.5345      -912.62078      7.1482268     -905.47256     -774.99796      5811.338       1.9185078      25.804698      22.59943       9.9650589      2.0134501    
     93500   46.75                192   306.87594     -912.62686      7.5763642     -905.05049      1197.5327      5807.5807      1.919749       25.799135      22.594559      9.9629108      2.575039     
     93600   46.8                 192   321.46955     -912.88399      7.9366614     -904.94733     -262.22759      5836.2677      1.9103129      25.841544      22.6317        9.979288       1.4476761    
     93700   46.85                192   310.03597     -912.63838      7.6543813     -904.984       -1198.343       5867.831       1.9000372      25.888046      22.672425      9.9972455      1.5428506    
     93800   46.9                 192   303.43889     -912.53513      7.491508      -905.04362     -840.21013      5867.3677      1.9001873      25.887364      22.671828      9.9969823      2.2549249    
     93900   46.95                192   314.24956     -912.88342      7.7584092     -905.12501      1267.6222      5854.4624      1.904376       25.86837       22.655194      9.9896475      1.9100979    
     94000   47                   192   274.56327     -912.14668      6.7786069     -905.36808     -857.15139      5850.0237      1.9058209      25.861831      22.649467      9.9871222      1.9508903    
     94100   47.05                192   284.16227     -912.53738      7.0155936     -905.52178     -409.86672      5841.8256      1.9084954      25.849745      22.638882      9.9824548      1.932285     
     94200   47.1                 192   275.30991     -912.45921      6.7970404     -905.66217      637.75417      5835.4344      1.9105857      25.840314      22.630623      9.978813       2.1154703    
     94300   47.15                192   304.96813     -913.25616      7.529263      -905.72689      185.77856      5848.0095      1.9064773      25.858863      22.646867      9.9859759      1.8444951    
     94400   47.2                 192   266.32792     -912.18619      6.5752868     -905.6109       164.80836      5867.0963      1.9002752      25.886965      22.671479      9.9968282      1.6034614    
     94500   47.25                192   311.72875     -912.86615      7.6961738     -905.16997      552.60449      5877.2357      1.8969968      25.901869      22.684531      10.002584      1.5041833    
     94600   47.3                 192   288.49414     -911.88405      7.1225418     -904.76151     -2142.2084      5892.6416      1.8920372      25.924481      22.704335      10.011316      1.573805     
     94700   47.35                192   332.59134     -912.64239      8.2112438     -904.43114      790.62991      5861.8554      1.9019742      25.879255      22.664726      9.9938507      1.9238643    
     94800   47.4                 192   305.48854     -911.95957      7.542111      -904.41746      602.63939      5844.4256      1.9076464      25.853579      22.64224       9.9839355      2.7981409    
     94900   47.45                192   311.50921     -912.31106      7.6907535     -904.62031      110.89262      5825.4458      1.9138617      25.825562      22.617703      9.9731162      2.0030613    
     95000   47.5                 192   297.07669     -912.36312      7.3344337     -905.02868     -1247.3758      5798.3102      1.9228184      25.7854        22.58253       9.9576068      1.6105846    
     95100   47.55                192   286.94066     -912.61064      7.0841884     -905.52645      1191.7329      5743.8112      1.9410627      25.704359      22.511555      9.9263109      1.6463079    
     95200   47.6                 192   301.57664     -913.15041      7.4455314     -905.70488     -438.97261      5698.7195      1.9564215      25.636919      22.452491      9.9002672      1.7665605    
     95300   47.65                192   296.96641     -913.10776      7.331711      -905.77605      3639.6884      5666.2374      1.9676368      25.588117      22.409751      9.8814212      2.0133266    
     95400   47.7                 192   262.34294     -912.36551      6.4769029     -905.8886       20.306211      5718.0985      1.9497911      25.665946      22.477913      9.9114768      1.9514483    
     95500   47.75                192   284.25542     -912.65723      7.0178932     -905.63934     -1513.2461      5784.3924      1.9274449      25.764753      22.564447      9.9496332      2.0785033    
     95600   47.8                 192   287.32096     -912.5456       7.0935776     -905.45203     -1808.176       5810.7281      1.9187092      25.803795      22.59864       9.9647103      2.6840894    
     95700   47.85                192   266.42986     -911.80951      6.5778035     -905.23171      1486.8461      5791.7367      1.9250008      25.775652      22.573993      9.9538424      2.0448838    
     95800   47.9                 192   306.9647      -912.43767      7.5785557     -904.85912     -1775.6503      5785.9076      1.9269401      25.767002      22.566417      9.9505019      2.0431279    
     95900   47.95                192   319.54294     -912.53585      7.8890958     -904.64675      474.28585      5757.7484      1.9363641      25.725133      22.529748      9.9343331      1.957324     
     96000   48                   192   334.17876     -912.88339      8.2504352     -904.63296     -22.06928       5731.4989      1.9452324      25.68598       22.495458      9.9192132      1.5020706    
     96100   48.05                192   317.5701      -912.82486      7.8403891     -904.98447      642.02387      5719.784       1.9492165      25.668468      22.480122      9.9124505      1.934403     
     96200   48.1                 192   304.067       -913.05904      7.5070153     -905.55202     -471.61372      5726.5199      1.9469237      25.67854       22.488943      9.9163401      2.2147187    
     96300   48.15                192   288.94401     -913.02713      7.1336485     -905.89348     -1029.0274      5735.6795      1.9438146      25.692223      22.500927      9.9216244      1.8679881    
     96400   48.2                 192   270.16622     -912.58294      6.6700495     -905.91289      363.06631      5722.7561      1.9482042      25.672913      22.484015      9.9141671      1.8940733    
     96500   48.25                192   300.35453     -913.10555      7.4153591     -905.6902       1239.2131      5721.1547      1.9487495      25.670518      22.481917      9.9132423      1.8800001    
     96600   48.3                 192   307.73717     -913.0433       7.5976268     -905.44567     -530.88945      5758.6352      1.9360659      25.726453      22.530905      9.9348431      1.5097006    
     96700   48.35                192   306.54382     -912.81774      7.5681647     -905.24958     -839.97515      5807.0047      1.9199395      25.798282      22.593812      9.9625814      1.518386     
     96800   48.4                 192   300.78335     -912.45712      7.4259462     -905.03118     -963.56696      5833.4197      1.9112455      25.83734       22.628018      9.9776645      1.8823299    
     96900   48.45                192   299.70846     -912.23599      7.3994085     -904.83658      136.80962      5837.99        1.9097493      25.844086      22.633926      9.9802696      1.4527323    
     97000   48.5                 192   287.30495     -911.68991      7.0931821     -904.59673     -1923.2471      5836.1105      1.9103644      25.841312      22.631497      9.9791984      1.5602732    
     97100   48.55                192   303.92607     -911.71921      7.5035359     -904.21568      810.38844      5808.7207      1.9193723      25.800823      22.596037      9.9635626      1.9770407    
     97200   48.6                 192   318.45348     -911.79052      7.8621985     -903.92832     -569.41642      5805.2702      1.9205131      25.795713      22.591562      9.9615894      1.7198116    
     97300   48.65                192   320.23605     -911.9133       7.9062079     -904.0071       1072.5252      5807.4614      1.9197885      25.798959      22.594404      9.9628425      1.8439388    
     97400   48.7                 192   282.9017      -911.73956      6.9844718     -904.75509     -2160.5258      5845.6676      1.9072411      25.85541       22.643844      9.9846427      2.5074752    
     97500   48.75                192   288.55999     -912.69865      7.1241674     -905.57448     -249.76497      5843.0711      1.9080886      25.851582      22.640491      9.9831642      1.7384562    
     97600   48.8                 192   286.64713     -912.86937      7.0769415     -905.79243      500.65577      5822.5197      1.9148235      25.821238      22.613916      9.9714461      1.9382       
     97700   48.85                192   276.04696     -912.59886      6.8152372     -905.78362     -654.95211      5804.9356      1.9206238      25.795218      22.591128      9.961398       1.5812974    
     97800   48.9                 192   288.97476     -912.59611      7.1344075     -905.4617       904.13323      5784.8349      1.9272974      25.76541       22.565022      9.9498869      1.8339058    
     97900   48.95                192   293.01858     -912.1901       7.2342443     -904.95585      145.02822      5778.0651      1.9295555      25.755355      22.556216      9.9460041      1.4287053    
     98000   49                   192   338.10359     -912.88441      8.3473339     -904.53708     -397.82643      5769.4487      1.9324372      25.742546      22.544999      9.9410577      2.1902601    
     98100   49.05                192   315.10317     -912.30593      7.7794838     -904.52645     -573.59088      5757.2472      1.9365327      25.724386      22.529094      9.9340448      2.4933828    
     98200   49.1                 192   317.73746     -912.58252      7.8445208     -904.73799      707.24821      5742.301       1.9415732      25.702106      22.509582      9.9254409      1.8141633    
     98300   49.15                192   305.52007     -912.70343      7.5428896     -905.16054     -1170.6639      5743.2911      1.9412384      25.703584      22.510876      9.9260113      1.6111974    
     98400   49.2                 192   292.13506     -912.81168      7.2124312     -905.59925      1612.1696      5741.2984      1.9419122      25.70061       22.508272      9.9248632      1.6948107    
     98500   49.25                192   302.5938      -913.29685      7.4706439     -905.8262      -1801.8805      5765.5599      1.9337406      25.736761      22.539932      9.9388237      2.5061706    
     98600   49.3                 192   260.78581     -912.31874      6.4384594     -905.88028      1847.9438      5774.7141      1.9306752      25.750375      22.551855      9.944081       3.2833982    
     98700   49.35                192   295.54946     -912.96025      7.2967284     -905.66352     -500.35994      5823.86        1.9143828      25.823219      22.615651      9.9722112      1.365407     
     98800   49.4                 192   287.97171     -912.52964      7.1096435     -905.42        -211.18213      5874.9965      1.8977198      25.898579      22.68165       10.001313      2.5010641    
     98900   49.45                192   294.26296     -912.43822      7.2649664     -905.17325     -194.78188      5922.4628      1.8825103      25.96814       22.742571      10.028176      2.2832406    
     99000   49.5                 192   306.33867     -912.53597      7.5630998     -904.97287     -1934.4415      5950.1935      1.8737369      26.008607      22.778012      10.043803      1.6613981    
     99100   49.55                192   295.534       -912.20541      7.2963466     -904.90906      1588.8902      5944.0879      1.8756616      25.999708      22.770218      10.040366      1.8542951    
     99200   49.6                 192   323.1583      -912.83656      7.9783544     -904.8582      -2835.8096      5956.6091      1.8717188      26.017952      22.786195      10.047412      2.2302445    
     99300   49.65                192   281.83225     -911.91132      6.9580683     -904.95326      412.62158      5921.2997      1.8828801      25.96644       22.741082      10.027519      1.992499     
     99400   49.7                 192   293.73524     -912.22209      7.2519376     -904.97015     -570.62006      5874.2         1.8979772      25.897409      22.680625      10.000861      1.7195839    
     99500   49.75                192   325.77715     -912.73611      8.0430104     -904.6931       2397.0027      5808.391       1.9194812      25.800335      22.595609      9.9633741      1.6683609    
     99600   49.8                 192   314.28703     -912.08274      7.7593343     -904.32341      2601.9263      5802.9881      1.9212683      25.792333      22.588601      9.9602839      2.577858     
     99700   49.85                192   311.64378     -911.71944      7.6940759     -904.02536     -1560.3482      5862.4706      1.9017746      25.88016       22.665519      9.9942003      1.8876652    
     99800   49.9                 192   311.06654     -911.41306      7.6798247     -903.73324     -1850.4708      5893.6806      1.8917037      25.926005      22.705669      10.011904      1.7357479    
     99900   49.95                192   334.47964     -911.91345      8.2578634     -903.65558      463.39918      5857.1561      1.9035001      25.872337      22.658668      9.9911794      1.8262472    
    100000   50                   192   311.93176     -911.63772      7.7011858     -903.93653     -1452.1836      5825.4674      1.9138546      25.825594      22.617731      9.9731285      1.9927468    
Loop time of 3237.76 on 1 procs for 100000 steps with 192 atoms

Performance: 1.334 ns/day, 17.988 hours/ns, 30.886 timesteps/s, 5.930 katom-step/s
99.1% CPU use with 1 MPI tasks x 1 OpenMP threads

MPI task timing breakdown:
Section |  min time  |  avg time  |  max time  |%varavg| %total
---------------------------------------------------------------
Pair    | 3196.3     | 3196.3     | 3196.3     |   0.0 | 98.72
Neigh   | 0.17786    | 0.17786    | 0.17786    |   0.0 |  0.01
Comm    | 4.4826     | 4.4826     | 4.4826     |   0.0 |  0.14
Output  | 0.79652    | 0.79652    | 0.79652    |   0.0 |  0.02
Modify  | 29.658     | 29.658     | 29.658     |   0.0 |  0.92
Other   |            | 6.352      |            |       |  0.20

Nlocal:            192 ave         192 max         192 min
Histogram: 1 0 0 0 0 0 0 0 0 0
Nghost:           1261 ave        1261 max        1261 min
Histogram: 1 0 0 0 0 0 0 0 0 0
Neighs:              0 ave           0 max           0 min
Histogram: 1 0 0 0 0 0 0 0 0 0
FullNghs:        13450 ave       13450 max       13450 min
Histogram: 1 0 0 0 0 0 0 0 0 0

Total # of neighbors = 13450
Ave neighs/atom = 70.052083
Neighbor list builds = 676
Dangerous builds = 0
write_restart equilibrated_300K.restart
System init for write_restart ...
unfix equilibrate
write_data equilibrated_300K.data
System init for write_data ...
Total wall time: 0:54:22
