(written by ASE)

480 atoms
3 atom types

0.0      22.663657285711039  xlo xhi
0.0      19.627302952090108  ylo yhi
0.0      24.458379334097135  zlo zhi
    -11.331828642855553                       0                       0  xy xz yz

Atoms # atomic

     1   3             -3.73510601      8.6578943099999996      4.6664609199999996
     2   3             -3.73510601      8.6578943099999996      10.781055759999999
     3   1      3.6695858499999998    0.018790719999999667             -0.02127325
     4   1     -1.7754809899999999      3.3088704600000001    0.021794259999999999
     5   1      3.7167586199999998      6.1742920999999997    -0.18310534000000001
     6   1      1.8585998100000001      3.2976784100000001      3.0568580500000002
     7   2   -0.086548539999999993      6.4780818499999997      3.0625214000000001
     8   3             -0.24961021      2.1172643400000002              4.60021814
     9   3      3.4991295600000001      8.6883714300000001              4.66887702
    10   3      1.8287977500000001     0.93272506999999993              1.43030898
    11   3     -1.9588272499999999      7.6659602099999997              1.57247461
    12   3    -0.16030968000000001      4.1930035500000002      1.7019843100000001
    13   3      1.7343068699999999      7.7046120699999996      1.5719519500000001
    14   3      3.6603098100000002      1.9936907499999998      4.2850863300000004
    15   3      1.7648280300000001      5.3488729299999997      4.5112276500000004
    16   3              3.57555647      4.2291950500000004      1.4665454499999999
    17   3    -0.12546937999999999      8.7697372900000001      4.4918285600000001
    18   3             -1.99261742      5.2862826600000004      4.5912695699999997
    19   1      3.6695858499999998    0.018790719999999667      6.0933215799999996
    20   1     -1.7754809899999999      3.3088704600000001      6.1363890999999997
    21   1      3.7167586199999998      6.1742920999999997      5.9314894999999996
    22   1      1.8585998100000001      3.2976784100000001      9.1714528800000004
    23   2   -0.086548539999999993      6.4780818499999997      9.1771162299999993
    24   3             -0.24961021      2.1172643400000002      10.714812970000001
    25   3      3.4991295600000001      8.6883714300000001             10.78347185
    26   3      1.8287977500000001     0.93272506999999993              7.54490382
    27   3     -1.9588272499999999      7.6659602099999997      7.6870694400000001
    28   3    -0.16030968000000001      4.1930035500000002              7.81657914
    29   3      1.7343068699999999      7.7046120699999996      7.6865467900000004
    30   3      3.6603098100000002      1.9936907499999998      10.399681169999999
    31   3      1.7648280300000001      5.3488729299999997             10.62582248
    32   3              3.57555647      4.2291950500000004      7.5811402899999996
    33   3    -0.12546937999999999      8.7697372900000001      10.606423400000001
    34   3             -1.99261742      5.2862826600000004      10.705864399999999
    35   1      1.7136900799999999      9.6807509700000001  -0.0046833700000000001
    36   1     -2.1717571800000002      9.6696662999999994              2.98482615
    37   1      1.8880208700000001      9.6898899499999995              3.02227194
    38   1      1.7136900799999999      9.6807509700000001      6.1099114600000002
    39   1     -2.1717571800000002      9.6696662999999994      9.0994209799999997
    40   1      1.8880208700000001      9.6898899499999995      9.1368667800000001
    41   2      5.5265277800000003      3.3421120999999996      2.8928692699999998
    42   3      5.5275439300000002      7.4060077399999988              1.19341871
    43   2      5.5265277800000003      3.3421120999999996               9.0074641
    44   3      5.5275439300000002      7.4060077399999988      7.3080135400000001
    45   3      9.2714531600000001      1.0516295299999991      1.3660208300000001
    46   3              7.46760044       2.031033729999999      4.3120668499999999
    47   3      5.5964288900000003      5.3182032299999991      4.5548777100000004
    48   3      5.5864371799999999     0.96333312999999943               1.4521579
    49   3      7.6128961200000003      4.1905655699999995      1.4493700300000001
    50   3      9.2714531600000001      1.0516295299999991      7.4806156699999997
    51   3              7.46760044       2.031033729999999             10.42666169
    52   3      5.5964288900000003      5.3182032299999991             10.66947255
    53   3      5.5864371799999999     0.96333312999999943      7.5667527300000001
    54   3      7.6128961200000003      4.1905655699999995      7.5639648599999996
    55   1      9.5563476600000001      3.3088704599999992    0.021794259999999999
    56   1      7.3937744299999997      6.3333826399999991             -0.11799405
    57   1      9.3054762600000007      3.2135396399999991      3.0892465599999999
    58   1             13.19042846      3.2976784099999987      3.0568580500000002
    59   2      11.245280109999999      6.4780818499999988      3.0625214000000001
    60   3      7.5967226300000004      8.6578943099999996      4.6664609199999996
    61   3             11.08221844      2.1172643399999993              4.60021814
    62   3      13.160626389999999     0.93272506999999882              1.43030898
    63   3      9.3730013999999997      7.6659602099999988              1.57247461
    64   3             11.17151896      4.1930035499999994      1.7019843100000001
    65   3             13.06613552      7.7046120699999987      1.5719519500000001
    66   3             13.09665667      5.3488729299999989      4.5112276500000004
    67   3             11.20635927      8.7697372899999984      4.4918285600000001
    68   3      9.3392112300000001      5.2862826599999995      4.5912695699999997
    69   1      9.5563476600000001      3.3088704599999992      6.1363890999999997
    70   1      7.3937744299999997      6.3333826399999991      5.9966007799999996
    71   1      9.3054762600000007      3.2135396399999991               9.2038414
    72   1             13.19042846      3.2976784099999987      9.1714528800000004
    73   2      11.245280109999999      6.4780818499999988      9.1771162299999993
    74   3      7.5967226300000004      8.6578943099999996      10.781055759999999
    75   3             11.08221844      2.1172643399999993      10.714812970000001
    76   3      13.160626389999999     0.93272506999999882              7.54490382
    77   3      9.3730013999999997      7.6659602099999988      7.6870694400000001
    78   3             11.17151896      4.1930035499999994              7.81657914
    79   3             13.06613552      7.7046120699999987      7.6865467900000004
    80   3             13.09665667      5.3488729299999989             10.62582248
    81   3             11.20635927      8.7697372899999984      10.606423400000001
    82   3      9.3392112300000001      5.2862826599999995      10.705864399999999
    83   1             13.04551872      9.6807509699999983  -0.0046833700000000001
    84   1      9.1600714599999993      9.6696662999999994              2.98482615
    85   1             13.21984951      9.6898899499999978              3.02227194
    86   2      5.5712843000000003      9.6625575599999998   -0.070931850000000005
    87   1             13.04551872      9.6807509699999983      6.1099114600000002
    88   1      9.1600714599999993      9.6696662999999994      9.0994209799999997
    89   1             13.21984951      9.6898899499999978      9.1368667800000001
    90   2      5.5712843000000003      9.6625575599999998      6.0436629799999997
    91   1     -3.9380542100000002              6.33338264             -0.11799405
    92   1     -3.9380542100000002              6.33338264      5.9966007799999996
    93   2             -5.76054435      9.6625575599999998   -0.070931850000000005
    94   2             -5.76054435      9.6625575599999998      6.0436629799999997
    95   1             -2.02635239              3.21353964      3.0892465599999999
    96   1             -2.02635239              3.21353964               9.2038414
    97   1      15.048587270000001       6.174292099999998    -0.18310534000000001
    98   2             16.85835642      3.3421120999999987      2.8928692699999998
    99   3      20.603281800000001      1.0516295299999983      1.3660208300000001
   100   3      16.859372570000001       7.406007739999998              1.19341871
   101   3             14.83095821      8.6883714299999983              4.66887702
   102   3      18.799429079999999      2.0310337299999981      4.3120668499999999
   103   3             16.92825753      5.3182032299999982      4.5548777100000004
   104   3      14.992138450000001      1.9936907499999987      4.2850863300000004
   105   3             14.90738511      4.2291950499999986      1.4665454499999999
   106   3      16.918265819999998     0.96333312999999843               1.4521579
   107   3             18.94472476      4.1905655699999986      1.4493700300000001
   108   1      15.048587270000001       6.174292099999998      5.9314894999999996
   109   2             16.85835642      3.3421120999999987               9.0074641
   110   3      20.603281800000001      1.0516295299999983      7.4806156699999997
   111   3      16.859372570000001       7.406007739999998      7.3080135400000001
   112   3             14.83095821      8.6883714299999983             10.78347185
   113   3      18.799429079999999      2.0310337299999981             10.42666169
   114   3             16.92825753      5.3182032299999982             10.66947255
   115   3      14.992138450000001      1.9936907499999987      10.399681169999999
   116   3             14.90738511      4.2291950499999986      7.5811402899999996
   117   3      16.918265819999998     0.96333312999999843      7.5667527300000001
   118   3             18.94472476      4.1905655699999986      7.5639648599999996
   119   1             15.00141449    0.018790719999998644             -0.02127325
   120   1             15.00141449    0.018790719999998644      6.0933215799999996
   121   1              3.49415714     -0.1439851800000003              2.98482615
   122   1              3.49415714     -0.1439851800000003      9.0994209799999997
   123   1      7.3796043999999998    -0.13290051000000067  -0.0046833700000000001
   124   1      7.5539351899999998    -0.12376152000000068              3.02227194
   125   1      7.3796043999999998    -0.13290051000000067      6.1099114600000002
   126   1      7.5539351899999998    -0.12376152000000068      9.1368667800000001
   127   1     -7.4413953099999999             13.12252193    0.021794259999999999
   128   1     -3.8073145099999999             13.11132989      3.0568580500000002
   129   2     -5.7524628599999996      16.291733319999999      3.0625214000000001
   130   3     -9.4010203400000005             18.47154578      4.6664609199999996
   131   3     -5.9155245299999999      11.930915819999999              4.60021814
   132   3             -3.83711658      10.746376550000001              1.43030898
   133   3     -7.6247415700000003      17.479611680000001              1.57247461
   134   3     -5.8262240099999998      14.006655029999999      1.7019843100000001
   135   3             -3.93160745             17.51826355      1.5719519500000001
   136   3     -3.9010862899999998      15.162524400000001      4.5112276500000004
   137   3     -5.7913836999999999      18.583388759999998      4.4918285600000001
   138   3     -7.6585317399999999             15.09993414      4.5912695699999997
   139   1     -7.4413953099999999             13.12252193      6.1363890999999997
   140   1     -3.8073145099999999             13.11132989      9.1714528800000004
   141   2     -5.7524628599999996      16.291733319999999      9.1771162299999993
   142   3     -9.4010203400000005             18.47154578      10.781055759999999
   143   3     -5.9155245299999999      11.930915819999999      10.714812970000001
   144   3             -3.83711658      10.746376550000001              7.54490382
   145   3     -7.6247415700000003      17.479611680000001      7.6870694400000001
   146   3     -5.8262240099999998      14.006655029999999              7.81657914
   147   3             -3.93160745             17.51826355      7.6865467900000004
   148   3     -3.9010862899999998      15.162524400000001             10.62582248
   149   3     -5.7913836999999999      18.583388759999998      10.606423400000001
   150   3     -7.6585317399999999             15.09993414      10.705864399999999
   151   1     -1.9963284699999999      9.8324421999999991             -0.02127325
   152   1     -1.9963284699999999      9.8324421999999991      6.0933215799999996
   153   2      11.237198619999999    -0.15109392000000102   -0.070931850000000005
   154   2      11.237198619999999    -0.15109392000000102      6.0436629799999997
   155   1     -1.9491556999999999      15.987943570000001    -0.18310534000000001
   156   2             -0.13938655             13.15576357      2.8928692699999998
   157   3      3.6055388399999999             10.86528101      1.3660208300000001
   158   3    -0.13837039000000001             17.21965922              1.19341871
   159   3     -2.1667847600000001      18.502022910000001              4.66887702
   160   3      1.8016861200000001      11.844685200000001      4.3120668499999999
   161   3   -0.069485430000000001      15.131854710000001      4.5548777100000004
   162   3             -2.00560451      11.807342220000001      4.2850863300000004
   163   3     -2.0903578500000002      14.042846519999999      1.4665454499999999
   164   3   -0.079477140000000002              10.7769846               1.4521579
   165   3      1.9469818000000001      14.004217049999999      1.4493700300000001
   166   1     -1.9491556999999999      15.987943570000001      5.9314894999999996
   167   2             -0.13938655             13.15576357               9.0074641
   168   3      3.6055388399999999             10.86528101      7.4806156699999997
   169   3    -0.13837039000000001             17.21965922      7.3080135400000001
   170   3     -2.1667847600000001      18.502022910000001             10.78347185
   171   3      1.8016861200000001      11.844685200000001             10.42666169
   172   3   -0.069485430000000001      15.131854710000001             10.66947255
   173   3             -2.00560451      11.807342220000001      10.399681169999999
   174   3     -2.0903578500000002      14.042846519999999      7.5811402899999996
   175   3   -0.079477140000000002              10.7769846      7.5667527300000001
   176   3      1.9469818000000001      14.004217049999999      7.5639648599999996
   177   1      14.825985790000001    -0.14398518000000132              2.98482615
   178   1      14.825985790000001    -0.14398518000000132      9.0994209799999997
   179   1              3.89043333             13.12252193    0.021794259999999999
   180   1      1.7278601099999999      16.147034120000001             -0.11799405
   181   1      3.6395619300000002      13.027191119999999      3.0892465599999999
   182   3              1.93080831             18.47154578      4.6664609199999996
   183   3              3.70708707      17.479611680000001              1.57247461
   184   3      3.6732969099999999             15.09993414      4.5912695699999997
   185   1              3.89043333             13.12252193      6.1363890999999997
   186   1      1.7278601099999999      16.147034120000001      5.9966007799999996
   187   1      3.6395619300000002      13.027191119999999               9.2038414
   188   3              1.93080831             18.47154578      10.781055759999999
   189   3              3.70708707      17.479611680000001      7.6870694400000001
   190   3      3.6732969099999999             15.09993414      10.705864399999999
   191   3      5.4163041099999996      11.930915819999999              4.60021814
   192   3      5.5056046399999996      14.006655029999999      1.7019843100000001
   193   3      5.5404449400000004      18.583388759999998      4.4918285600000001
   194   3      5.4163041099999996      11.930915819999999      10.714812970000001
   195   3      5.5056046399999996      14.006655029999999              7.81657914
   196   3      5.5404449400000004      18.583388759999998      10.606423400000001
   197   2   -0.094630019999999995    -0.15109391999999999   -0.070931850000000005
   198   2   -0.094630019999999995    -0.15109391999999999      6.0436629799999997
   199   1      9.3355001699999995      9.8324421999999991             -0.02127325
   200   1      9.3355001699999995      9.8324421999999991      6.0933215799999996
   201   2      5.5793657799999998      16.291733319999999      3.0625214000000001
   202   2      5.5793657799999998      16.291733319999999      9.1771162299999993
   203   1     -9.6039685299999995      16.147034120000001             -0.11799405
   204   1     -9.6039685299999995      16.147034120000001      5.9966007799999996
   205   1             18.71143305    -0.13290051000000169  -0.0046833700000000001
   206   1      18.885763839999999    -0.12376152000000171              3.02227194
   207   1             18.71143305    -0.13290051000000169      6.1099114600000002
   208   1      18.885763839999999    -0.12376152000000171      9.1368667800000001
   209   1      9.3826729400000008      15.987943570000001    -0.18310534000000001
   210   1              7.52451414             13.11132989      3.0568580500000002
   211   2      11.192442099999999      13.155763569999998      2.8928692699999998
   212   3      11.193458250000001             17.21965922              1.19341871
   213   3      9.1650438800000007      18.502022910000001              4.66887702
   214   3      7.4947120700000003      10.746376550000001              1.43030898
   215   3      13.133514760000001      11.844685199999999      4.3120668499999999
   216   3      11.262343209999999      15.131854709999999      4.5548777100000004
   217   3      7.4002211999999998             17.51826355      1.5719519500000001
   218   3      9.3262241299999999      11.807342220000001      4.2850863300000004
   219   3      7.4307423500000001      15.162524400000001      4.5112276500000004
   220   3      9.2414707899999993      14.042846519999999      1.4665454499999999
   221   3              11.2523515      10.776984599999999               1.4521579
   222   3      13.278810440000001      14.004217049999998      1.4493700300000001
   223   1      9.3826729400000008      15.987943570000001      5.9314894999999996
   224   1              7.52451414             13.11132989      9.1714528800000004
   225   2      11.192442099999999      13.155763569999998               9.0074641
   226   3      11.193458250000001             17.21965922      7.3080135400000001
   227   3      9.1650438800000007      18.502022910000001             10.78347185
   228   3      7.4947120700000003      10.746376550000001              7.54490382
   229   3      13.133514760000001      11.844685199999999             10.42666169
   230   3      11.262343209999999      15.131854709999999             10.66947255
   231   3      7.4002211999999998             17.51826355      7.6865467900000004
   232   3      9.3262241299999999      11.807342220000001      10.399681169999999
   233   3      7.4307423500000001      15.162524400000001             10.62582248
   234   3      9.2414707899999993      14.042846519999999      7.5811402899999996
   235   3              11.2523515      10.776984599999999      7.5667527300000001
   236   3      13.278810440000001      14.004217049999998      7.5639648599999996
   237   1     -7.6922667100000002      13.027191119999999      3.0892465599999999
   238   1     -7.6922667100000002      13.027191119999999               9.2038414
   239   3      14.937367480000001      10.865281009999999      1.3660208300000001
   240   3      14.937367480000001      10.865281009999999      7.4806156699999997
   241   3             -3.73510601      8.6578943099999996      16.895650587048568
   242   3             -3.73510601      8.6578943099999996      23.010245427048567
   243   1      3.6695858499999998    0.018790719999999667      12.207916417048567
   244   1     -1.7754809899999999      3.3088704600000001      12.250983927048567
   245   1      3.7167586199999998      6.1742920999999997      12.046084327048568
   246   1      1.8585998100000001      3.2976784100000001      15.286047717048568
   247   2   -0.086548539999999993      6.4780818499999997      15.291711067048567
   248   3             -0.24961021      2.1172643400000002      16.829407807048568
   249   3      3.4991295600000001      8.6883714300000001      16.898066687048569
   250   3      1.8287977500000001     0.93272506999999993      13.659498647048567
   251   3     -1.9588272499999999      7.6659602099999997      13.801664277048568
   252   3    -0.16030968000000001      4.1930035500000002      13.931173977048568
   253   3      1.7343068699999999      7.7046120699999996      13.801141617048568
   254   3      3.6603098100000002      1.9936907499999998      16.514275997048568
   255   3      1.7648280300000001      5.3488729299999997      16.740417317048568
   256   3              3.57555647      4.2291950500000004      13.695735117048567
   257   3    -0.12546937999999999      8.7697372900000001      16.721018227048567
   258   3             -1.99261742      5.2862826600000004      16.820459237048567
   259   1      3.6695858499999998    0.018790719999999667      18.322511247048567
   260   1     -1.7754809899999999      3.3088704600000001      18.365578767048568
   261   1      3.7167586199999998      6.1742920999999997      18.160679167048567
   262   1      1.8585998100000001      3.2976784100000001      21.400642547048569
   263   2   -0.086548539999999993      6.4780818499999997      21.406305897048568
   264   3             -0.24961021      2.1172643400000002       22.94400263704857
   265   3      3.4991295600000001      8.6883714300000001      23.012661517048567
   266   3      1.8287977500000001     0.93272506999999993      19.774093487048567
   267   3     -1.9588272499999999      7.6659602099999997      19.916259107048568
   268   3    -0.16030968000000001      4.1930035500000002      20.045768807048567
   269   3      1.7343068699999999      7.7046120699999996      19.915736457048567
   270   3      3.6603098100000002      1.9936907499999998      22.628870837048567
   271   3      1.7648280300000001      5.3488729299999997      22.855012147048569
   272   3              3.57555647      4.2291950500000004      19.810329957048566
   273   3    -0.12546937999999999      8.7697372900000001       22.83561306704857
   274   3             -1.99261742      5.2862826600000004      22.935054067048569
   275   1      1.7136900799999999      9.6807509700000001      12.224506297048567
   276   1     -2.1717571800000002      9.6696662999999994      15.214015817048567
   277   1      1.8880208700000001      9.6898899499999995      15.251461607048567
   278   1      1.7136900799999999      9.6807509700000001      18.339101127048568
   279   1     -2.1717571800000002      9.6696662999999994      21.328610647048567
   280   1      1.8880208700000001      9.6898899499999995      21.366056447048567
   281   2      5.5265277800000003      3.3421120999999996      15.122058937048568
   282   3      5.5275439300000002      7.4060077399999988      13.422608377048567
   283   2      5.5265277800000003      3.3421120999999996      21.236653767048566
   284   3      5.5275439300000002      7.4060077399999988      19.537203207048567
   285   3      9.2714531600000001      1.0516295299999991      13.595210497048567
   286   3              7.46760044       2.031033729999999      16.541256517048566
   287   3      5.5964288900000003      5.3182032299999991      16.784067377048569
   288   3      5.5864371799999999     0.96333312999999943      13.681347567048567
   289   3      7.6128961200000003      4.1905655699999995      13.678559697048568
   290   3      9.2714531600000001      1.0516295299999991      19.709805337048568
   291   3              7.46760044       2.031033729999999      22.655851357048569
   292   3      5.5964288900000003      5.3182032299999991      22.898662217048567
   293   3      5.5864371799999999     0.96333312999999943      19.795942397048567
   294   3      7.6128961200000003      4.1905655699999995      19.793154527048568
   295   1      9.5563476600000001      3.3088704599999992      12.250983927048567
   296   1      7.3937744299999997      6.3333826399999991      12.111195617048567
   297   1      9.3054762600000007      3.2135396399999991      15.318436227048567
   298   1             13.19042846      3.2976784099999987      15.286047717048568
   299   2      11.245280109999999      6.4780818499999988      15.291711067048567
   300   3      7.5967226300000004      8.6578943099999996      16.895650587048568
   301   3             11.08221844      2.1172643399999993      16.829407807048568
   302   3      13.160626389999999     0.93272506999999882      13.659498647048567
   303   3      9.3730013999999997      7.6659602099999988      13.801664277048568
   304   3             11.17151896      4.1930035499999994      13.931173977048568
   305   3             13.06613552      7.7046120699999987      13.801141617048568
   306   3             13.09665667      5.3488729299999989      16.740417317048568
   307   3             11.20635927      8.7697372899999984      16.721018227048567
   308   3      9.3392112300000001      5.2862826599999995      16.820459237048567
   309   1      9.5563476600000001      3.3088704599999992      18.365578767048568
   310   1      7.3937744299999997      6.3333826399999991      18.225790447048567
   311   1      9.3054762600000007      3.2135396399999991      21.433031067048567
   312   1             13.19042846      3.2976784099999987      21.400642547048569
   313   2      11.245280109999999      6.4780818499999988      21.406305897048568
   314   3      7.5967226300000004      8.6578943099999996      23.010245427048567
   315   3             11.08221844      2.1172643399999993       22.94400263704857
   316   3      13.160626389999999     0.93272506999999882      19.774093487048567
   317   3      9.3730013999999997      7.6659602099999988      19.916259107048568
   318   3             11.17151896      4.1930035499999994      20.045768807048567
   319   3             13.06613552      7.7046120699999987      19.915736457048567
   320   3             13.09665667      5.3488729299999989      22.855012147048569
   321   3             11.20635927      8.7697372899999984       22.83561306704857
   322   3      9.3392112300000001      5.2862826599999995      22.935054067048569
   323   1             13.04551872      9.6807509699999983      12.224506297048567
   324   1      9.1600714599999993      9.6696662999999994      15.214015817048567
   325   1             13.21984951      9.6898899499999978      15.251461607048567
   326   2      5.5712843000000003      9.6625575599999998      12.158257817048568
   327   1             13.04551872      9.6807509699999983      18.339101127048568
   328   1      9.1600714599999993      9.6696662999999994      21.328610647048567
   329   1             13.21984951      9.6898899499999978      21.366056447048567
   330   2      5.5712843000000003      9.6625575599999998      18.272852647048566
   331   1     -3.9380542100000002              6.33338264      12.111195617048567
   332   1     -3.9380542100000002              6.33338264      18.225790447048567
   333   2             -5.76054435      9.6625575599999998      12.158257817048568
   334   2             -5.76054435      9.6625575599999998      18.272852647048566
   335   1             -2.02635239              3.21353964      15.318436227048567
   336   1             -2.02635239              3.21353964      21.433031067048567
   337   1      15.048587270000001       6.174292099999998      12.046084327048568
   338   2             16.85835642      3.3421120999999987      15.122058937048568
   339   3      20.603281800000001      1.0516295299999983      13.595210497048567
   340   3      16.859372570000001       7.406007739999998      13.422608377048567
   341   3             14.83095821      8.6883714299999983      16.898066687048569
   342   3      18.799429079999999      2.0310337299999981      16.541256517048566
   343   3             16.92825753      5.3182032299999982      16.784067377048569
   344   3      14.992138450000001      1.9936907499999987      16.514275997048568
   345   3             14.90738511      4.2291950499999986      13.695735117048567
   346   3      16.918265819999998     0.96333312999999843      13.681347567048567
   347   3             18.94472476      4.1905655699999986      13.678559697048568
   348   1      15.048587270000001       6.174292099999998      18.160679167048567
   349   2             16.85835642      3.3421120999999987      21.236653767048566
   350   3      20.603281800000001      1.0516295299999983      19.709805337048568
   351   3      16.859372570000001       7.406007739999998      19.537203207048567
   352   3             14.83095821      8.6883714299999983      23.012661517048567
   353   3      18.799429079999999      2.0310337299999981      22.655851357048569
   354   3             16.92825753      5.3182032299999982      22.898662217048567
   355   3      14.992138450000001      1.9936907499999987      22.628870837048567
   356   3             14.90738511      4.2291950499999986      19.810329957048566
   357   3      16.918265819999998     0.96333312999999843      19.795942397048567
   358   3             18.94472476      4.1905655699999986      19.793154527048568
   359   1             15.00141449    0.018790719999998644      12.207916417048567
   360   1             15.00141449    0.018790719999998644      18.322511247048567
   361   1              3.49415714     -0.1439851800000003      15.214015817048567
   362   1              3.49415714     -0.1439851800000003      21.328610647048567
   363   1      7.3796043999999998    -0.13290051000000067      12.224506297048567
   364   1      7.5539351899999998    -0.12376152000000068      15.251461607048567
   365   1      7.3796043999999998    -0.13290051000000067      18.339101127048568
   366   1      7.5539351899999998    -0.12376152000000068      21.366056447048567
   367   1     -7.4413953099999999             13.12252193      12.250983927048567
   368   1     -3.8073145099999999             13.11132989      15.286047717048568
   369   2     -5.7524628599999996      16.291733319999999      15.291711067048567
   370   3     -9.4010203400000005             18.47154578      16.895650587048568
   371   3     -5.9155245299999999      11.930915819999999      16.829407807048568
   372   3             -3.83711658      10.746376550000001      13.659498647048567
   373   3     -7.6247415700000003      17.479611680000001      13.801664277048568
   374   3     -5.8262240099999998      14.006655029999999      13.931173977048568
   375   3             -3.93160745             17.51826355      13.801141617048568
   376   3     -3.9010862899999998      15.162524400000001      16.740417317048568
   377   3     -5.7913836999999999      18.583388759999998      16.721018227048567
   378   3     -7.6585317399999999             15.09993414      16.820459237048567
   379   1     -7.4413953099999999             13.12252193      18.365578767048568
   380   1     -3.8073145099999999             13.11132989      21.400642547048569
   381   2     -5.7524628599999996      16.291733319999999      21.406305897048568
   382   3     -9.4010203400000005             18.47154578      23.010245427048567
   383   3     -5.9155245299999999      11.930915819999999       22.94400263704857
   384   3             -3.83711658      10.746376550000001      19.774093487048567
   385   3     -7.6247415700000003      17.479611680000001      19.916259107048568
   386   3     -5.8262240099999998      14.006655029999999      20.045768807048567
   387   3             -3.93160745             17.51826355      19.915736457048567
   388   3     -3.9010862899999998      15.162524400000001      22.855012147048569
   389   3     -5.7913836999999999      18.583388759999998       22.83561306704857
   390   3     -7.6585317399999999             15.09993414      22.935054067048569
   391   1     -1.9963284699999999      9.8324421999999991      12.207916417048567
   392   1     -1.9963284699999999      9.8324421999999991      18.322511247048567
   393   2      11.237198619999999    -0.15109392000000102      12.158257817048568
   394   2      11.237198619999999    -0.15109392000000102      18.272852647048566
   395   1     -1.9491556999999999      15.987943570000001      12.046084327048568
   396   2             -0.13938655             13.15576357      15.122058937048568
   397   3      3.6055388399999999             10.86528101      13.595210497048567
   398   3    -0.13837039000000001             17.21965922      13.422608377048567
   399   3     -2.1667847600000001      18.502022910000001      16.898066687048569
   400   3      1.8016861200000001      11.844685200000001      16.541256517048566
   401   3   -0.069485430000000001      15.131854710000001      16.784067377048569
   402   3             -2.00560451      11.807342220000001      16.514275997048568
   403   3     -2.0903578500000002      14.042846519999999      13.695735117048567
   404   3   -0.079477140000000002              10.7769846      13.681347567048567
   405   3      1.9469818000000001      14.004217049999999      13.678559697048568
   406   1     -1.9491556999999999      15.987943570000001      18.160679167048567
   407   2             -0.13938655             13.15576357      21.236653767048566
   408   3      3.6055388399999999             10.86528101      19.709805337048568
   409   3    -0.13837039000000001             17.21965922      19.537203207048567
   410   3     -2.1667847600000001      18.502022910000001      23.012661517048567
   411   3      1.8016861200000001      11.844685200000001      22.655851357048569
   412   3   -0.069485430000000001      15.131854710000001      22.898662217048567
   413   3             -2.00560451      11.807342220000001      22.628870837048567
   414   3     -2.0903578500000002      14.042846519999999      19.810329957048566
   415   3   -0.079477140000000002              10.7769846      19.795942397048567
   416   3      1.9469818000000001      14.004217049999999      19.793154527048568
   417   1      14.825985790000001    -0.14398518000000132      15.214015817048567
   418   1      14.825985790000001    -0.14398518000000132      21.328610647048567
   419   1              3.89043333             13.12252193      12.250983927048567
   420   1      1.7278601099999999      16.147034120000001      12.111195617048567
   421   1      3.6395619300000002      13.027191119999999      15.318436227048567
   422   3              1.93080831             18.47154578      16.895650587048568
   423   3              3.70708707      17.479611680000001      13.801664277048568
   424   3      3.6732969099999999             15.09993414      16.820459237048567
   425   1              3.89043333             13.12252193      18.365578767048568
   426   1      1.7278601099999999      16.147034120000001      18.225790447048567
   427   1      3.6395619300000002      13.027191119999999      21.433031067048567
   428   3              1.93080831             18.47154578      23.010245427048567
   429   3              3.70708707      17.479611680000001      19.916259107048568
   430   3      3.6732969099999999             15.09993414      22.935054067048569
   431   3      5.4163041099999996      11.930915819999999      16.829407807048568
   432   3      5.5056046399999996      14.006655029999999      13.931173977048568
   433   3      5.5404449400000004      18.583388759999998      16.721018227048567
   434   3      5.4163041099999996      11.930915819999999       22.94400263704857
   435   3      5.5056046399999996      14.006655029999999      20.045768807048567
   436   3      5.5404449400000004      18.583388759999998       22.83561306704857
   437   2   -0.094630019999999995    -0.15109391999999999      12.158257817048568
   438   2   -0.094630019999999995    -0.15109391999999999      18.272852647048566
   439   1      9.3355001699999995      9.8324421999999991      12.207916417048567
   440   1      9.3355001699999995      9.8324421999999991      18.322511247048567
   441   2      5.5793657799999998      16.291733319999999      15.291711067048567
   442   2      5.5793657799999998      16.291733319999999      21.406305897048568
   443   1     -9.6039685299999995      16.147034120000001      12.111195617048567
   444   1     -9.6039685299999995      16.147034120000001      18.225790447048567
   445   1             18.71143305    -0.13290051000000169      12.224506297048567
   446   1      18.885763839999999    -0.12376152000000171      15.251461607048567
   447   1             18.71143305    -0.13290051000000169      18.339101127048568
   448   1      18.885763839999999    -0.12376152000000171      21.366056447048567
   449   1      9.3826729400000008      15.987943570000001      12.046084327048568
   450   1              7.52451414             13.11132989      15.286047717048568
   451   2      11.192442099999999      13.155763569999998      15.122058937048568
   452   3      11.193458250000001             17.21965922      13.422608377048567
   453   3      9.1650438800000007      18.502022910000001      16.898066687048569
   454   3      7.4947120700000003      10.746376550000001      13.659498647048567
   455   3      13.133514760000001      11.844685199999999      16.541256517048566
   456   3      11.262343209999999      15.131854709999999      16.784067377048569
   457   3      7.4002211999999998             17.51826355      13.801141617048568
   458   3      9.3262241299999999      11.807342220000001      16.514275997048568
   459   3      7.4307423500000001      15.162524400000001      16.740417317048568
   460   3      9.2414707899999993      14.042846519999999      13.695735117048567
   461   3              11.2523515      10.776984599999999      13.681347567048567
   462   3      13.278810440000001      14.004217049999998      13.678559697048568
   463   1      9.3826729400000008      15.987943570000001      18.160679167048567
   464   1              7.52451414             13.11132989      21.400642547048569
   465   2      11.192442099999999      13.155763569999998      21.236653767048566
   466   3      11.193458250000001             17.21965922      19.537203207048567
   467   3      9.1650438800000007      18.502022910000001      23.012661517048567
   468   3      7.4947120700000003      10.746376550000001      19.774093487048567
   469   3      13.133514760000001      11.844685199999999      22.655851357048569
   470   3      11.262343209999999      15.131854709999999      22.898662217048567
   471   3      7.4002211999999998             17.51826355      19.915736457048567
   472   3      9.3262241299999999      11.807342220000001      22.628870837048567
   473   3      7.4307423500000001      15.162524400000001      22.855012147048569
   474   3      9.2414707899999993      14.042846519999999      19.810329957048566
   475   3              11.2523515      10.776984599999999      19.795942397048567
   476   3      13.278810440000001      14.004217049999998      19.793154527048568
   477   1     -7.6922667100000002      13.027191119999999      15.318436227048567
   478   1     -7.6922667100000002      13.027191119999999      21.433031067048567
   479   3      14.937367480000001      10.865281009999999      13.595210497048567
   480   3      14.937367480000001      10.865281009999999      19.709805337048568
