480
Lattice="22.66365728571104 0.0 0.0 -11.331828642855553 19.62730295209011 0.0 0.0 0.0 24.458379334097135" Properties=species:S:1:pos:R:3:masses:R:1:momenta:R:3:id:I:1:type:I:1 comment="LAMMPS data file via write_data, version 10 Sep 2025, timestep = 1384, units = metal" pbc="T T T"
Cl      -3.73510601       8.65789431       4.66646092      35.45000001      -0.01443661       0.02235024       0.00599071       13        3
Cl      -3.73510601       8.65789431      10.78105576      35.45000001      -0.01443661       0.02235024       0.00599071       43        3
Li       3.66958585       0.01879072      -0.02127325       6.94000000      -0.02020988       0.04135081      -0.01021383        1        1
Li      -1.77548099       3.30887046       0.02179426       6.94000000       0.09234061       0.04116617       0.04146957        3        1
Li       3.71675862       6.17429210      -0.18310534       6.94000000       0.01741714      -0.05320816      -0.03367028        5        1
Li       1.85859981       3.29767841       3.05685805       6.94000000      -0.01368435      -0.00891384       0.04302019        9        1
Y       -0.08654854       6.47808185       3.06252140      88.90584002       0.07350335       0.21965983       0.02935684       11        2
Cl      -0.24961021       2.11726434       4.60021814      35.45000001       0.02435849      -0.03459526       0.01626562       15        3
Cl       3.49912956       8.68837143       4.66887702      35.45000001      -0.04742742      -0.01798427      -0.05162592       17        3
Cl       1.82879775       0.93272507       1.43030898      35.45000001      -0.11209142      -0.05546965       0.00976096       18        3
Cl      -1.95882725       7.66596021       1.57247461      35.45000001      -0.00192987      -0.01595045      -0.00017536       19        3
Cl      -0.16030968       4.19300355       1.70198431      35.45000001       0.05999975       0.03325164       0.13319469       21        3
Cl       1.73430687       7.70461207       1.57195195      35.45000001      -0.02564228       0.09165740       0.01780224       23        3
Cl       3.66030981       1.99369075       4.28508633      35.45000001      -0.02110658       0.00549138      -0.03907924       24        3
Cl       1.76482803       5.34887293       4.51122765      35.45000001      -0.04813009       0.02323861       0.07224732       25        3
Cl       3.57555647       4.22919505       1.46654545      35.45000001      -0.04304856      -0.03495990       0.03700894       26        3
Cl      -0.12546938       8.76973729       4.49182856      35.45000001      -0.04702954       0.06394770       0.00113497       27        3
Cl      -1.99261742       5.28628266       4.59126957      35.45000001       0.06552409       0.03894774       0.05614082       29        3
Li       3.66958585       0.01879072       6.09332158       6.94000000      -0.02020988       0.04135081      -0.01021383       31        1
Li      -1.77548099       3.30887046       6.13638910       6.94000000       0.09234061       0.04116617       0.04146957       33        1
Li       3.71675862       6.17429210       5.93148950       6.94000000       0.01741714      -0.05320816      -0.03367028       35        1
Li       1.85859981       3.29767841       9.17145288       6.94000000      -0.01368435      -0.00891384       0.04302019       39        1
Y       -0.08654854       6.47808185       9.17711623      88.90584002       0.07350335       0.21965983       0.02935684       41        2
Cl      -0.24961021       2.11726434      10.71481297      35.45000001       0.02435849      -0.03459526       0.01626562       45        3
Cl       3.49912956       8.68837143      10.78347185      35.45000001      -0.04742742      -0.01798427      -0.05162592       47        3
Cl       1.82879775       0.93272507       7.54490382      35.45000001      -0.11209142      -0.05546965       0.00976096       48        3
Cl      -1.95882725       7.66596021       7.68706944      35.45000001      -0.00192987      -0.01595045      -0.00017536       49        3
Cl      -0.16030968       4.19300355       7.81657914      35.45000001       0.05999975       0.03325164       0.13319469       51        3
Cl       1.73430687       7.70461207       7.68654679      35.45000001      -0.02564228       0.09165740       0.01780224       53        3
Cl       3.66030981       1.99369075      10.39968117      35.45000001      -0.02110658       0.00549138      -0.03907924       54        3
Cl       1.76482803       5.34887293      10.62582248      35.45000001      -0.04813009       0.02323861       0.07224732       55        3
Cl       3.57555647       4.22919505       7.58114029      35.45000001      -0.04304856      -0.03495990       0.03700894       56        3
Cl      -0.12546938       8.76973729      10.60642340      35.45000001      -0.04702954       0.06394770       0.00113497       57        3
Cl      -1.99261742       5.28628266      10.70586440      35.45000001       0.06552409       0.03894774       0.05614082       59        3
Li       1.71369008       9.68075097      -0.00468337       6.94000000       0.00119296       0.01423554      -0.01456512       62        1
Li      -2.17175718       9.66966630       2.98482615       6.94000000      -0.02345468      -0.01145439      -0.00339366       66        1
Li       1.88802087       9.68988995       3.02227194       6.94000000      -0.00490244       0.01296001      -0.01000668       67        1
Li       1.71369008       9.68075097       6.10991146       6.94000000       0.00119296       0.01423554      -0.01456512       92        1
Li      -2.17175718       9.66966630       9.09942098       6.94000000      -0.02345468      -0.01145439      -0.00339366       96        1
Li       1.88802087       9.68988995       9.13686678       6.94000000      -0.00490244       0.01296001      -0.01000668       97        1
Y        5.52652778       3.34211210       2.89286927      88.90584002       0.08532771      -0.10616600      -0.21436515       12        2
Cl       5.52754393       7.40600774       1.19341871      35.45000001      -0.02818259      -0.12818164      -0.09153141       16        3
Y        5.52652778       3.34211210       9.00746410      88.90584002       0.08532771      -0.10616600      -0.21436515       42        2
Cl       5.52754393       7.40600774       7.30801354      35.45000001      -0.02818259      -0.12818164      -0.09153141       46        3
Cl       9.27145316       1.05162953       1.36602083      35.45000001       0.00895432       0.01032147      -0.04010134       14        3
Cl       7.46760044       2.03103373       4.31206685      35.45000001      -0.03634981      -0.02887845      -0.08296522       20        3
Cl       5.59642889       5.31820323       4.55487771      35.45000001       0.07799049      -0.08848867      -0.06423428       22        3
Cl       5.58643718       0.96333313       1.45215790      35.45000001      -0.07268999       0.00344090      -0.08313092       28        3
Cl       7.61289612       4.19056557       1.44937003      35.45000001       0.04672814      -0.02765497      -0.02131892       30        3
Cl       9.27145316       1.05162953       7.48061567      35.45000001       0.00895432       0.01032147      -0.04010134       44        3
Cl       7.46760044       2.03103373      10.42666169      35.45000001      -0.03634981      -0.02887845      -0.08296522       50        3
Cl       5.59642889       5.31820323      10.66947255      35.45000001       0.07799049      -0.08848867      -0.06423428       52        3
Cl       5.58643718       0.96333313       7.56675273      35.45000001      -0.07268999       0.00344090      -0.08313092       58        3
Cl       7.61289612       4.19056557       7.56396486      35.45000001       0.04672814      -0.02765497      -0.02131892       60        3
Li       9.55634766       3.30887046       0.02179426       6.94000000       0.09234061       0.04116617       0.04146957      123        1
Li       7.39377443       6.33338264      -0.11799405       6.94000000       0.01270831      -0.01975949       0.00161581      124        1
Li       9.30547626       3.21353964       3.08924656       6.94000000      -0.01075391       0.02332763       0.02968243      128        1
Li      13.19042846       3.29767841       3.05685805       6.94000000      -0.01368435      -0.00891384       0.04302019      129        1
Y       11.24528011       6.47808185       3.06252140      88.90584002       0.07350335       0.21965983       0.02935684      131        2
Cl       7.59672263       8.65789431       4.66646092      35.45000001      -0.01443661       0.02235024       0.00599071      133        3
Cl      11.08221844       2.11726434       4.60021814      35.45000001       0.02435849      -0.03459526       0.01626562      135        3
Cl      13.16062639       0.93272507       1.43030898      35.45000001      -0.11209142      -0.05546965       0.00976096      138        3
Cl       9.37300140       7.66596021       1.57247461      35.45000001      -0.00192987      -0.01595045      -0.00017536      139        3
Cl      11.17151896       4.19300355       1.70198431      35.45000001       0.05999975       0.03325164       0.13319469      141        3
Cl      13.06613552       7.70461207       1.57195195      35.45000001      -0.02564228       0.09165740       0.01780224      143        3
Cl      13.09665667       5.34887293       4.51122765      35.45000001      -0.04813009       0.02323861       0.07224732      145        3
Cl      11.20635927       8.76973729       4.49182856      35.45000001      -0.04702954       0.06394770       0.00113497      147        3
Cl       9.33921123       5.28628266       4.59126957      35.45000001       0.06552409       0.03894774       0.05614082      149        3
Li       9.55634766       3.30887046       6.13638910       6.94000000       0.09234061       0.04116617       0.04146957      153        1
Li       7.39377443       6.33338264       5.99660078       6.94000000       0.01270831      -0.01975949       0.00161581      154        1
Li       9.30547626       3.21353964       9.20384140       6.94000000      -0.01075391       0.02332763       0.02968243      158        1
Li      13.19042846       3.29767841       9.17145288       6.94000000      -0.01368435      -0.00891384       0.04302019      159        1
Y       11.24528011       6.47808185       9.17711623      88.90584002       0.07350335       0.21965983       0.02935684      161        2
Cl       7.59672263       8.65789431      10.78105576      35.45000001      -0.01443661       0.02235024       0.00599071      163        3
Cl      11.08221844       2.11726434      10.71481297      35.45000001       0.02435849      -0.03459526       0.01626562      165        3
Cl      13.16062639       0.93272507       7.54490382      35.45000001      -0.11209142      -0.05546965       0.00976096      168        3
Cl       9.37300140       7.66596021       7.68706944      35.45000001      -0.00192987      -0.01595045      -0.00017536      169        3
Cl      11.17151896       4.19300355       7.81657914      35.45000001       0.05999975       0.03325164       0.13319469      171        3
Cl      13.06613552       7.70461207       7.68654679      35.45000001      -0.02564228       0.09165740       0.01780224      173        3
Cl      13.09665667       5.34887293      10.62582248      35.45000001      -0.04813009       0.02323861       0.07224732      175        3
Cl      11.20635927       8.76973729      10.60642340      35.45000001      -0.04702954       0.06394770       0.00113497      177        3
Cl       9.33921123       5.28628266      10.70586440      35.45000001       0.06552409       0.03894774       0.05614082      179        3
Li      13.04551872       9.68075097      -0.00468337       6.94000000       0.00119296       0.01423554      -0.01456512      182        1
Li       9.16007146       9.66966630       2.98482615       6.94000000      -0.02345468      -0.01145439      -0.00339366      186        1
Li      13.21984951       9.68988995       3.02227194       6.94000000      -0.00490244       0.01296001      -0.01000668      187        1
Y        5.57128430       9.66255756      -0.07093185      88.90584002      -0.17947106      -0.19681777       0.01482572      190        2
Li      13.04551872       9.68075097       6.10991146       6.94000000       0.00119296       0.01423554      -0.01456512      212        1
Li       9.16007146       9.66966630       9.09942098       6.94000000      -0.02345468      -0.01145439      -0.00339366      216        1
Li      13.21984951       9.68988995       9.13686678       6.94000000      -0.00490244       0.01296001      -0.01000668      217        1
Y        5.57128430       9.66255756       6.04366298      88.90584002      -0.17947106      -0.19681777       0.01482572      220        2
Li      -3.93805421       6.33338264      -0.11799405       6.94000000       0.01270831      -0.01975949       0.00161581        4        1
Li      -3.93805421       6.33338264       5.99660078       6.94000000       0.01270831      -0.01975949       0.00161581       34        1
Y       -5.76054435       9.66255756      -0.07093185      88.90584002      -0.17947106      -0.19681777       0.01482572       70        2
Y       -5.76054435       9.66255756       6.04366298      88.90584002      -0.17947106      -0.19681777       0.01482572      100        2
Li      -2.02635239       3.21353964       3.08924656       6.94000000      -0.01075391       0.02332763       0.02968243        8        1
Li      -2.02635239       3.21353964       9.20384140       6.94000000      -0.01075391       0.02332763       0.02968243       38        1
Li      15.04858727       6.17429210      -0.18310534       6.94000000       0.01741714      -0.05320816      -0.03367028      125        1
Y       16.85835642       3.34211210       2.89286927      88.90584002       0.08532771      -0.10616600      -0.21436515      132        2
Cl      20.60328180       1.05162953       1.36602083      35.45000001       0.00895432       0.01032147      -0.04010134      134        3
Cl      16.85937257       7.40600774       1.19341871      35.45000001      -0.02818259      -0.12818164      -0.09153141      136        3
Cl      14.83095821       8.68837143       4.66887702      35.45000001      -0.04742742      -0.01798427      -0.05162592      137        3
Cl      18.79942908       2.03103373       4.31206685      35.45000001      -0.03634981      -0.02887845      -0.08296522      140        3
Cl      16.92825753       5.31820323       4.55487771      35.45000001       0.07799049      -0.08848867      -0.06423428      142        3
Cl      14.99213845       1.99369075       4.28508633      35.45000001      -0.02110658       0.00549138      -0.03907924      144        3
Cl      14.90738511       4.22919505       1.46654545      35.45000001      -0.04304856      -0.03495990       0.03700894      146        3
Cl      16.91826582       0.96333313       1.45215790      35.45000001      -0.07268999       0.00344090      -0.08313092      148        3
Cl      18.94472476       4.19056557       1.44937003      35.45000001       0.04672814      -0.02765497      -0.02131892      150        3
Li      15.04858727       6.17429210       5.93148950       6.94000000       0.01741714      -0.05320816      -0.03367028      155        1
Y       16.85835642       3.34211210       9.00746410      88.90584002       0.08532771      -0.10616600      -0.21436515      162        2
Cl      20.60328180       1.05162953       7.48061567      35.45000001       0.00895432       0.01032147      -0.04010134      164        3
Cl      16.85937257       7.40600774       7.30801354      35.45000001      -0.02818259      -0.12818164      -0.09153141      166        3
Cl      14.83095821       8.68837143      10.78347185      35.45000001      -0.04742742      -0.01798427      -0.05162592      167        3
Cl      18.79942908       2.03103373      10.42666169      35.45000001      -0.03634981      -0.02887845      -0.08296522      170        3
Cl      16.92825753       5.31820323      10.66947255      35.45000001       0.07799049      -0.08848867      -0.06423428      172        3
Cl      14.99213845       1.99369075      10.39968117      35.45000001      -0.02110658       0.00549138      -0.03907924      174        3
Cl      14.90738511       4.22919505       7.58114029      35.45000001      -0.04304856      -0.03495990       0.03700894      176        3
Cl      16.91826582       0.96333313       7.56675273      35.45000001      -0.07268999       0.00344090      -0.08313092      178        3
Cl      18.94472476       4.19056557       7.56396486      35.45000001       0.04672814      -0.02765497      -0.02131892      180        3
Li      15.00141449       0.01879072      -0.02127325       6.94000000      -0.02020988       0.04135081      -0.01021383      121        1
Li      15.00141449       0.01879072       6.09332158       6.94000000      -0.02020988       0.04135081      -0.01021383      151        1
Li       3.49415714      -0.14398518       2.98482615       6.94000000      -0.02345468      -0.01145439      -0.00339366        6        1
Li       3.49415714      -0.14398518       9.09942098       6.94000000      -0.02345468      -0.01145439      -0.00339366       36        1
Li       7.37960440      -0.13290051      -0.00468337       6.94000000       0.00119296       0.01423554      -0.01456512        2        1
Li       7.55393519      -0.12376152       3.02227194       6.94000000      -0.00490244       0.01296001      -0.01000668        7        1
Li       7.37960440      -0.13290051       6.10991146       6.94000000       0.00119296       0.01423554      -0.01456512       32        1
Li       7.55393519      -0.12376152       9.13686678       6.94000000      -0.00490244       0.01296001      -0.01000668       37        1
Li      -7.44139531      13.12252193       0.02179426       6.94000000       0.09234061       0.04116617       0.04146957       63        1
Li      -3.80731451      13.11132989       3.05685805       6.94000000      -0.01368435      -0.00891384       0.04302019       69        1
Y       -5.75246286      16.29173332       3.06252140      88.90584002       0.07350335       0.21965983       0.02935684       71        2
Cl      -9.40102034      18.47154578       4.66646092      35.45000001      -0.01443661       0.02235024       0.00599071       73        3
Cl      -5.91552453      11.93091582       4.60021814      35.45000001       0.02435849      -0.03459526       0.01626562       75        3
Cl      -3.83711658      10.74637655       1.43030898      35.45000001      -0.11209142      -0.05546965       0.00976096       78        3
Cl      -7.62474157      17.47961168       1.57247461      35.45000001      -0.00192987      -0.01595045      -0.00017536       79        3
Cl      -5.82622401      14.00665503       1.70198431      35.45000001       0.05999975       0.03325164       0.13319469       81        3
Cl      -3.93160745      17.51826355       1.57195195      35.45000001      -0.02564228       0.09165740       0.01780224       83        3
Cl      -3.90108629      15.16252440       4.51122765      35.45000001      -0.04813009       0.02323861       0.07224732       85        3
Cl      -5.79138370      18.58338876       4.49182856      35.45000001      -0.04702954       0.06394770       0.00113497       87        3
Cl      -7.65853174      15.09993414       4.59126957      35.45000001       0.06552409       0.03894774       0.05614082       89        3
Li      -7.44139531      13.12252193       6.13638910       6.94000000       0.09234061       0.04116617       0.04146957       93        1
Li      -3.80731451      13.11132989       9.17145288       6.94000000      -0.01368435      -0.00891384       0.04302019       99        1
Y       -5.75246286      16.29173332       9.17711623      88.90584002       0.07350335       0.21965983       0.02935684      101        2
Cl      -9.40102034      18.47154578      10.78105576      35.45000001      -0.01443661       0.02235024       0.00599071      103        3
Cl      -5.91552453      11.93091582      10.71481297      35.45000001       0.02435849      -0.03459526       0.01626562      105        3
Cl      -3.83711658      10.74637655       7.54490382      35.45000001      -0.11209142      -0.05546965       0.00976096      108        3
Cl      -7.62474157      17.47961168       7.68706944      35.45000001      -0.00192987      -0.01595045      -0.00017536      109        3
Cl      -5.82622401      14.00665503       7.81657914      35.45000001       0.05999975       0.03325164       0.13319469      111        3
Cl      -3.93160745      17.51826355       7.68654679      35.45000001      -0.02564228       0.09165740       0.01780224      113        3
Cl      -3.90108629      15.16252440      10.62582248      35.45000001      -0.04813009       0.02323861       0.07224732      115        3
Cl      -5.79138370      18.58338876      10.60642340      35.45000001      -0.04702954       0.06394770       0.00113497      117        3
Cl      -7.65853174      15.09993414      10.70586440      35.45000001       0.06552409       0.03894774       0.05614082      119        3
Li      -1.99632847       9.83244220      -0.02127325       6.94000000      -0.02020988       0.04135081      -0.01021383       61        1
Li      -1.99632847       9.83244220       6.09332158       6.94000000      -0.02020988       0.04135081      -0.01021383       91        1
Y       11.23719862      -0.15109392      -0.07093185      88.90584002      -0.17947106      -0.19681777       0.01482572      130        2
Y       11.23719862      -0.15109392       6.04366298      88.90584002      -0.17947106      -0.19681777       0.01482572      160        2
Li      -1.94915570      15.98794357      -0.18310534       6.94000000       0.01741714      -0.05320816      -0.03367028       65        1
Y       -0.13938655      13.15576357       2.89286927      88.90584002       0.08532771      -0.10616600      -0.21436515       72        2
Cl       3.60553884      10.86528101       1.36602083      35.45000001       0.00895432       0.01032147      -0.04010134       74        3
Cl      -0.13837039      17.21965922       1.19341871      35.45000001      -0.02818259      -0.12818164      -0.09153141       76        3
Cl      -2.16678476      18.50202291       4.66887702      35.45000001      -0.04742742      -0.01798427      -0.05162592       77        3
Cl       1.80168612      11.84468520       4.31206685      35.45000001      -0.03634981      -0.02887845      -0.08296522       80        3
Cl      -0.06948543      15.13185471       4.55487771      35.45000001       0.07799049      -0.08848867      -0.06423428       82        3
Cl      -2.00560451      11.80734222       4.28508633      35.45000001      -0.02110658       0.00549138      -0.03907924       84        3
Cl      -2.09035785      14.04284652       1.46654545      35.45000001      -0.04304856      -0.03495990       0.03700894       86        3
Cl      -0.07947714      10.77698460       1.45215790      35.45000001      -0.07268999       0.00344090      -0.08313092       88        3
Cl       1.94698180      14.00421705       1.44937003      35.45000001       0.04672814      -0.02765497      -0.02131892       90        3
Li      -1.94915570      15.98794357       5.93148950       6.94000000       0.01741714      -0.05320816      -0.03367028       95        1
Y       -0.13938655      13.15576357       9.00746410      88.90584002       0.08532771      -0.10616600      -0.21436515      102        2
Cl       3.60553884      10.86528101       7.48061567      35.45000001       0.00895432       0.01032147      -0.04010134      104        3
Cl      -0.13837039      17.21965922       7.30801354      35.45000001      -0.02818259      -0.12818164      -0.09153141      106        3
Cl      -2.16678476      18.50202291      10.78347185      35.45000001      -0.04742742      -0.01798427      -0.05162592      107        3
Cl       1.80168612      11.84468520      10.42666169      35.45000001      -0.03634981      -0.02887845      -0.08296522      110        3
Cl      -0.06948543      15.13185471      10.66947255      35.45000001       0.07799049      -0.08848867      -0.06423428      112        3
Cl      -2.00560451      11.80734222      10.39968117      35.45000001      -0.02110658       0.00549138      -0.03907924      114        3
Cl      -2.09035785      14.04284652       7.58114029      35.45000001      -0.04304856      -0.03495990       0.03700894      116        3
Cl      -0.07947714      10.77698460       7.56675273      35.45000001      -0.07268999       0.00344090      -0.08313092      118        3
Cl       1.94698180      14.00421705       7.56396486      35.45000001       0.04672814      -0.02765497      -0.02131892      120        3
Li      14.82598579      -0.14398518       2.98482615       6.94000000      -0.02345468      -0.01145439      -0.00339366      126        1
Li      14.82598579      -0.14398518       9.09942098       6.94000000      -0.02345468      -0.01145439      -0.00339366      156        1
Li       3.89043333      13.12252193       0.02179426       6.94000000       0.09234061       0.04116617       0.04146957      183        1
Li       1.72786011      16.14703412      -0.11799405       6.94000000       0.01270831      -0.01975949       0.00161581      184        1
Li       3.63956193      13.02719112       3.08924656       6.94000000      -0.01075391       0.02332763       0.02968243      188        1
Cl       1.93080831      18.47154578       4.66646092      35.45000001      -0.01443661       0.02235024       0.00599071      193        3
Cl       3.70708707      17.47961168       1.57247461      35.45000001      -0.00192987      -0.01595045      -0.00017536      199        3
Cl       3.67329691      15.09993414       4.59126957      35.45000001       0.06552409       0.03894774       0.05614082      209        3
Li       3.89043333      13.12252193       6.13638910       6.94000000       0.09234061       0.04116617       0.04146957      213        1
Li       1.72786011      16.14703412       5.99660078       6.94000000       0.01270831      -0.01975949       0.00161581      214        1
Li       3.63956193      13.02719112       9.20384140       6.94000000      -0.01075391       0.02332763       0.02968243      218        1
Cl       1.93080831      18.47154578      10.78105576      35.45000001      -0.01443661       0.02235024       0.00599071      223        3
Cl       3.70708707      17.47961168       7.68706944      35.45000001      -0.00192987      -0.01595045      -0.00017536      229        3
Cl       3.67329691      15.09993414      10.70586440      35.45000001       0.06552409       0.03894774       0.05614082      239        3
Cl       5.41630411      11.93091582       4.60021814      35.45000001       0.02435849      -0.03459526       0.01626562      195        3
Cl       5.50560464      14.00665503       1.70198431      35.45000001       0.05999975       0.03325164       0.13319469      201        3
Cl       5.54044494      18.58338876       4.49182856      35.45000001      -0.04702954       0.06394770       0.00113497      207        3
Cl       5.41630411      11.93091582      10.71481297      35.45000001       0.02435849      -0.03459526       0.01626562      225        3
Cl       5.50560464      14.00665503       7.81657914      35.45000001       0.05999975       0.03325164       0.13319469      231        3
Cl       5.54044494      18.58338876      10.60642340      35.45000001      -0.04702954       0.06394770       0.00113497      237        3
Y       -0.09463002      -0.15109392      -0.07093185      88.90584002      -0.17947106      -0.19681777       0.01482572       10        2
Y       -0.09463002      -0.15109392       6.04366298      88.90584002      -0.17947106      -0.19681777       0.01482572       40        2
Li       9.33550017       9.83244220      -0.02127325       6.94000000      -0.02020988       0.04135081      -0.01021383      181        1
Li       9.33550017       9.83244220       6.09332158       6.94000000      -0.02020988       0.04135081      -0.01021383      211        1
Y        5.57936578      16.29173332       3.06252140      88.90584002       0.07350335       0.21965983       0.02935684      191        2
Y        5.57936578      16.29173332       9.17711623      88.90584002       0.07350335       0.21965983       0.02935684      221        2
Li      -9.60396853      16.14703412      -0.11799405       6.94000000       0.01270831      -0.01975949       0.00161581       64        1
Li      -9.60396853      16.14703412       5.99660078       6.94000000       0.01270831      -0.01975949       0.00161581       94        1
Li      18.71143305      -0.13290051      -0.00468337       6.94000000       0.00119296       0.01423554      -0.01456512      122        1
Li      18.88576384      -0.12376152       3.02227194       6.94000000      -0.00490244       0.01296001      -0.01000668      127        1
Li      18.71143305      -0.13290051       6.10991146       6.94000000       0.00119296       0.01423554      -0.01456512      152        1
Li      18.88576384      -0.12376152       9.13686678       6.94000000      -0.00490244       0.01296001      -0.01000668      157        1
Li       9.38267294      15.98794357      -0.18310534       6.94000000       0.01741714      -0.05320816      -0.03367028      185        1
Li       7.52451414      13.11132989       3.05685805       6.94000000      -0.01368435      -0.00891384       0.04302019      189        1
Y       11.19244210      13.15576357       2.89286927      88.90584002       0.08532771      -0.10616600      -0.21436515      192        2
Cl      11.19345825      17.21965922       1.19341871      35.45000001      -0.02818259      -0.12818164      -0.09153141      196        3
Cl       9.16504388      18.50202291       4.66887702      35.45000001      -0.04742742      -0.01798427      -0.05162592      197        3
Cl       7.49471207      10.74637655       1.43030898      35.45000001      -0.11209142      -0.05546965       0.00976096      198        3
Cl      13.13351476      11.84468520       4.31206685      35.45000001      -0.03634981      -0.02887845      -0.08296522      200        3
Cl      11.26234321      15.13185471       4.55487771      35.45000001       0.07799049      -0.08848867      -0.06423428      202        3
Cl       7.40022120      17.51826355       1.57195195      35.45000001      -0.02564228       0.09165740       0.01780224      203        3
Cl       9.32622413      11.80734222       4.28508633      35.45000001      -0.02110658       0.00549138      -0.03907924      204        3
Cl       7.43074235      15.16252440       4.51122765      35.45000001      -0.04813009       0.02323861       0.07224732      205        3
Cl       9.24147079      14.04284652       1.46654545      35.45000001      -0.04304856      -0.03495990       0.03700894      206        3
Cl      11.25235150      10.77698460       1.45215790      35.45000001      -0.07268999       0.00344090      -0.08313092      208        3
Cl      13.27881044      14.00421705       1.44937003      35.45000001       0.04672814      -0.02765497      -0.02131892      210        3
Li       9.38267294      15.98794357       5.93148950       6.94000000       0.01741714      -0.05320816      -0.03367028      215        1
Li       7.52451414      13.11132989       9.17145288       6.94000000      -0.01368435      -0.00891384       0.04302019      219        1
Y       11.19244210      13.15576357       9.00746410      88.90584002       0.08532771      -0.10616600      -0.21436515      222        2
Cl      11.19345825      17.21965922       7.30801354      35.45000001      -0.02818259      -0.12818164      -0.09153141      226        3
Cl       9.16504388      18.50202291      10.78347185      35.45000001      -0.04742742      -0.01798427      -0.05162592      227        3
Cl       7.49471207      10.74637655       7.54490382      35.45000001      -0.11209142      -0.05546965       0.00976096      228        3
Cl      13.13351476      11.84468520      10.42666169      35.45000001      -0.03634981      -0.02887845      -0.08296522      230        3
Cl      11.26234321      15.13185471      10.66947255      35.45000001       0.07799049      -0.08848867      -0.06423428      232        3
Cl       7.40022120      17.51826355       7.68654679      35.45000001      -0.02564228       0.09165740       0.01780224      233        3
Cl       9.32622413      11.80734222      10.39968117      35.45000001      -0.02110658       0.00549138      -0.03907924      234        3
Cl       7.43074235      15.16252440      10.62582248      35.45000001      -0.04813009       0.02323861       0.07224732      235        3
Cl       9.24147079      14.04284652       7.58114029      35.45000001      -0.04304856      -0.03495990       0.03700894      236        3
Cl      11.25235150      10.77698460       7.56675273      35.45000001      -0.07268999       0.00344090      -0.08313092      238        3
Cl      13.27881044      14.00421705       7.56396486      35.45000001       0.04672814      -0.02765497      -0.02131892      240        3
Li      -7.69226671      13.02719112       3.08924656       6.94000000      -0.01075391       0.02332763       0.02968243       68        1
Li      -7.69226671      13.02719112       9.20384140       6.94000000      -0.01075391       0.02332763       0.02968243       98        1
Cl      14.93736748      10.86528101       1.36602083      35.45000001       0.00895432       0.01032147      -0.04010134      194        3
Cl      14.93736748      10.86528101       7.48061567      35.45000001       0.00895432       0.01032147      -0.04010134      224        3
Cl      -3.73510601       8.65789431      16.89565059      35.45000001      -0.01443661       0.02235024       0.00599071       13        3
Cl      -3.73510601       8.65789431      23.01024543      35.45000001      -0.01443661       0.02235024       0.00599071       43        3
Li       3.66958585       0.01879072      12.20791642       6.94000000      -0.02020988       0.04135081      -0.01021383        1        1
Li      -1.77548099       3.30887046      12.25098393       6.94000000       0.09234061       0.04116617       0.04146957        3        1
Li       3.71675862       6.17429210      12.04608433       6.94000000       0.01741714      -0.05320816      -0.03367028        5        1
Li       1.85859981       3.29767841      15.28604772       6.94000000      -0.01368435      -0.00891384       0.04302019        9        1
Y       -0.08654854       6.47808185      15.29171107      88.90584002       0.07350335       0.21965983       0.02935684       11        2
Cl      -0.24961021       2.11726434      16.82940781      35.45000001       0.02435849      -0.03459526       0.01626562       15        3
Cl       3.49912956       8.68837143      16.89806669      35.45000001      -0.04742742      -0.01798427      -0.05162592       17        3
Cl       1.82879775       0.93272507      13.65949865      35.45000001      -0.11209142      -0.05546965       0.00976096       18        3
Cl      -1.95882725       7.66596021      13.80166428      35.45000001      -0.00192987      -0.01595045      -0.00017536       19        3
Cl      -0.16030968       4.19300355      13.93117398      35.45000001       0.05999975       0.03325164       0.13319469       21        3
Cl       1.73430687       7.70461207      13.80114162      35.45000001      -0.02564228       0.09165740       0.01780224       23        3
Cl       3.66030981       1.99369075      16.51427600      35.45000001      -0.02110658       0.00549138      -0.03907924       24        3
Cl       1.76482803       5.34887293      16.74041732      35.45000001      -0.04813009       0.02323861       0.07224732       25        3
Cl       3.57555647       4.22919505      13.69573512      35.45000001      -0.04304856      -0.03495990       0.03700894       26        3
Cl      -0.12546938       8.76973729      16.72101823      35.45000001      -0.04702954       0.06394770       0.00113497       27        3
Cl      -1.99261742       5.28628266      16.82045924      35.45000001       0.06552409       0.03894774       0.05614082       29        3
Li       3.66958585       0.01879072      18.32251125       6.94000000      -0.02020988       0.04135081      -0.01021383       31        1
Li      -1.77548099       3.30887046      18.36557877       6.94000000       0.09234061       0.04116617       0.04146957       33        1
Li       3.71675862       6.17429210      18.16067917       6.94000000       0.01741714      -0.05320816      -0.03367028       35        1
Li       1.85859981       3.29767841      21.40064255       6.94000000      -0.01368435      -0.00891384       0.04302019       39        1
Y       -0.08654854       6.47808185      21.40630590      88.90584002       0.07350335       0.21965983       0.02935684       41        2
Cl      -0.24961021       2.11726434      22.94400264      35.45000001       0.02435849      -0.03459526       0.01626562       45        3
Cl       3.49912956       8.68837143      23.01266152      35.45000001      -0.04742742      -0.01798427      -0.05162592       47        3
Cl       1.82879775       0.93272507      19.77409349      35.45000001      -0.11209142      -0.05546965       0.00976096       48        3
Cl      -1.95882725       7.66596021      19.91625911      35.45000001      -0.00192987      -0.01595045      -0.00017536       49        3
Cl      -0.16030968       4.19300355      20.04576881      35.45000001       0.05999975       0.03325164       0.13319469       51        3
Cl       1.73430687       7.70461207      19.91573646      35.45000001      -0.02564228       0.09165740       0.01780224       53        3
Cl       3.66030981       1.99369075      22.62887084      35.45000001      -0.02110658       0.00549138      -0.03907924       54        3
Cl       1.76482803       5.34887293      22.85501215      35.45000001      -0.04813009       0.02323861       0.07224732       55        3
Cl       3.57555647       4.22919505      19.81032996      35.45000001      -0.04304856      -0.03495990       0.03700894       56        3
Cl      -0.12546938       8.76973729      22.83561307      35.45000001      -0.04702954       0.06394770       0.00113497       57        3
Cl      -1.99261742       5.28628266      22.93505407      35.45000001       0.06552409       0.03894774       0.05614082       59        3
Li       1.71369008       9.68075097      12.22450630       6.94000000       0.00119296       0.01423554      -0.01456512       62        1
Li      -2.17175718       9.66966630      15.21401582       6.94000000      -0.02345468      -0.01145439      -0.00339366       66        1
Li       1.88802087       9.68988995      15.25146161       6.94000000      -0.00490244       0.01296001      -0.01000668       67        1
Li       1.71369008       9.68075097      18.33910113       6.94000000       0.00119296       0.01423554      -0.01456512       92        1
Li      -2.17175718       9.66966630      21.32861065       6.94000000      -0.02345468      -0.01145439      -0.00339366       96        1
Li       1.88802087       9.68988995      21.36605645       6.94000000      -0.00490244       0.01296001      -0.01000668       97        1
Y        5.52652778       3.34211210      15.12205894      88.90584002       0.08532771      -0.10616600      -0.21436515       12        2
Cl       5.52754393       7.40600774      13.42260838      35.45000001      -0.02818259      -0.12818164      -0.09153141       16        3
Y        5.52652778       3.34211210      21.23665377      88.90584002       0.08532771      -0.10616600      -0.21436515       42        2
Cl       5.52754393       7.40600774      19.53720321      35.45000001      -0.02818259      -0.12818164      -0.09153141       46        3
Cl       9.27145316       1.05162953      13.59521050      35.45000001       0.00895432       0.01032147      -0.04010134       14        3
Cl       7.46760044       2.03103373      16.54125652      35.45000001      -0.03634981      -0.02887845      -0.08296522       20        3
Cl       5.59642889       5.31820323      16.78406738      35.45000001       0.07799049      -0.08848867      -0.06423428       22        3
Cl       5.58643718       0.96333313      13.68134757      35.45000001      -0.07268999       0.00344090      -0.08313092       28        3
Cl       7.61289612       4.19056557      13.67855970      35.45000001       0.04672814      -0.02765497      -0.02131892       30        3
Cl       9.27145316       1.05162953      19.70980534      35.45000001       0.00895432       0.01032147      -0.04010134       44        3
Cl       7.46760044       2.03103373      22.65585136      35.45000001      -0.03634981      -0.02887845      -0.08296522       50        3
Cl       5.59642889       5.31820323      22.89866222      35.45000001       0.07799049      -0.08848867      -0.06423428       52        3
Cl       5.58643718       0.96333313      19.79594240      35.45000001      -0.07268999       0.00344090      -0.08313092       58        3
Cl       7.61289612       4.19056557      19.79315453      35.45000001       0.04672814      -0.02765497      -0.02131892       60        3
Li       9.55634766       3.30887046      12.25098393       6.94000000       0.09234061       0.04116617       0.04146957      123        1
Li       7.39377443       6.33338264      12.11119562       6.94000000       0.01270831      -0.01975949       0.00161581      124        1
Li       9.30547626       3.21353964      15.31843623       6.94000000      -0.01075391       0.02332763       0.02968243      128        1
Li      13.19042846       3.29767841      15.28604772       6.94000000      -0.01368435      -0.00891384       0.04302019      129        1
Y       11.24528011       6.47808185      15.29171107      88.90584002       0.07350335       0.21965983       0.02935684      131        2
Cl       7.59672263       8.65789431      16.89565059      35.45000001      -0.01443661       0.02235024       0.00599071      133        3
Cl      11.08221844       2.11726434      16.82940781      35.45000001       0.02435849      -0.03459526       0.01626562      135        3
Cl      13.16062639       0.93272507      13.65949865      35.45000001      -0.11209142      -0.05546965       0.00976096      138        3
Cl       9.37300140       7.66596021      13.80166428      35.45000001      -0.00192987      -0.01595045      -0.00017536      139        3
Cl      11.17151896       4.19300355      13.93117398      35.45000001       0.05999975       0.03325164       0.13319469      141        3
Cl      13.06613552       7.70461207      13.80114162      35.45000001      -0.02564228       0.09165740       0.01780224      143        3
Cl      13.09665667       5.34887293      16.74041732      35.45000001      -0.04813009       0.02323861       0.07224732      145        3
Cl      11.20635927       8.76973729      16.72101823      35.45000001      -0.04702954       0.06394770       0.00113497      147        3
Cl       9.33921123       5.28628266      16.82045924      35.45000001       0.06552409       0.03894774       0.05614082      149        3
Li       9.55634766       3.30887046      18.36557877       6.94000000       0.09234061       0.04116617       0.04146957      153        1
Li       7.39377443       6.33338264      18.22579045       6.94000000       0.01270831      -0.01975949       0.00161581      154        1
Li       9.30547626       3.21353964      21.43303107       6.94000000      -0.01075391       0.02332763       0.02968243      158        1
Li      13.19042846       3.29767841      21.40064255       6.94000000      -0.01368435      -0.00891384       0.04302019      159        1
Y       11.24528011       6.47808185      21.40630590      88.90584002       0.07350335       0.21965983       0.02935684      161        2
Cl       7.59672263       8.65789431      23.01024543      35.45000001      -0.01443661       0.02235024       0.00599071      163        3
Cl      11.08221844       2.11726434      22.94400264      35.45000001       0.02435849      -0.03459526       0.01626562      165        3
Cl      13.16062639       0.93272507      19.77409349      35.45000001      -0.11209142      -0.05546965       0.00976096      168        3
Cl       9.37300140       7.66596021      19.91625911      35.45000001      -0.00192987      -0.01595045      -0.00017536      169        3
Cl      11.17151896       4.19300355      20.04576881      35.45000001       0.05999975       0.03325164       0.13319469      171        3
Cl      13.06613552       7.70461207      19.91573646      35.45000001      -0.02564228       0.09165740       0.01780224      173        3
Cl      13.09665667       5.34887293      22.85501215      35.45000001      -0.04813009       0.02323861       0.07224732      175        3
Cl      11.20635927       8.76973729      22.83561307      35.45000001      -0.04702954       0.06394770       0.00113497      177        3
Cl       9.33921123       5.28628266      22.93505407      35.45000001       0.06552409       0.03894774       0.05614082      179        3
Li      13.04551872       9.68075097      12.22450630       6.94000000       0.00119296       0.01423554      -0.01456512      182        1
Li       9.16007146       9.66966630      15.21401582       6.94000000      -0.02345468      -0.01145439      -0.00339366      186        1
Li      13.21984951       9.68988995      15.25146161       6.94000000      -0.00490244       0.01296001      -0.01000668      187        1
Y        5.57128430       9.66255756      12.15825782      88.90584002      -0.17947106      -0.19681777       0.01482572      190        2
Li      13.04551872       9.68075097      18.33910113       6.94000000       0.00119296       0.01423554      -0.01456512      212        1
Li       9.16007146       9.66966630      21.32861065       6.94000000      -0.02345468      -0.01145439      -0.00339366      216        1
Li      13.21984951       9.68988995      21.36605645       6.94000000      -0.00490244       0.01296001      -0.01000668      217        1
Y        5.57128430       9.66255756      18.27285265      88.90584002      -0.17947106      -0.19681777       0.01482572      220        2
Li      -3.93805421       6.33338264      12.11119562       6.94000000       0.01270831      -0.01975949       0.00161581        4        1
Li      -3.93805421       6.33338264      18.22579045       6.94000000       0.01270831      -0.01975949       0.00161581       34        1
Y       -5.76054435       9.66255756      12.15825782      88.90584002      -0.17947106      -0.19681777       0.01482572       70        2
Y       -5.76054435       9.66255756      18.27285265      88.90584002      -0.17947106      -0.19681777       0.01482572      100        2
Li      -2.02635239       3.21353964      15.31843623       6.94000000      -0.01075391       0.02332763       0.02968243        8        1
Li      -2.02635239       3.21353964      21.43303107       6.94000000      -0.01075391       0.02332763       0.02968243       38        1
Li      15.04858727       6.17429210      12.04608433       6.94000000       0.01741714      -0.05320816      -0.03367028      125        1
Y       16.85835642       3.34211210      15.12205894      88.90584002       0.08532771      -0.10616600      -0.21436515      132        2
Cl      20.60328180       1.05162953      13.59521050      35.45000001       0.00895432       0.01032147      -0.04010134      134        3
Cl      16.85937257       7.40600774      13.42260838      35.45000001      -0.02818259      -0.12818164      -0.09153141      136        3
Cl      14.83095821       8.68837143      16.89806669      35.45000001      -0.04742742      -0.01798427      -0.05162592      137        3
Cl      18.79942908       2.03103373      16.54125652      35.45000001      -0.03634981      -0.02887845      -0.08296522      140        3
Cl      16.92825753       5.31820323      16.78406738      35.45000001       0.07799049      -0.08848867      -0.06423428      142        3
Cl      14.99213845       1.99369075      16.51427600      35.45000001      -0.02110658       0.00549138      -0.03907924      144        3
Cl      14.90738511       4.22919505      13.69573512      35.45000001      -0.04304856      -0.03495990       0.03700894      146        3
Cl      16.91826582       0.96333313      13.68134757      35.45000001      -0.07268999       0.00344090      -0.08313092      148        3
Cl      18.94472476       4.19056557      13.67855970      35.45000001       0.04672814      -0.02765497      -0.02131892      150        3
Li      15.04858727       6.17429210      18.16067917       6.94000000       0.01741714      -0.05320816      -0.03367028      155        1
Y       16.85835642       3.34211210      21.23665377      88.90584002       0.08532771      -0.10616600      -0.21436515      162        2
Cl      20.60328180       1.05162953      19.70980534      35.45000001       0.00895432       0.01032147      -0.04010134      164        3
Cl      16.85937257       7.40600774      19.53720321      35.45000001      -0.02818259      -0.12818164      -0.09153141      166        3
Cl      14.83095821       8.68837143      23.01266152      35.45000001      -0.04742742      -0.01798427      -0.05162592      167        3
Cl      18.79942908       2.03103373      22.65585136      35.45000001      -0.03634981      -0.02887845      -0.08296522      170        3
Cl      16.92825753       5.31820323      22.89866222      35.45000001       0.07799049      -0.08848867      -0.06423428      172        3
Cl      14.99213845       1.99369075      22.62887084      35.45000001      -0.02110658       0.00549138      -0.03907924      174        3
Cl      14.90738511       4.22919505      19.81032996      35.45000001      -0.04304856      -0.03495990       0.03700894      176        3
Cl      16.91826582       0.96333313      19.79594240      35.45000001      -0.07268999       0.00344090      -0.08313092      178        3
Cl      18.94472476       4.19056557      19.79315453      35.45000001       0.04672814      -0.02765497      -0.02131892      180        3
Li      15.00141449       0.01879072      12.20791642       6.94000000      -0.02020988       0.04135081      -0.01021383      121        1
Li      15.00141449       0.01879072      18.32251125       6.94000000      -0.02020988       0.04135081      -0.01021383      151        1
Li       3.49415714      -0.14398518      15.21401582       6.94000000      -0.02345468      -0.01145439      -0.00339366        6        1
Li       3.49415714      -0.14398518      21.32861065       6.94000000      -0.02345468      -0.01145439      -0.00339366       36        1
Li       7.37960440      -0.13290051      12.22450630       6.94000000       0.00119296       0.01423554      -0.01456512        2        1
Li       7.55393519      -0.12376152      15.25146161       6.94000000      -0.00490244       0.01296001      -0.01000668        7        1
Li       7.37960440      -0.13290051      18.33910113       6.94000000       0.00119296       0.01423554      -0.01456512       32        1
Li       7.55393519      -0.12376152      21.36605645       6.94000000      -0.00490244       0.01296001      -0.01000668       37        1
Li      -7.44139531      13.12252193      12.25098393       6.94000000       0.09234061       0.04116617       0.04146957       63        1
Li      -3.80731451      13.11132989      15.28604772       6.94000000      -0.01368435      -0.00891384       0.04302019       69        1
Y       -5.75246286      16.29173332      15.29171107      88.90584002       0.07350335       0.21965983       0.02935684       71        2
Cl      -9.40102034      18.47154578      16.89565059      35.45000001      -0.01443661       0.02235024       0.00599071       73        3
Cl      -5.91552453      11.93091582      16.82940781      35.45000001       0.02435849      -0.03459526       0.01626562       75        3
Cl      -3.83711658      10.74637655      13.65949865      35.45000001      -0.11209142      -0.05546965       0.00976096       78        3
Cl      -7.62474157      17.47961168      13.80166428      35.45000001      -0.00192987      -0.01595045      -0.00017536       79        3
Cl      -5.82622401      14.00665503      13.93117398      35.45000001       0.05999975       0.03325164       0.13319469       81        3
Cl      -3.93160745      17.51826355      13.80114162      35.45000001      -0.02564228       0.09165740       0.01780224       83        3
Cl      -3.90108629      15.16252440      16.74041732      35.45000001      -0.04813009       0.02323861       0.07224732       85        3
Cl      -5.79138370      18.58338876      16.72101823      35.45000001      -0.04702954       0.06394770       0.00113497       87        3
Cl      -7.65853174      15.09993414      16.82045924      35.45000001       0.06552409       0.03894774       0.05614082       89        3
Li      -7.44139531      13.12252193      18.36557877       6.94000000       0.09234061       0.04116617       0.04146957       93        1
Li      -3.80731451      13.11132989      21.40064255       6.94000000      -0.01368435      -0.00891384       0.04302019       99        1
Y       -5.75246286      16.29173332      21.40630590      88.90584002       0.07350335       0.21965983       0.02935684      101        2
Cl      -9.40102034      18.47154578      23.01024543      35.45000001      -0.01443661       0.02235024       0.00599071      103        3
Cl      -5.91552453      11.93091582      22.94400264      35.45000001       0.02435849      -0.03459526       0.01626562      105        3
Cl      -3.83711658      10.74637655      19.77409349      35.45000001      -0.11209142      -0.05546965       0.00976096      108        3
Cl      -7.62474157      17.47961168      19.91625911      35.45000001      -0.00192987      -0.01595045      -0.00017536      109        3
Cl      -5.82622401      14.00665503      20.04576881      35.45000001       0.05999975       0.03325164       0.13319469      111        3
Cl      -3.93160745      17.51826355      19.91573646      35.45000001      -0.02564228       0.09165740       0.01780224      113        3
Cl      -3.90108629      15.16252440      22.85501215      35.45000001      -0.04813009       0.02323861       0.07224732      115        3
Cl      -5.79138370      18.58338876      22.83561307      35.45000001      -0.04702954       0.06394770       0.00113497      117        3
Cl      -7.65853174      15.09993414      22.93505407      35.45000001       0.06552409       0.03894774       0.05614082      119        3
Li      -1.99632847       9.83244220      12.20791642       6.94000000      -0.02020988       0.04135081      -0.01021383       61        1
Li      -1.99632847       9.83244220      18.32251125       6.94000000      -0.02020988       0.04135081      -0.01021383       91        1
Y       11.23719862      -0.15109392      12.15825782      88.90584002      -0.17947106      -0.19681777       0.01482572      130        2
Y       11.23719862      -0.15109392      18.27285265      88.90584002      -0.17947106      -0.19681777       0.01482572      160        2
Li      -1.94915570      15.98794357      12.04608433       6.94000000       0.01741714      -0.05320816      -0.03367028       65        1
Y       -0.13938655      13.15576357      15.12205894      88.90584002       0.08532771      -0.10616600      -0.21436515       72        2
Cl       3.60553884      10.86528101      13.59521050      35.45000001       0.00895432       0.01032147      -0.04010134       74        3
Cl      -0.13837039      17.21965922      13.42260838      35.45000001      -0.02818259      -0.12818164      -0.09153141       76        3
Cl      -2.16678476      18.50202291      16.89806669      35.45000001      -0.04742742      -0.01798427      -0.05162592       77        3
Cl       1.80168612      11.84468520      16.54125652      35.45000001      -0.03634981      -0.02887845      -0.08296522       80        3
Cl      -0.06948543      15.13185471      16.78406738      35.45000001       0.07799049      -0.08848867      -0.06423428       82        3
Cl      -2.00560451      11.80734222      16.51427600      35.45000001      -0.02110658       0.00549138      -0.03907924       84        3
Cl      -2.09035785      14.04284652      13.69573512      35.45000001      -0.04304856      -0.03495990       0.03700894       86        3
Cl      -0.07947714      10.77698460      13.68134757      35.45000001      -0.07268999       0.00344090      -0.08313092       88        3
Cl       1.94698180      14.00421705      13.67855970      35.45000001       0.04672814      -0.02765497      -0.02131892       90        3
Li      -1.94915570      15.98794357      18.16067917       6.94000000       0.01741714      -0.05320816      -0.03367028       95        1
Y       -0.13938655      13.15576357      21.23665377      88.90584002       0.08532771      -0.10616600      -0.21436515      102        2
Cl       3.60553884      10.86528101      19.70980534      35.45000001       0.00895432       0.01032147      -0.04010134      104        3
Cl      -0.13837039      17.21965922      19.53720321      35.45000001      -0.02818259      -0.12818164      -0.09153141      106        3
Cl      -2.16678476      18.50202291      23.01266152      35.45000001      -0.04742742      -0.01798427      -0.05162592      107        3
Cl       1.80168612      11.84468520      22.65585136      35.45000001      -0.03634981      -0.02887845      -0.08296522      110        3
Cl      -0.06948543      15.13185471      22.89866222      35.45000001       0.07799049      -0.08848867      -0.06423428      112        3
Cl      -2.00560451      11.80734222      22.62887084      35.45000001      -0.02110658       0.00549138      -0.03907924      114        3
Cl      -2.09035785      14.04284652      19.81032996      35.45000001      -0.04304856      -0.03495990       0.03700894      116        3
Cl      -0.07947714      10.77698460      19.79594240      35.45000001      -0.07268999       0.00344090      -0.08313092      118        3
Cl       1.94698180      14.00421705      19.79315453      35.45000001       0.04672814      -0.02765497      -0.02131892      120        3
Li      14.82598579      -0.14398518      15.21401582       6.94000000      -0.02345468      -0.01145439      -0.00339366      126        1
Li      14.82598579      -0.14398518      21.32861065       6.94000000      -0.02345468      -0.01145439      -0.00339366      156        1
Li       3.89043333      13.12252193      12.25098393       6.94000000       0.09234061       0.04116617       0.04146957      183        1
Li       1.72786011      16.14703412      12.11119562       6.94000000       0.01270831      -0.01975949       0.00161581      184        1
Li       3.63956193      13.02719112      15.31843623       6.94000000      -0.01075391       0.02332763       0.02968243      188        1
Cl       1.93080831      18.47154578      16.89565059      35.45000001      -0.01443661       0.02235024       0.00599071      193        3
Cl       3.70708707      17.47961168      13.80166428      35.45000001      -0.00192987      -0.01595045      -0.00017536      199        3
Cl       3.67329691      15.09993414      16.82045924      35.45000001       0.06552409       0.03894774       0.05614082      209        3
Li       3.89043333      13.12252193      18.36557877       6.94000000       0.09234061       0.04116617       0.04146957      213        1
Li       1.72786011      16.14703412      18.22579045       6.94000000       0.01270831      -0.01975949       0.00161581      214        1
Li       3.63956193      13.02719112      21.43303107       6.94000000      -0.01075391       0.02332763       0.02968243      218        1
Cl       1.93080831      18.47154578      23.01024543      35.45000001      -0.01443661       0.02235024       0.00599071      223        3
Cl       3.70708707      17.47961168      19.91625911      35.45000001      -0.00192987      -0.01595045      -0.00017536      229        3
Cl       3.67329691      15.09993414      22.93505407      35.45000001       0.06552409       0.03894774       0.05614082      239        3
Cl       5.41630411      11.93091582      16.82940781      35.45000001       0.02435849      -0.03459526       0.01626562      195        3
Cl       5.50560464      14.00665503      13.93117398      35.45000001       0.05999975       0.03325164       0.13319469      201        3
Cl       5.54044494      18.58338876      16.72101823      35.45000001      -0.04702954       0.06394770       0.00113497      207        3
Cl       5.41630411      11.93091582      22.94400264      35.45000001       0.02435849      -0.03459526       0.01626562      225        3
Cl       5.50560464      14.00665503      20.04576881      35.45000001       0.05999975       0.03325164       0.13319469      231        3
Cl       5.54044494      18.58338876      22.83561307      35.45000001      -0.04702954       0.06394770       0.00113497      237        3
Y       -0.09463002      -0.15109392      12.15825782      88.90584002      -0.17947106      -0.19681777       0.01482572       10        2
Y       -0.09463002      -0.15109392      18.27285265      88.90584002      -0.17947106      -0.19681777       0.01482572       40        2
Li       9.33550017       9.83244220      12.20791642       6.94000000      -0.02020988       0.04135081      -0.01021383      181        1
Li       9.33550017       9.83244220      18.32251125       6.94000000      -0.02020988       0.04135081      -0.01021383      211        1
Y        5.57936578      16.29173332      15.29171107      88.90584002       0.07350335       0.21965983       0.02935684      191        2
Y        5.57936578      16.29173332      21.40630590      88.90584002       0.07350335       0.21965983       0.02935684      221        2
Li      -9.60396853      16.14703412      12.11119562       6.94000000       0.01270831      -0.01975949       0.00161581       64        1
Li      -9.60396853      16.14703412      18.22579045       6.94000000       0.01270831      -0.01975949       0.00161581       94        1
Li      18.71143305      -0.13290051      12.22450630       6.94000000       0.00119296       0.01423554      -0.01456512      122        1
Li      18.88576384      -0.12376152      15.25146161       6.94000000      -0.00490244       0.01296001      -0.01000668      127        1
Li      18.71143305      -0.13290051      18.33910113       6.94000000       0.00119296       0.01423554      -0.01456512      152        1
Li      18.88576384      -0.12376152      21.36605645       6.94000000      -0.00490244       0.01296001      -0.01000668      157        1
Li       9.38267294      15.98794357      12.04608433       6.94000000       0.01741714      -0.05320816      -0.03367028      185        1
Li       7.52451414      13.11132989      15.28604772       6.94000000      -0.01368435      -0.00891384       0.04302019      189        1
Y       11.19244210      13.15576357      15.12205894      88.90584002       0.08532771      -0.10616600      -0.21436515      192        2
Cl      11.19345825      17.21965922      13.42260838      35.45000001      -0.02818259      -0.12818164      -0.09153141      196        3
Cl       9.16504388      18.50202291      16.89806669      35.45000001      -0.04742742      -0.01798427      -0.05162592      197        3
Cl       7.49471207      10.74637655      13.65949865      35.45000001      -0.11209142      -0.05546965       0.00976096      198        3
Cl      13.13351476      11.84468520      16.54125652      35.45000001      -0.03634981      -0.02887845      -0.08296522      200        3
Cl      11.26234321      15.13185471      16.78406738      35.45000001       0.07799049      -0.08848867      -0.06423428      202        3
Cl       7.40022120      17.51826355      13.80114162      35.45000001      -0.02564228       0.09165740       0.01780224      203        3
Cl       9.32622413      11.80734222      16.51427600      35.45000001      -0.02110658       0.00549138      -0.03907924      204        3
Cl       7.43074235      15.16252440      16.74041732      35.45000001      -0.04813009       0.02323861       0.07224732      205        3
Cl       9.24147079      14.04284652      13.69573512      35.45000001      -0.04304856      -0.03495990       0.03700894      206        3
Cl      11.25235150      10.77698460      13.68134757      35.45000001      -0.07268999       0.00344090      -0.08313092      208        3
Cl      13.27881044      14.00421705      13.67855970      35.45000001       0.04672814      -0.02765497      -0.02131892      210        3
Li       9.38267294      15.98794357      18.16067917       6.94000000       0.01741714      -0.05320816      -0.03367028      215        1
Li       7.52451414      13.11132989      21.40064255       6.94000000      -0.01368435      -0.00891384       0.04302019      219        1
Y       11.19244210      13.15576357      21.23665377      88.90584002       0.08532771      -0.10616600      -0.21436515      222        2
Cl      11.19345825      17.21965922      19.53720321      35.45000001      -0.02818259      -0.12818164      -0.09153141      226        3
Cl       9.16504388      18.50202291      23.01266152      35.45000001      -0.04742742      -0.01798427      -0.05162592      227        3
Cl       7.49471207      10.74637655      19.77409349      35.45000001      -0.11209142      -0.05546965       0.00976096      228        3
Cl      13.13351476      11.84468520      22.65585136      35.45000001      -0.03634981      -0.02887845      -0.08296522      230        3
Cl      11.26234321      15.13185471      22.89866222      35.45000001       0.07799049      -0.08848867      -0.06423428      232        3
Cl       7.40022120      17.51826355      19.91573646      35.45000001      -0.02564228       0.09165740       0.01780224      233        3
Cl       9.32622413      11.80734222      22.62887084      35.45000001      -0.02110658       0.00549138      -0.03907924      234        3
Cl       7.43074235      15.16252440      22.85501215      35.45000001      -0.04813009       0.02323861       0.07224732      235        3
Cl       9.24147079      14.04284652      19.81032996      35.45000001      -0.04304856      -0.03495990       0.03700894      236        3
Cl      11.25235150      10.77698460      19.79594240      35.45000001      -0.07268999       0.00344090      -0.08313092      238        3
Cl      13.27881044      14.00421705      19.79315453      35.45000001       0.04672814      -0.02765497      -0.02131892      240        3
Li      -7.69226671      13.02719112      15.31843623       6.94000000      -0.01075391       0.02332763       0.02968243       68        1
Li      -7.69226671      13.02719112      21.43303107       6.94000000      -0.01075391       0.02332763       0.02968243       98        1
Cl      14.93736748      10.86528101      13.59521050      35.45000001       0.00895432       0.01032147      -0.04010134      194        3
Cl      14.93736748      10.86528101      19.70980534      35.45000001       0.00895432       0.01032147      -0.04010134      224        3
