272
Lattice="20.1148 0.0 0.0 0.0 20.1148 0.0 0.0 0.0 20.1148" Properties=species:S:1:pos:R:3:mass:R:1:vel:R:3 pbc="T T T"
Cl       9.47668000      12.13210000       6.26617000      35.45000000       0.00027692       0.00462635       0.00124462
Cl       5.24228000      12.20650000       4.14192000      35.45000000       0.00162571       0.00136432      -0.00193650
Cl       7.22073000      10.13170000       5.57745000      35.45000000      -0.00216455      -0.00002340      -0.00686547
Cl       5.47935000      10.59190000       8.02936000      35.45000000      -0.00158200       0.00070539      -0.00125869
Cl       7.03110000       8.73395000      10.91110000      35.45000000       0.00512677       0.00153772       0.00170731
Cl       5.59035000      15.26100000      11.87740000      35.45000000      -0.00258596       0.00492720      -0.00085145
Cl       1.02253000      13.70840000       5.42351000      35.45000000      -0.00401493       0.00115974      -0.00187972
Cl       2.52233000      12.52520000       2.51710000      35.45000000       0.00086436      -0.00070049       0.00135826
Cl       2.63318000      10.85420000       5.44769000      35.45000000      -0.00174065      -0.00000873       0.00343111
Cl       4.53901000      17.16630000       9.34732000      35.45000000       0.00526969       0.00092186      -0.00280923
Cl      10.24690000       7.92432000      12.05410000      35.45000000      -0.00098851       0.00148415      -0.00048172
Cl      11.33660000      13.23740000      12.33490000      35.45000000       0.00210597       0.00266591       0.00477273
Cl      11.66560000       9.76212000       9.59115000      35.45000000      -0.00054620      -0.00315662      -0.00300535
Cl       1.98568000      14.85870000       8.86734000      35.45000000      -0.00206648      -0.00040944      -0.00574923
Cl       2.50898000      15.93620000      11.92700000      35.45000000       0.00198586      -0.00141504      -0.00069983
Cl       3.40931000      12.81200000      11.10870000      35.45000000      -0.00030814       0.00224227      -0.00047545
O        9.41749000       7.98072000       6.50054000      15.99900000       0.00098261      -0.00579863      -0.00084161
O        9.51630000       7.47592000       8.95647000      15.99900000       0.00193591      -0.00681158      -0.00924958
O        8.62307000       9.74665000       8.40520000      15.99900000       0.00260863       0.00237838       0.00416641
O        7.37720000       7.57898000       7.65216000      15.99900000       0.00036488       0.01270350       0.00053329
O        5.76720000      15.57870000       7.18269000      15.99900000      -0.00639225       0.00105072       0.00527759
O        5.23513000      13.99330000       8.87216000      15.99900000       0.00017510      -0.00098403      -0.00097417
O        4.30399000      13.74000000       6.55412000      15.99900000       0.00356335       0.00026474      -0.00067730
O        6.68618000      13.30460000       6.97602000      15.99900000       0.00127385       0.00311312       0.00038192
S        8.73260000       8.04253000       7.72761000      32.06000000       0.00332104      -0.00417870      -0.00101091
S        5.51516000      14.12390000       7.36510000      32.06000000      -0.00329003       0.00074181       0.00908728
Zr       7.77989000      11.39260000       7.85689000      91.22400000      -0.00118276      -0.00090852      -0.00088320
Zr       9.28676000       9.43103000      10.21570000      91.22400000      -0.00154463       0.00210281      -0.00112788
Zr       3.27408000      13.45790000       4.81050000      91.22400000      -0.00283116       0.00088022       0.00005662
Zr       4.03581000      14.93210000       9.94039000      91.22400000      -0.00096792       0.00095168      -0.00141524
Cl      13.98230000      13.43210000      18.42860000      35.45000000       0.00477335      -0.00185932      -0.00118916
Cl      16.11480000      11.07850000      19.13200000      35.45000000       0.00037195       0.00120702      -0.00218380
Cl       9.61938000       9.65307000      18.72880000      35.45000000      -0.00204545       0.00459177      -0.00323376
Cl      12.83400000      10.18690000      20.09340000      35.45000000       0.00308642      -0.00228570      -0.00002642
Cl       8.66735000      12.84650000      18.48560000      35.45000000       0.00472335      -0.00170021      -0.00090100
Cl      17.55840000       5.74245000      17.14060000      35.45000000      -0.00194187      -0.00042799      -0.00098045
Cl      14.94670000       3.84198000      15.97920000      35.45000000      -0.00279464       0.00285815       0.00143680
Cl      15.33640000       6.89806000      19.59040000      35.45000000       0.00349967       0.00021705      -0.00054984
Cl      12.64200000       5.06827000      17.61820000      35.45000000       0.00384934      -0.00146190      -0.00289221
Cl      12.87930000       5.46047000      13.76130000      35.45000000      -0.00179864       0.00355480       0.00387159
Cl       5.99405000      10.87860000      19.67970000      35.45000000       0.00239302       0.00650831      -0.00275029
Cl       8.25931000      16.45800000      17.50710000      35.45000000      -0.00253292       0.00058211      -0.00239806
Cl       8.32384000       9.75196000       2.05365000      35.45000000      -0.00168247      -0.00081688      -0.00132822
Cl      14.79080000       9.50431000      10.36260000      35.45000000      -0.00283503       0.00007380      -0.00389647
Cl      15.88660000       7.19627000      13.44240000      35.45000000       0.00038427      -0.00365656       0.00457295
Cl      17.83540000       8.98854000      15.95740000      35.45000000       0.00085479      -0.00017570      -0.00270440
O        8.66879000      13.14450000       3.33434000      15.99900000       0.00449097       0.00097136      -0.00077386
O        9.34338000      12.50700000       0.99880800      15.99900000       0.00177075      -0.00352088      -0.00249034
O        7.04850000      12.41620000       1.61866000      15.99900000      -0.00172876      -0.00321120      -0.00369312
O        8.26765000      14.65590000       1.44296000      15.99900000      -0.00202193       0.00136354       0.00354297
O       14.67340000       9.25417000      17.39630000      15.99900000       0.00089701       0.00006141       0.00058351
O       14.02970000       8.97416000      15.02950000      15.99900000       0.00119975      -0.00122574       0.00205867
O       14.95000000       7.09357000      16.27220000      15.99900000      -0.00602329      -0.00217046      -0.00505801
O       12.62940000       7.93009000      16.72250000      15.99900000       0.00003598      -0.00101549      -0.00075484
S        8.35456000      13.29590000       1.90386000      32.06000000      -0.00112010      -0.00392595       0.00091084
S       13.99080000       8.34259000      16.40310000      32.06000000       0.00151909       0.00310855      -0.00046158
Zr      13.92290000      10.90960000      18.15980000      91.22400000       0.00268141      -0.00024647       0.00118015
Zr       8.30558000      11.12610000       0.12071400      91.22400000      -0.00056996      -0.00289867       0.00445507
Zr      14.98770000       5.81341000      17.52380000      91.22400000      -0.00002552      -0.00192310       0.00154540
Zr      15.86200000       9.47691000      14.57790000      91.22400000      -0.00010082       0.00117268      -0.00020775
Cl      18.71080000      19.72200000       8.89470000      35.45000000       0.00090371      -0.00003529      -0.00362606
Cl      15.44620000      16.72060000      10.37740000      35.45000000      -0.00264593      -0.00218694       0.00742774
Cl      16.28740000      19.92760000      11.30120000      35.45000000      -0.00347565      -0.00439410      -0.00052666
Cl      18.66810000      16.85880000      10.73200000      35.45000000       0.00084598       0.00350251       0.00077962
Cl      17.39180000      16.74390000       7.66373000      35.45000000       0.00400294      -0.00255824       0.00325375
Cl      12.71700000       4.37366000       0.99586100      35.45000000      -0.00069230      -0.00179569      -0.00094337
Cl      14.47870000       0.61809400      20.08750000      35.45000000       0.00500106       0.00137356      -0.00313350
Cl      13.33600000      18.48460000       1.85925000      35.45000000      -0.00325141      -0.00131761      -0.00044307
Cl      16.64570000      17.79700000       2.75182000      35.45000000      -0.00199852      -0.00300434      -0.00487598
Cl      17.55350000       0.73315600       1.52078000      35.45000000      -0.00070740      -0.00090693       0.00198335
Cl      14.09840000       4.26148000       7.87885000      35.45000000      -0.00238832       0.00341052       0.00473528
Cl      11.80120000       2.57352000       6.47792000      35.45000000       0.00206736       0.00203776       0.00128654
Cl      16.61590000       2.52145000       6.50924000      35.45000000       0.00263645       0.00181564       0.00479701
Cl      15.28460000       3.85318000      19.28110000      35.45000000       0.00099835       0.00467597       0.00450101
Cl      14.48100000       5.72811000       3.50930000      35.45000000      -0.00037860      -0.00089961      -0.00078450
Cl      17.53770000       4.71232000       1.36988000      35.45000000       0.00525482       0.00605944      -0.00341951
O       13.92900000       0.22270000       6.81517000      15.99900000      -0.00100615      -0.00038192       0.00097236
O       13.31240000      19.03430000       8.76602000      15.99900000       0.00229850      -0.00056601       0.00164263
O       15.77200000      19.30980000       8.11279000      15.99900000      -0.00210197      -0.00369338      -0.00550379
O       14.31700000       1.22227000       8.98439000      15.99900000      -0.00516848      -0.00339387      -0.00064774
O       14.13770000       2.49654000       4.80160000      15.99900000      -0.00177542      -0.00023740       0.00462821
O       13.03970000       1.61238000       2.82603000      15.99900000       0.00079852       0.00133472      -0.00415697
O       15.18840000       2.86283000       2.59239000      15.99900000      -0.00392799      -0.00296729       0.00326614
O       15.18400000       0.69079800       3.50251000      15.99900000       0.00169716       0.00297363      -0.00113293
S       14.32940000      20.09860000       8.27806000      32.06000000       0.00188357      -0.00087994      -0.00003154
S       14.25790000       1.87488000       3.44310000      32.06000000       0.00425174       0.00242949       0.00026396
Zr      16.81850000      18.33220000       9.25441000      91.22400000      -0.00342420       0.00063045      -0.00020723
Zr      15.43600000      19.78220000       1.91394000      91.22400000       0.00091215      -0.00045305      -0.00071738
Zr      14.25700000       2.12039000       6.67134000      91.22400000      -0.00308896      -0.00012772      -0.00152999
Zr      15.13870000       4.37166000       1.66117000      91.22400000      -0.00273147       0.00128654       0.00290357
Cl       2.06714000       5.65402000       1.97340000      35.45000000       0.00140968      -0.00418589      -0.00416072
Cl       2.73250000       5.10772000      10.54340000      35.45000000      -0.00090420      -0.00178832       0.00008110
Cl       0.21299000       7.02074000       9.07471000      35.45000000      -0.00027191       0.00340750       0.00060959
Cl       1.22141000       7.84258000      12.24490000      35.45000000      -0.00004674      -0.00030577       0.00255518
Cl       3.61322000       8.11612000       9.17320000      35.45000000      -0.00166697       0.00318516      -0.00097056
Cl       4.53129000       7.38013000      15.98860000      35.45000000      -0.00352500       0.00143941       0.00331326
Cl       0.57143200       9.96380000       2.07233000      35.45000000      -0.00371153       0.00332971      -0.00204858
Cl      19.85200000       7.35697000      19.95590000      35.45000000       0.00121385      -0.00317315      -0.00219089
Cl      19.28450000      10.24600000      18.67120000      35.45000000       0.00039207       0.00422742       0.00190444
Cl       2.75881000      11.06650000      19.42400000      35.45000000      -0.00152758       0.00003242      -0.00367975
Cl       6.38689000       7.23054000       3.51778000      35.45000000       0.00188198      -0.00350852      -0.00033577
Cl       4.53415000       9.57344000       2.19575000      35.45000000       0.00133784       0.00284268      -0.00026965
Cl       5.22449000       4.60279000       2.38750000      35.45000000       0.00186941      -0.00353047       0.00294627
Cl       1.57638000       8.06500000      17.43910000      35.45000000       0.00086566      -0.00474961      -0.00296830
Cl       4.57480000       4.05382000      16.73580000      35.45000000       0.00675683       0.00273630       0.00185165
Cl       1.38333000       4.51806000      18.16610000      35.45000000      -0.00215601       0.00410145      -0.00225555
O        4.37713000       8.08000000       6.12885000      15.99900000      -0.00350322      -0.00139757      -0.00548833
O        2.26744000       6.79184000       6.39155000      15.99900000       0.00016820       0.00103626       0.00048119
O        2.87937000       8.09579000       4.10994000      15.99900000       0.00411443       0.00300286      -0.00153568
O        3.90164000       6.15568000       4.66260000      15.99900000       0.00501545      -0.00317422       0.00491181
O        4.35098000       8.34574000      18.96930000      15.99900000      -0.00408891      -0.00063561       0.00144031
O        2.54413000       7.90759000       0.29943100      15.99900000      -0.00627594       0.00111055       0.00751934
O        3.66746000       5.95641000      19.08590000      15.99900000       0.00293098       0.00493815      -0.00338398
O        4.82774000       7.05770000       0.86449900      15.99900000      -0.00199789       0.00018798      -0.00535259
S        3.34576000       7.34777000       5.42188000      32.06000000      -0.00490390      -0.00080091       0.00302046
S        3.89256000       7.33743000      19.80260000      32.06000000      -0.00037164       0.00022304       0.00248797
Zr       2.84552000       6.06011000       8.07513000      91.22400000      -0.00030987      -0.00068391       0.00056506
Zr       1.30723000       9.18288000      19.96120000      91.22400000       0.00250156      -0.00294600      -0.00057888
Zr       4.04239000       6.93712000       2.68525000      91.22400000      -0.00023593      -0.00271044      -0.00078496
Zr       3.04400000       5.98793000      17.21220000      91.22400000       0.00025894      -0.00224423       0.00070159
Cl       6.79908000      17.52590000       0.34968700      35.45000000      -0.00097709       0.00436930      -0.00193905
Cl       3.59221000      19.96140000       1.76565000      35.45000000       0.00569067       0.00182932      -0.00150009
Cl       5.69107000      14.80960000      19.16190000      35.45000000      -0.00089711      -0.00148493       0.00142625
Cl      19.86860000      18.28370000      16.58350000      35.45000000       0.00031686       0.00018887       0.00182604
Cl       3.55765000      15.57180000      15.37560000      35.45000000      -0.00622917      -0.00252224      -0.00208154
Cl       0.85708700      15.29940000      17.62750000      35.45000000       0.00209425       0.00068484       0.00138320
Cl       7.27308000      18.42340000       4.07763000      35.45000000      -0.00270834       0.00314155      -0.00446425
Cl       4.44573000      17.94620000       5.61892000      35.45000000      -0.00243718       0.00354675       0.00121838
Cl       2.67386000      15.02610000       0.24448900      35.45000000      -0.00209932      -0.00053822      -0.00161905
Cl       7.29729000      18.30640000       7.26817000      35.45000000       0.00344117       0.00521437       0.00074757
Cl       8.63830000      15.59050000       5.94960000      35.45000000      -0.00268722       0.00273717      -0.00188210
Cl       2.06545000      18.42040000      14.30810000      35.45000000      -0.00225709      -0.00273117       0.00188785
Cl       1.04589000       1.87290000       0.59679800      35.45000000      -0.00249246       0.00032724       0.00719686
Cl       0.72278300      18.70170000       0.35922800      35.45000000      -0.00163199      -0.00223776       0.00224431
Cl       1.33444000       0.93929100      17.68830000      35.45000000      -0.00037976      -0.00281321      -0.00239860
Cl       3.99097000       2.23493000      19.58440000      35.45000000      -0.00011221      -0.00471608       0.00082801
O        4.80928000      14.47760000       2.14732000      15.99900000       0.00039994       0.00537823       0.00347578
O        3.42413000      15.28670000       4.23671000      15.99900000       0.00187971       0.00044923       0.00025369
O        5.95651000      15.26590000       4.19612000      15.99900000       0.00272098       0.00230719       0.00423104
O        4.73491000      16.76350000       2.61956000      15.99900000       0.00308876       0.00036598      -0.00314474
O        3.58243000      17.73310000      19.80160000      15.99900000       0.00192976       0.00398383      -0.00511859
O        5.08067000      17.82300000      17.69570000      15.99900000      -0.00374953       0.00175935       0.00277682
O        2.68987000      17.83820000      17.44090000      15.99900000       0.00432816      -0.00521928       0.00012857
O        3.85934000      19.80180000      18.45880000      15.99900000      -0.00597957       0.00687473      -0.00807534
S        4.71684000      15.42040000       3.30810000      32.06000000      -0.00107040       0.00253060      -0.00034646
S        3.84536000      18.25210000      18.33730000      32.06000000       0.00361293       0.00045857      -0.00143056
Zr       4.72693000      16.36440000       0.50199900      91.22400000      -0.00002919      -0.00257251       0.00388848
Zr       1.67193000      17.01580000      16.10910000      91.22400000      -0.00305973      -0.00026756       0.00258575
Zr       6.45792000      16.54120000       5.54860000      91.22400000      -0.00151427      -0.00025908       0.00084561
Zr       2.45607000       0.15243600      19.74860000      91.22400000      -0.00125156      -0.00307730      -0.00147242
Cl       9.27627000       4.60253000       7.03905000      35.45000000       0.00059365      -0.00327746       0.00075549
Cl       8.36894000       1.35398000       7.09233000      35.45000000      -0.00286753      -0.00374185      -0.00036637
Cl       7.60461000       5.06183000      10.12690000      35.45000000       0.00281241      -0.00128982       0.00171364
Cl      12.19690000       2.21801000      13.74720000      35.45000000       0.00297948       0.00454981       0.00287048
Cl      11.82300000       5.47983000      10.29190000      35.45000000      -0.00389039       0.00278960       0.00335669
Cl       9.69983000       4.57160000      12.71390000      35.45000000      -0.00160405       0.00501167      -0.00443277
Cl       6.68908000       1.67697000       3.78400000      35.45000000      -0.00503312       0.00187431      -0.00141695
Cl       1.92436000       4.01631000       7.50135000      35.45000000       0.00205718       0.00020755      -0.00285636
Cl       6.99318000       1.68461000      10.10830000      35.45000000      -0.00035455      -0.00264798      -0.00104147
Cl       4.49807000       1.07135000       6.03399000      35.45000000       0.00208417      -0.00180915      -0.00080577
Cl       2.38268000       2.86423000       3.78415000      35.45000000       0.00163293      -0.00193740      -0.00324299
Cl      14.42170000       3.74996000      11.53070000      35.45000000      -0.00076743       0.00072225      -0.00289378
Cl       9.16476000      18.62120000      10.26160000      35.45000000       0.00358777       0.00509137      -0.00075496
Cl      12.58800000      19.60840000      11.69960000      35.45000000       0.00486233      -0.00082854       0.00416788
Cl      11.91870000      16.65730000      10.56140000      35.45000000       0.00106592       0.00018943      -0.00271992
Cl      10.82940000      18.50400000       7.31786000      35.45000000      -0.00060420       0.00105804      -0.00188310
O        6.53408000       5.31279000       6.21873000      15.99900000       0.00262527      -0.00195117       0.00233863
O        4.71862000       5.51240000       7.95332000      15.99900000      -0.00003899       0.00062829      -0.00140989
O        4.52089000       3.93977000       6.03935000      15.99900000      -0.00512934      -0.00687820      -0.00172857
O        6.06718000       3.42304000       7.79590000      15.99900000       0.00469329      -0.00523222      -0.00221995
O        9.81488000       2.87048000       9.56986000      15.99900000      -0.00628909       0.00838554      -0.00155518
O       10.96120000       0.73282800       9.33322000      15.99900000      -0.00630523       0.00840861      -0.00566699
O       12.02590000       2.58916000      10.68080000      15.99900000       0.00493148       0.00314252      -0.00231516
O       10.18510000       1.39040000      11.52240000      15.99900000      -0.00117839       0.00305026       0.00060225
S        5.51828000       4.65505000       6.98924000      32.06000000      -0.00198925      -0.00198511      -0.00125469
S       10.67610000       1.85650000      10.24290000      32.06000000      -0.00363841       0.00054283       0.00453876
Zr       7.85434000       3.33969000       8.52836000      91.22400000      -0.00109383       0.00040103      -0.00032478
Zr      11.90200000       3.90619000      12.11390000      91.22400000      -0.00011193      -0.00021180      -0.00183962
Zr       4.63324000       3.01434000       4.42694000      91.22400000       0.00076822      -0.00098742      -0.00122856
Zr      11.58600000      19.04940000       9.54818000      91.22400000       0.00084532       0.00194081       0.00020591
Cl       6.24563000      18.75360000      12.08370000      35.45000000       0.00030944       0.00213909       0.00215043
Cl       7.40986000       1.58065000      13.45810000      35.45000000       0.00141459      -0.00419303      -0.00188804
Cl       6.35220000      16.98810000      14.77470000      35.45000000      -0.00259054      -0.00195176      -0.00087834
Cl       9.94181000      18.97750000      18.92740000      35.45000000       0.00322226       0.00248943       0.00207137
Cl      12.80390000      17.57760000      17.97160000      35.45000000       0.00020517       0.00122268       0.00174404
Cl      10.75220000      15.37170000      19.28730000      35.45000000      -0.00029505       0.00441146      -0.01001000
Cl      11.05800000      15.11450000      15.93810000      35.45000000       0.00523298       0.00044502       0.00258245
Cl       4.73877000       0.16757800      15.28920000      35.45000000       0.00322183       0.00035530      -0.00396212
Cl       7.57347000       1.17290000      18.30470000      35.45000000       0.00124156       0.00519461      -0.00126725
Cl      10.94970000       1.56354000      19.78130000      35.45000000      -0.00087945       0.00722699       0.00268492
Cl      12.45870000       1.79101000      17.12780000      35.45000000      -0.00143986       0.00070688      -0.00216211
Cl       9.50071000       3.46914000      16.79640000      35.45000000      -0.00049558      -0.00372434       0.00445549
O        7.96612000      19.26570000      16.03190000      15.99900000       0.00153301       0.00334662       0.00857239
O        8.96525000      19.34910000      13.95650000      15.99900000      -0.00185764      -0.00040123      -0.00721747
O       10.14230000       0.38950900      15.96690000      15.99900000       0.00473195      -0.00330822       0.00013097
O       10.31770000      18.14320000      15.74100000      15.99900000      -0.00202214      -0.00603209       0.00882131
S        9.36472000      19.33700000      15.37080000      32.06000000      -0.00091012      -0.00217662      -0.00143354
Zr      10.57350000      17.07500000      17.20980000      91.22400000       0.00094655      -0.00191424      -0.00111073
Zr       9.81680000       1.30756000      17.57610000      91.22400000       0.00218056      -0.00220568       0.00281543
Zr       6.84528000      19.43730000      14.46380000      91.22400000       0.00116539      -0.00059381       0.00127210
Cl       0.10764000      15.57070000      14.19820000      35.45000000      -0.00047535      -0.00111375      -0.00005451
Cl      18.62270000      13.10090000      16.33440000      35.45000000       0.00387765      -0.00357904       0.00149871
Cl      19.64160000      13.43980000      11.55820000      35.45000000       0.00232292       0.00134381       0.00195469
Cl      17.90570000       9.42567000       8.98887000      35.45000000      -0.00120068       0.00186289      -0.00017542
Cl       1.08525000      12.05750000      14.13990000      35.45000000       0.00263900      -0.00309947      -0.00437884
Cl      18.34920000       6.47033000      11.37080000      35.45000000      -0.00169564       0.00097394       0.00019687
Cl       0.67015000      10.54830000      10.39440000      35.45000000      -0.00068219       0.00040717      -0.00474360
Cl      16.92210000      14.53710000      13.26880000      35.45000000       0.00282278      -0.00232852       0.00239213
Cl      11.98490000      11.11800000      16.83310000      35.45000000       0.00012235      -0.00032281       0.00154563
Cl      17.10270000      13.61280000       9.32865000      35.45000000       0.00417836       0.00434099      -0.00100584
Cl      15.91270000      11.25080000       7.43691000      35.45000000      -0.00391231      -0.00102228       0.00235955
Cl      15.32850000      11.63590000      15.85860000      35.45000000       0.00170962      -0.00007823      -0.00214781
O       17.55430000      11.33880000      11.20200000      15.99900000       0.00065324      -0.00512029       0.00344627
O       17.91030000      11.61780000      13.61970000      15.99900000       0.00326081      -0.00180962       0.00044590
O       15.95130000      10.54820000      12.84750000      15.99900000      -0.00278194       0.00260890       0.00487766
O       18.22450000       9.38187000      12.40730000      15.99900000       0.00581915      -0.00203092      -0.00190148
S       17.42560000      10.67500000      12.51960000      32.06000000      -0.00182142      -0.00434088      -0.00090299
Zr      19.39980000       8.67653000      11.08960000      91.22400000      -0.00063359      -0.00346175       0.00081080
Zr      16.18340000      11.27240000       9.79680000      91.22400000       0.00025155       0.00075608      -0.00202343
Zr      18.93900000      13.13950000      13.93130000      91.22400000       0.00079361      -0.00363003      -0.00054433
Cl       8.37017000      15.65310000       9.39476000      35.45000000       0.00189181       0.00185991      -0.00001330
Cl      11.27990000      13.54620000       9.11264000      35.45000000       0.00483075       0.00175043      -0.00127089
Cl       9.46293000      15.96720000      12.76020000      35.45000000      -0.00198360      -0.00105002      -0.00126104
Cl      14.43410000      12.70880000      10.68260000      35.45000000       0.00486163       0.00469942      -0.00035901
O        6.93930000      11.79680000      10.75720000      15.99900000       0.00411981      -0.00457855       0.00013707
O        8.57810000      13.46230000      11.49000000      15.99900000      -0.00142163      -0.00690535       0.00021772
O        9.40460000      11.23410000      10.90980000      15.99900000       0.00510681       0.00320404      -0.00158800
O        8.54065000      12.59950000       9.15491000      15.99900000      -0.00352078      -0.00121194       0.00206463
S        8.26276000      12.23710000      10.62020000      32.06000000      -0.00127581      -0.00243350       0.00210323
Zr       9.99345000      14.54800000      10.83330000      91.22400000       0.00101236      -0.00014306      -0.00370904
Cl       2.04446000       2.39238000      13.68170000      35.45000000      -0.00062837      -0.00119087      -0.00146234
Cl      19.96990000       3.19794000      11.23530000      35.45000000       0.00001139       0.00166711      -0.00002353
Cl      18.90660000       1.00387000      14.38900000      35.45000000      -0.00248279       0.00209550      -0.00154737
Cl      17.46380000       3.89617000      13.43000000      35.45000000       0.00151479       0.00020722       0.00135979
O       19.71570000       6.50159000      15.16480000      15.99900000      -0.00132572       0.00292816      -0.00003085
O        0.57121300       4.97935000      13.35740000      15.99900000      -0.00558189       0.00319615       0.00229274
O        1.78701000       5.41861000      15.63710000      15.99900000      -0.01201790       0.00474704      -0.00024646
O       19.90930000       3.97994000      15.40740000      15.99900000      -0.00064994      -0.00411340      -0.00497437
S        0.42742600       5.31476000      14.90610000      32.06000000      -0.00062956      -0.00073417       0.00121713
Zr      19.82980000       2.97165000      13.79400000      91.22400000      -0.00069651       0.00037036       0.00164540
Li       9.54555000       6.30850000      10.62150000       6.94000000      -0.00574540       0.01287590       0.00656835
Li       7.67092000      13.22110000       5.25067000       6.94000000      -0.00692514      -0.00086914      -0.00877950
Li      17.47420000      15.02170000      11.08500000       6.94000000       0.00290767       0.00476474       0.00244584
Li       5.84255000       8.32402000       8.73475000       6.94000000       0.00179658       0.00842257      -0.00030205
Li       0.36982700       5.48524000      11.46410000       6.94000000      -0.00233985       0.00720695       0.00091044
Li       6.70908000      20.09540000       5.82337000       6.94000000       0.00689141       0.00412163       0.00492745
Li       8.41327000      15.09180000      19.72060000       6.94000000      -0.00722709       0.00078378       0.00980715
Li       6.55861000       9.94769000       3.29945000       6.94000000       0.00491836       0.01194960       0.00628971
Li       3.35681000       1.93582000      16.72760000       6.94000000       0.00776286       0.00841654       0.00120271
Li       6.41995000       7.36002000       5.81000000       6.94000000       0.00985002       0.00325571       0.00905551
Li      12.97800000       3.08325000      19.19770000       6.94000000      -0.00236750      -0.00471271       0.00627824
Li       4.59473000      12.02720000       1.33145000       6.94000000       0.00887672      -0.00531700       0.00669378
Li       1.72559000      13.67740000      12.44320000       6.94000000       0.00409285       0.01043880      -0.01026210
Li       2.63904000       4.17451000      20.09310000       6.94000000       0.00081776       0.00636005      -0.00463660
Li      14.30480000       1.36026000      10.78470000       6.94000000      -0.00534029       0.00319361       0.00693165
Li       7.42058000      16.79640000      11.52360000       6.94000000      -0.00180097       0.00286237       0.00456883
Li      11.63380000      13.65890000      17.84240000       6.94000000      -0.01911550      -0.00616206       0.00550230
Li      12.19720000       3.62323000      15.66510000       6.94000000       0.00845738      -0.00810334       0.01307040
Li       4.16252000      16.74910000      13.53310000       6.94000000      -0.01192500      -0.00714448      -0.00411322
Li      17.73600000       6.34826000      14.86810000       6.94000000      -0.00345036      -0.00462487      -0.00339400
Li       4.86883000      19.31440000       3.64050000       6.94000000      -0.00876553      -0.00071147       0.00827746
Li       8.31296000       0.49311600      11.60690000       6.94000000      -0.00240877      -0.00099692       0.00816345
Li      15.09330000       4.97081000      13.70420000       6.94000000      -0.01373150      -0.00340922       0.00351668
Li      11.95720000      11.68220000      10.73520000       6.94000000       0.01662850      -0.01313370      -0.00136882
Li      12.32180000      19.59510000      19.51380000       6.94000000      -0.01224390      -0.00570533       0.01555810
Li       9.30733000      17.23190000       8.14131000       6.94000000       0.00715962      -0.00449526       0.00562558
Li      19.05900000       7.82217000      17.66280000       6.94000000       0.01406310      -0.00493055       0.00077959
Li       4.77755000       9.91500000       5.60161000       6.94000000       0.00910569       0.00336239       0.00126727
Li       7.08682000      18.56440000      17.95470000       6.94000000       0.00111248       0.00076004      -0.00701116
Li       2.65140000      10.30500000       3.33075000       6.94000000       0.00159025      -0.00404467      -0.00213868
Li      17.28280000      11.09780000      17.06410000       6.94000000       0.00871198       0.00384767      -0.00052778
Li      11.15570000       4.20265000       8.18077000       6.94000000       0.01229010       0.00201268       0.00330104
