272
Lattice="20.58303563591461 0.0 0.0 0.0 20.58303563591461 0.0 0.0 0.0 20.58303563591461" Properties=species:S:1:pos:R:3:mass:R:1:vel:R:3 pbc="T T T"
Cl       9.05066604      13.68913896       4.25433619      35.45000000       0.00139045      -0.00258209       0.00079555
Cl       4.31459079      13.47019373       2.63758541      35.45000000      -0.00016616       0.00477861      -0.00354086
Cl       6.73885843      12.04020146       3.97230773      35.45000000      -0.00156559       0.00207010       0.00180069
Cl       6.04399017      11.18020124       6.96505884      35.45000000      -0.00228778      -0.00052012       0.00250378
Cl       9.28784348       8.77678600       8.17145105      35.45000000       0.00091056       0.00178639       0.00430918
Cl       6.01632923      13.56130512      10.65060388      35.45000000       0.00055144       0.00063087       0.00000515
Cl       1.81007961      16.17038597       5.73023153      35.45000000      -0.00035003      -0.00211472       0.00048447
Cl       1.78607107      15.71721101       2.71148687      35.45000000      -0.00104866      -0.00276913       0.00513709
Cl       1.80178232      12.85772272       4.63993190      35.45000000       0.00399544       0.00094268      -0.00415578
Cl       3.51935112      16.47359435      10.06651834      35.45000000       0.00115209      -0.00353124      -0.00440059
Cl      12.62974574       9.46127272       7.59400533      35.45000000      -0.00410899      -0.00538335      -0.00184019
Cl       8.50910907       7.54131357      11.60052449      35.45000000      -0.00257544      -0.00259311      -0.00669427
Cl      11.79058801      11.70086612       5.25986650      35.45000000      -0.00256803      -0.00049824      -0.00111817
Cl       1.42708425      14.07571725       9.17863884      35.45000000      -0.00081141      -0.00092107       0.00149541
Cl       3.01782163      13.81707206      12.12744210      35.45000000      -0.00282649      -0.00136246       0.00686329
Cl       3.82022714      11.60479223       9.70734295      35.45000000      -0.00424250      -0.00159814      -0.00374993
O        8.56607850       9.93302725       3.40604746      15.99900000      -0.00123205      -0.00116204      -0.00380662
O       10.15713348       8.97212961       5.13532775      15.99900000      -0.00804065       0.00299065       0.00104244
O        8.84293604      10.97008925       5.88312597      15.99900000       0.00259228       0.00121963       0.00202147
O        7.70249537       8.60920258       5.29045531      15.99900000       0.00487431      -0.00322994      -0.00299981
O        4.84552802      16.00384467       6.82903688      15.99900000      -0.00475093      -0.00511117      -0.00225491
O        4.64871551      13.99572184       8.10713713      15.99900000       0.00398562       0.00506881       0.00072226
O        4.39411972      13.81657581       5.67671599      15.99900000       0.00401246      -0.00089368      -0.00192235
O        6.55290386      14.37108489       6.49668873      15.99900000       0.00113824       0.00199846      -0.00962093
S        8.79839270       9.49125611       4.78534289      32.06000000      -0.00148145      -0.00296183       0.00111048
S        5.06333188      14.56174391       6.79769376      32.06000000      -0.00354578      -0.00014573      -0.00174618
Zr       7.72266295      12.82943650       6.17357082      91.22400000      -0.00102055      -0.00182967      -0.00113006
Zr      10.50401181      10.48048959       6.81217432      91.22400000       0.00031708       0.00064371       0.00119682
Zr       3.33254300      15.03536434       4.39219427      91.22400000       0.00024726       0.00229941      -0.00181193
Zr       3.80087341      14.15908715       9.78839040      91.22400000       0.00071444      -0.00142417       0.00057133
Cl      12.19552752      11.85281768      18.70631965      35.45000000       0.00344834       0.00169759      -0.00150099
Cl      13.00917804       8.88717171      20.11834770      35.45000000       0.00142869       0.00078111      -0.00238679
Cl       8.78806078      11.67089265      17.96363280      35.45000000      -0.00102607       0.00194829       0.00051132
Cl      10.42282541       8.07506950      17.96353355      35.45000000      -0.00060372       0.00488550       0.00029531
Cl       6.44895946      14.03264280      19.30787318      35.45000000      -0.00150455       0.00005059       0.00237207
Cl      17.84681569       5.00329563      16.77491699      35.45000000      -0.00256308      -0.00602292       0.00058049
Cl      15.33231998       2.48332133      16.97232500      35.45000000      -0.00289408      -0.00479247       0.00194002
Cl      15.32130324       5.08546461      19.24296375      35.45000000       0.00797673      -0.00079075       0.00144891
Cl      12.95558310       4.96745650      16.85600414      35.45000000       0.00328017      -0.00374385      -0.00262736
Cl      15.03665459       4.78618652      14.44234630      35.45000000      -0.00488731      -0.00135672      -0.00220847
Cl       6.18643360      10.97326524       0.16386751      35.45000000       0.00183144       0.00408301      -0.00036089
Cl       7.76696809      17.14849353      18.54702360      35.45000000       0.00159260       0.00102516       0.00024226
Cl       9.60705094      10.95500327       0.68554076      35.45000000      -0.00313818       0.00025662       0.00322531
Cl      20.41768534      11.34455905       9.86525943      35.45000000       0.00010249      -0.00242717      -0.00484885
Cl      17.44058593       7.39661716      13.84754177      35.45000000      -0.00553015       0.00329643      -0.00013921
Cl      19.92907818       9.94047099      15.10176251      35.45000000       0.00021516       0.00016050      -0.00239947
O       10.67660735      14.42497757       1.42457323      15.99900000       0.00273037      -0.00016028       0.00335669
O        9.67635714      13.73697741      19.88630148      15.99900000       0.00673633       0.00422168       0.00535207
O        8.29926505      13.47297272       1.19181241      15.99900000       0.00173725       0.00126806       0.00120989
O        9.02101018      15.83363112       0.40914374      15.99900000       0.00266432       0.00609690      -0.00279654
O       13.87513324       8.93171506      17.37210351      15.99900000      -0.00078217      -0.00048372      -0.00874175
O       15.50481627       9.12242371      15.37837192      15.99900000      -0.00125213       0.00351616       0.00316548
O       15.52496400       7.07165321      16.75030302      15.99900000       0.00365263       0.00707177       0.00062276
O       13.43505927       7.71282728      15.41023113      15.99900000       0.00323796      -0.00620936       0.00085021
S        9.50803926      14.46517378       0.66368494      32.06000000       0.00727260      -0.00022470       0.00181549
S       14.57315765       8.14021712      16.17376046      32.06000000       0.00212716       0.00025802      -0.00100704
Zr      12.24267121       9.56883974      17.90219712      91.22400000       0.00167746      -0.00279386       0.00171987
Zr       8.02595073      12.37209305      20.22543832      91.22400000      -0.00044068      -0.00029827      -0.00099894
Zr      15.35058196       5.22079182      16.79645421      91.22400000       0.00275296       0.00044975       0.00130060
Zr      17.23940642       9.45897012      14.87338853      91.22400000      -0.00149065       0.00094512      -0.00252311
Cl      18.28460691      17.61199047       9.07832698      35.45000000      -0.00213960      -0.00095338       0.00130850
Cl      16.38198671      20.46780653      12.46717444      35.45000000      -0.00308180      -0.00197283       0.00186843
Cl      18.25959594       0.33443537       9.57619416      35.45000000      -0.00207803      -0.00356726      -0.00410006
Cl      18.85866822      18.20927625      12.16406531      35.45000000      -0.00252996       0.00182403      -0.00056326
Cl      16.03371888      16.88419110      11.35785853      35.45000000      -0.00287525       0.00092669       0.00215034
Cl      13.74134440       3.07667681       1.55369732      35.45000000       0.00552497       0.00138996      -0.00467604
Cl      17.17022926      18.60845927       2.15065558      35.45000000      -0.00104702       0.00298792       0.00328764
Cl      14.01765607      18.58602880       2.87764110      35.45000000       0.00602334      -0.00267731      -0.00069306
Cl      14.80837986      16.45424062       5.22551611      35.45000000       0.00024184      -0.00488867       0.00152285
Cl      18.06496693      17.27930488       5.29180511      35.45000000      -0.00147640       0.00000414      -0.00581486
Cl      13.04312149       2.71612184       7.96802850      35.45000000       0.00037319       0.00266827      -0.00485118
Cl      13.10406092       0.22212520       5.76436356      35.45000000      -0.00338250       0.00236206      -0.00422043
Cl      16.09366581       3.06669227       8.01653192      35.45000000       0.00197784      -0.00159340      -0.00375126
Cl      16.84032266       2.45227596       0.67774269      35.45000000      -0.00200849      -0.00293789       0.00258882
Cl      14.13219043       3.37646107       4.77293666      35.45000000       0.00156679      -0.00050849      -0.00047102
Cl      17.43820393       3.71646139       3.84262783      35.45000000       0.00081390       0.00299496      -0.00389264
O       15.51226001       0.00865271       7.92492428      15.99900000       0.00797531       0.00064395       0.00051514
O       13.33541239      20.01393682       8.90511609      15.99900000       0.00055915      -0.00447135       0.00757007
O       15.48119480      19.21924303       9.86469371      15.99900000      -0.00056735      -0.00114987       0.00008839
O       14.72798746       1.03561295       9.96498571      15.99900000      -0.00447774      -0.00300123       0.00239271
O       16.25782511       1.40092198       5.76587216      15.99900000       0.00333615      -0.00269127      -0.00267863
O       15.97377195      19.64244452       5.08742975      15.99900000      -0.00332895       0.00201365      -0.00422890
O       15.91064903       0.83117408       3.40707966      15.99900000       0.00059671      -0.00325224       0.00193751
O       18.04501770       0.36895746       4.54594226      15.99900000       0.00504227       0.00223356       0.00113671
S       14.77592515      20.37560339       9.20555540      32.06000000      -0.00220533       0.00121736       0.00374880
S       16.62028567       0.41992227       4.77065391      32.06000000      -0.00571763      -0.00636873      -0.00522716
Zr      17.22660319      19.02044552      10.60921668      91.22400000       0.00051009      -0.00167623       0.00006851
Zr      16.03828438      18.11250762       4.13793593      91.22400000      -0.00033592       0.00130268       0.00020555
Zr      14.71141273       1.40345285       6.95243425      91.22400000      -0.00079495       0.00031615      -0.00072340
Zr      15.68862705       2.56733635       2.87554693      91.22400000      -0.00121151       0.00078432       0.00120559
Cl       1.43269187       8.82826691       2.83343520      35.45000000      -0.00410995      -0.00223815      -0.00015195
Cl       1.40637080       5.55887661       8.84450419      35.45000000      -0.00162211      -0.00091482      -0.00093738
Cl      20.53916719       6.20684930       6.06287743      35.45000000      -0.00368196       0.00030947      -0.00553858
Cl       0.31511638       9.57972745       6.28879993      35.45000000      -0.00461830       0.00133969       0.00222784
Cl       2.30512809       8.46374195       9.42571149      35.45000000       0.00011936       0.00007012       0.00037575
Cl       3.95007575       5.56968492      18.62185800      35.45000000       0.00130288      -0.00313655       0.00268184
Cl       1.39450052      12.81494602       0.85322938      35.45000000      -0.00432722      -0.00756513      -0.00218478
Cl      20.14067892      10.39652419      20.01125708      35.45000000       0.00218831       0.00049128       0.00125417
Cl       0.38475506      13.12629289      18.50007840      35.45000000      -0.00397783      -0.00251956       0.00226398
Cl       3.76305920      12.04556095      19.01846053      35.45000000       0.00127329       0.00417321      -0.00344758
Cl       6.21765761       7.80509990       2.80994276      35.45000000       0.00294890       0.00258304      -0.00009686
Cl       4.17855890      10.18015945       2.95360696      35.45000000       0.00073490      -0.00230604       0.00121449
Cl       3.05262856       5.70061536       1.68477664      35.45000000      -0.00570759      -0.00427016      -0.00038340
Cl       1.56383074      10.36119123      17.35572728      35.45000000       0.00297102       0.00289342      -0.00033474
Cl       1.19601068       4.26514450      19.49426445      35.45000000       0.00312085       0.00151802       0.00170798
Cl      19.95915089       6.85165592      18.94709986      35.45000000      -0.00349183      -0.00239602       0.00143640
O        5.23217578       7.70390472       6.32473831      15.99900000      -0.00139037       0.00652507      -0.00118054
O        2.88259367       7.38179916       6.76905025      15.99900000       0.00146965      -0.00242972       0.00547625
O        3.58345662       9.44917416       5.79066478      15.99900000      -0.00242386      -0.00144464       0.00446599
O        3.64478312       7.30025546       4.46698898      15.99900000      -0.00501230      -0.00196245       0.00080086
O        3.84520833       8.99664433      19.01240628      15.99900000      -0.00406829      -0.00291808       0.00825485
O        2.48601100      10.07664183       0.23989490      15.99900000       0.00269789      -0.00807851       0.00144499
O        2.08574616       7.72604737      20.12976143      15.99900000      -0.00736597      -0.00230229      -0.00560618
O        4.17592878       8.28928051       0.55467483      15.99900000       0.00372395      -0.00263547       0.00274008
S        3.90201896       8.07073228       5.83717327      32.06000000       0.00311797      -0.00186112       0.00055029
S        3.20604903       8.79264613      20.25640428      32.06000000      -0.00728889       0.00115801       0.00314221
Zr       1.18098425       7.66685474       7.36478773      91.22400000       0.00109717       0.00076170      -0.00060899
Zr       1.68619591      11.23210893      19.56830486      91.22400000       0.00043985       0.00211198      -0.00085970
Zr       3.51172873       7.85725571       2.64709355      91.22400000      -0.00116731       0.00146786      -0.00133193
Zr       1.73098738       6.50107557      18.72041314      91.22400000       0.00205290       0.00082999       0.00000598
Cl       8.15749652      18.91801965       0.91375792      35.45000000      -0.00557022       0.00048374       0.00144635
Cl       6.53049324       0.39588296       2.46394775      35.45000000      -0.00148569       0.00271977       0.00596371
Cl       4.88130760      16.94473353       0.57114535      35.45000000      -0.00075202      -0.00023916      -0.00165668
Cl      17.23216118      15.08350053      15.01581211      35.45000000      -0.00244046       0.00204580       0.00459198
Cl       4.63774840      18.85479747      18.27398718      35.45000000       0.00237234      -0.00142957      -0.00241856
Cl       1.45235327      18.62979800      18.01772398      35.45000000      -0.00257229      -0.00270161       0.00018001
Cl       7.78693717      19.22867177       5.56652878      35.45000000       0.00608461      -0.00257416       0.00714918
Cl       4.67323023      18.77301557       5.72247019      35.45000000       0.00247381       0.00112621       0.00263209
Cl       3.61944463       1.21433221       4.41375134      35.45000000      -0.00047692       0.00204002      -0.00544731
Cl       6.40842581      18.53293011       8.73808847      35.45000000      -0.00354815       0.00383491      -0.00216077
Cl       8.37604476      16.36868723       7.74383295      35.45000000       0.00203186       0.00186199      -0.00191097
Cl       4.22197080       1.69515818      18.52499012      35.45000000      -0.00117789      -0.00069685      -0.00016714
Cl       1.01765865      20.19159411       3.40535271      35.45000000      -0.00089436       0.00707745      -0.00316585
Cl       1.26781797       1.20236267      17.69387163      35.45000000      -0.00367575       0.00266420      -0.00157966
Cl       0.50886505       1.74810799       0.59777707      35.45000000      -0.00114895       0.00453090       0.00047331
Cl       1.01495905       3.46126017       3.18657620      35.45000000      -0.00318674      -0.00210030      -0.00103861
O        6.92196454      15.91392428       2.60007888      15.99900000       0.00534078       0.00934269       0.00156812
O        4.81286489      16.11063754       3.86666615      15.99900000      -0.00363722       0.00329892       0.00133317
O        6.99507200      16.46128736       4.98489470      15.99900000       0.00437031      -0.00210813      -0.00276733
O        6.27105405      18.05117119       3.36593066      15.99900000       0.00814031       0.00439368      -0.00403155
O        3.91765082      19.57108386       2.03729236      15.99900000       0.00360226      -0.00167033      -0.00303360
O        4.97268697      20.22742332       0.14425077      15.99900000       0.00641148      -0.00553613      -0.00638000
O        2.58774212      20.21283358       0.00747395      15.99900000      -0.00014826      -0.00330809      -0.00396160
O        3.55680803       1.34782330       1.35177344      15.99900000      -0.00023616      -0.00057516       0.00017663
S        6.28192191      16.55954475       3.68319283      32.06000000       0.00313914       0.00042201      -0.00295764
S        3.75384882      20.50174998       0.88695946      32.06000000      -0.00402257      -0.00076960       0.00396930
Zr       5.91388351      18.81599077       1.67557618      91.22400000      -0.00107251      -0.00319875      -0.00230462
Zr       2.83989637      20.37877938      18.76755683      91.22400000       0.00259430       0.00138208       0.00030108
Zr       6.34644426      17.26848664       6.52641407      91.22400000       0.00143890      -0.00203529       0.00347906
Zr       2.00049051       1.42284628       2.38094507      91.22400000       0.00017226      -0.00133182       0.00152840
Cl       9.80915348       5.27677868       9.20878103      35.45000000       0.00219781       0.00064748      -0.00185614
Cl       9.74043286       2.28824569       7.21080154      35.45000000      -0.00225816       0.00010258      -0.00004911
Cl       7.12745149       4.15083841      11.00869745      35.45000000       0.00352727      -0.00096216      -0.00212082
Cl      15.47007881       3.18699305      11.88993714      35.45000000       0.00040227      -0.00134851      -0.00039941
Cl      11.33830630       4.46447796      13.48845571      35.45000000      -0.00008529      -0.00600542       0.00029063
Cl      13.39148857       1.98463038      14.15233815      35.45000000       0.00363361      -0.00242304       0.00275012
Cl       6.69908901       2.04544078       5.47393856      35.45000000       0.00026805      -0.00420997       0.00299101
Cl       2.47349559       3.88054129       6.12848160      35.45000000       0.00223489       0.00147548      -0.00235720
Cl       7.77475921       1.05920465       9.63142672      35.45000000       0.00032579      -0.00407393       0.00204626
Cl       4.29723198       1.44285506       7.93600056      35.45000000      -0.00093163       0.00518373       0.00457743
Cl       5.00636245       4.42425198       4.06497734      35.45000000      -0.00069048       0.00543035       0.00294230
Cl      13.16420635       5.42561380      10.54480351      35.45000000      -0.00051762       0.00326000      -0.00205832
Cl       9.80636455      18.86988346      11.09256360      35.45000000       0.00363040       0.00078371       0.00364931
Cl      12.97305108      19.36394936      12.16704280      35.45000000       0.00017786       0.00531102      -0.00341670
Cl      12.48226042      17.01301745       9.79590362      35.45000000       0.00105593       0.00309818      -0.00299414
Cl      10.80702170      19.27065447       7.82348097      35.45000000       0.00231931       0.00002330      -0.00547582
O        7.36777515       5.11158718       6.11621431      15.99900000       0.01133610       0.00670714       0.00191259
O        6.98440264       5.77748440       8.37022871      15.99900000       0.00261632       0.00609577       0.00033547
O        5.19065955       4.55073603       7.17913090      15.99900000       0.00969274       0.00161821      -0.00771038
O        7.19159669       3.42820003       7.89951631      15.99900000       0.00062281       0.00412563      -0.00039083
O        9.97749120       2.52316023      10.62986066      15.99900000       0.00342186      -0.00649105      -0.00013835
O       11.18873673       0.57033447       9.89736677      15.99900000      -0.00512293      -0.00267384      -0.00457154
O       12.27403417       2.38803152      11.17414700      15.99900000      -0.00042312      -0.00305335      -0.00870858
O       10.70588607       0.84611416      12.27135443      15.99900000      -0.00432195      -0.00069131      -0.00235919
S        6.70466685       4.76683279       7.34551340      32.06000000       0.00359841      -0.00233950      -0.00121865
S       11.00562071       1.56057534      11.03797617      32.06000000      -0.00056616       0.00003492       0.00052299
Zr       8.56576090       3.33930192       9.14072538      91.22400000       0.00047267       0.00068601      -0.00215616
Zr      13.08550119       3.67728746      12.16972255      91.22400000      -0.00299805       0.00221586       0.00241570
Zr       4.62959998       2.98959496       6.17667734      91.22400000      -0.00246755      -0.00011277       0.00102569
Zr      12.01816798      19.31263717      10.07435908      91.22400000      -0.00055996      -0.00250458       0.00159951
Cl       6.61532211      19.39044908      12.93712262      35.45000000      -0.00087172      -0.00019357      -0.00443684
Cl       7.70990934       1.41475742      13.88644773      35.45000000      -0.00203352       0.00016880       0.00200668
Cl       4.20190247      19.95468464      15.33539673      35.45000000      -0.00309530       0.00017037       0.00066407
Cl      12.77484907      19.31799666      16.49235258      35.45000000      -0.00207837       0.00142692      -0.00730454
Cl       9.60424217      14.07343450      15.85735184      35.45000000      -0.00250291       0.00386078       0.00359441
Cl      10.80920519      16.02845864      18.22396524      35.45000000       0.00463549      -0.00059695      -0.00114960
Cl       6.60675684      15.97744420      15.64664435      35.45000000      -0.00214292      -0.00613176      -0.00167136
Cl       7.13106419       0.89520514      17.07028463      35.45000000       0.00367116       0.00517688       0.00497599
Cl      11.60250948      18.86482171      19.58378784      35.45000000       0.00393837       0.00729645      -0.00012110
Cl      12.94069562       1.48096701      18.96694984      35.45000000       0.00253045       0.00407351      -0.00353277
Cl      10.86041813       1.63184668      16.14011475      35.45000000       0.00121324       0.00357550       0.00354190
Cl       9.60200905       0.71802624      19.32623440      35.45000000       0.00176864       0.00253427       0.00117722
O        9.56291452      19.13726263      17.11087783      15.99900000       0.00427052      -0.00149920      -0.00346833
O        7.66495907      18.78730756      15.71621851      15.99900000      -0.00038543      -0.00223671       0.00095421
O        9.81898914      19.64949126      14.62913458      15.99900000      -0.00483716       0.00757153       0.00273114
O        9.72178381      17.37845551      15.37301243      15.99900000      -0.00237454       0.00522169       0.00089792
S        9.22744993      18.79743104      15.63612386      32.06000000       0.00331110       0.00013310       0.00496560
Zr       8.78478554      16.21663641      16.59289271      91.22400000      -0.00472464      -0.00366255      -0.00220647
Zr      10.94746028      20.22633157      17.63461945      91.22400000       0.00108119       0.00004394      -0.00090983
Zr       6.55830305      20.19566335      15.23416185      91.22400000       0.00242216       0.00362296       0.00255332
Cl      20.38949837      13.68199297      14.71984897      35.45000000      -0.00281236      -0.00363687       0.00208316
Cl      17.51065635      11.98124703      15.70162878      35.45000000       0.00152977      -0.00393018       0.00508979
Cl      19.27690721      14.65136655      11.95236531      35.45000000      -0.00352988      -0.00152994      -0.00276954
Cl      16.47508310      13.80853657       9.01190896      35.45000000      -0.00248690      -0.00540619       0.00105237
Cl       0.04832298       7.29766503      12.31899437      35.45000000      -0.00082653      -0.00244482       0.00223777
Cl      19.38618133       8.00336146       9.19516394      35.45000000      -0.00189285      -0.00181491       0.00376852
Cl       1.49310527      10.14820099      12.53466436      35.45000000       0.00245010      -0.00036941       0.00552119
Cl      15.86201659      13.36488961      12.46479244      35.45000000       0.00444680      -0.00240180       0.00037142
Cl      11.36698952      10.14562049      15.81874364      35.45000000       0.00357274      -0.00172637       0.00184341
Cl      13.35089537      12.86129571      10.11435678      35.45000000       0.00197867      -0.00140150       0.00136359
Cl      16.10706454      10.62440192       8.05421710      35.45000000       0.00179777       0.00331129      -0.00330994
Cl      17.86239792       8.95446313      17.13291130      35.45000000       0.00154413       0.00265292       0.00351666
O       17.42629395      11.49353312      11.04839740      15.99900000      -0.00195191       0.00847650       0.00529291
O       18.98253207      11.58911075      12.99250406      15.99900000      -0.00075170       0.00308842       0.00359287
O       16.72519280      10.56495124      13.18693457      15.99900000       0.00142118       0.00274945       0.00155228
O       18.52786837       9.50452582      11.96000755      15.99900000      -0.00598775       0.00014852      -0.00007337
S       17.89326464      10.81138869      12.34291359      32.06000000       0.00837318      -0.00153549       0.00705711
Zr      20.17750063       9.36067304      11.17424625      91.22400000      -0.00298269       0.00041670      -0.00091097
Zr      15.75174997      11.70979860      10.25866611      91.22400000      -0.00125749       0.00049630       0.00012513
Zr      18.19687002      13.29134544      13.58065884      91.22400000      -0.00165778       0.00239262       0.00096498
Cl       7.13899425      10.72821729      12.16783680      35.45000000       0.00094265       0.00201483       0.00537554
Cl      10.47850459      10.16060723      11.47388164      35.45000000       0.00508376      -0.00378523      -0.00089408
Cl       6.33958609       8.62856623       9.40423381      35.45000000       0.00250352      -0.00178488      -0.00064263
Cl      14.44840055       9.71476684      10.99569572      35.45000000       0.00391255      -0.00298095      -0.00016583
O        8.84128849      13.23229177       7.64982346      15.99900000       0.00690576       0.00225328      -0.00611374
O        8.47323024      11.52846907       9.38770871      15.99900000      -0.00284611      -0.00301011      -0.00068499
O       10.75809150      11.66573166       8.34175392      15.99900000      -0.00193178       0.00675977       0.00088568
O        9.86999365      13.47585097       9.92000567      15.99900000       0.00694376       0.00007809       0.00116409
S        9.52106085      12.56354607       8.86007650      32.06000000      -0.00247283       0.00178734      -0.00182181
Zr       8.34874111       9.93253100      10.33300427      91.22400000       0.00005275       0.00069792      -0.00157503
Cl       5.35923548       5.97432668      15.22413761      35.45000000      -0.00027557      -0.00483612       0.00433032
Cl       4.14664014       6.43466748      12.07990141      35.45000000       0.00251327      -0.00085652       0.00024337
Cl       3.17762386       3.16270660      15.52536100      35.45000000      -0.00692911       0.00082518      -0.00210523
Cl       2.04945047       4.29812523      12.59441279      35.45000000       0.00007631       0.00648967       0.00044874
O       20.37361839       6.60902967      15.50074703      15.99900000      -0.00141844       0.00139443      -0.00605869
O        2.28292589       6.68919379      15.01204062      15.99900000      -0.00136250       0.00283407       0.00449947
O        1.38985562       7.61558225      17.16050277      15.99900000      -0.00054798       0.00101162       0.00615753
O        1.38400980       5.17373745      16.70395332      15.99900000       0.00275999      -0.00392213       0.00111762
S        1.11981655       6.50282237      16.06815859      32.06000000       0.00086200      -0.00282634      -0.00075062
Zr       3.29853999       5.42468085      14.29922798      91.22400000      -0.00097695      -0.00083893      -0.00162056
Li       7.39554527       6.31749307      10.10274455       6.94000000      -0.00084088      -0.00800415      -0.00293804
Li       8.94407167      11.93033184       2.73712312       6.94000000      -0.00385387       0.00954993      -0.00508892
Li      17.22283170      15.32547174      10.68623459       6.94000000       0.00052324      -0.00317424      -0.00166517
Li       6.97336605       8.87821938       7.11788380       6.94000000       0.00348799       0.00214022      -0.00320339
Li       1.89316169       6.62760924      10.98060974       6.94000000       0.00315492       0.00886297       0.00789200
Li       8.04263463       0.60979325       7.15951913       6.94000000       0.00527718      -0.00471110       0.00695821
Li       6.96294481      15.96007547       0.42650651       6.94000000      -0.00028195       0.00652214       0.00645872
Li       6.57434183      10.08894881       2.52710045       6.94000000      -0.00269400      -0.00058076       0.00015388
Li      16.53244953       1.99627239      10.15465223       6.94000000      -0.00055242       0.00223875      -0.00817215
Li       6.33906999       6.49094216       4.88327275       6.94000000      -0.00454491       0.00133180       0.00557028
Li      14.51469947       2.87969557      19.96887738       6.94000000      -0.00537097      -0.01395350       0.00671120
Li       7.00807373      13.83870853       2.94032732       6.94000000      -0.00201145      -0.00090565       0.00504733
Li       1.67035563      12.06412068      10.75035001       6.94000000       0.00958433       0.00307599       0.00501815
Li       2.91334128       4.93740364       4.00430589       6.94000000       0.00467412      -0.00450332       0.00286274
Li      14.24732029       0.60117042      11.95375481       6.94000000      -0.00882056      -0.00377994       0.00422368
Li       8.72478899      18.64676972       8.61500869       6.94000000       0.00265669      -0.00166691       0.01077780
Li      10.48813183      13.50939743      18.07548742       6.94000000       0.01485170      -0.00694707      -0.01142830
Li      11.12084982       0.51521903      14.11521870       6.94000000       0.00800603       0.00865808       0.00711174
Li       2.59423307       3.25458222      17.82091147       6.94000000       0.00273425      -0.00123629       0.00449670
Li      18.51506513       6.95319848      15.86926183       6.94000000       0.00610126      -0.00192152      -0.00644269
Li       5.89729885      20.44805580       4.69937265       6.94000000      -0.01874710       0.00150064       0.00500609
Li       8.79311260       0.06715872      12.21795799       6.94000000      -0.00478105      -0.00339900      -0.01541140
Li      13.10306842       2.59813359      16.76002950       6.94000000      -0.00692714       0.00247028      -0.00884774
Li      12.48156567      10.69764833       9.69981981       6.94000000       0.00979298       0.00971354       0.00915338
Li       9.77319524      17.53626282      19.99686584       6.94000000       0.01238250      -0.00769210       0.00897061
Li       6.23409339      11.66801441       9.34947766       6.94000000       0.00283699       0.01145820       0.01089540
Li      20.40319485       8.88745954      17.38589925       6.94000000      -0.00720638       0.00884669      -0.00088428
Li       4.08474792      11.60379973       5.29959622       6.94000000       0.00242112       0.00163231      -0.00931099
Li       7.10639067      19.95954789      19.38121884       6.94000000      -0.00436964      -0.00167611       0.00009693
Li       2.44165623      11.55933579       2.48128670       6.94000000       0.00913202      -0.00120412      -0.01624650
Li      20.14067892      12.02491697      16.31846679       6.94000000       0.00052422      -0.00757670      -0.00835433
Li      11.66424291       0.85003056       8.02325113       6.94000000       0.00385771      -0.00166657       0.00050590
