480
Lattice="22.645081839545973 0.0 0.0 -11.322540919772962 19.611216143824432 0.0 0.0 0.0 24.438332908982318" Properties=species:S:1:pos:R:3:masses:R:1:momenta:R:3:id:I:1:type:I:1 comment="LAMMPS data file via write_data, version 10 Sep 2025, timestep = 703, units = metal" pbc="T T T"
Li      -3.87319262       6.45166884       0.01543748       6.94000000      -0.00049191      -0.00048335       0.00037240        4        1
Cl      -3.82485139       8.61711992       4.61492389      35.45000001       0.00893285      -0.00163370       0.00157246       13        3
Li      -3.87319262       6.45166884       6.12502071       6.94000000      -0.00049191      -0.00048335       0.00037240       34        1
Cl      -3.82485139       8.61711992      10.72450712      35.45000001       0.00893285      -0.00163370       0.00157246       43        3
Li      -1.98889969       3.20857280      -0.04884600       6.94000000       0.00362411      -0.00115858       0.00000903        3        1
Li       3.69859826       6.44137132      -0.04884598       6.94000000      -0.00046149      -0.00120718       0.00125938        5        1
Li      -1.97569493       3.36142065       3.01294702       6.94000000       0.00380857      -0.00346440       0.00059255        8        1
Li       3.82436604       6.35351174       3.01294703       6.94000000      -0.00506283      -0.00182487       0.00113771        9        1
Y       -0.01307554       0.05491894      -0.05844620      88.90584002      -0.00805300      -0.03802798      -0.00843083       10        2
Y       -0.02045816       6.30708433      -0.05844622      88.90584002      -0.03413308       0.03202586       0.02134884       11        2
Cl      -0.35633147       2.15076450       4.55573198      35.45000001       0.01141415      -0.00682570      -0.00032452       15        3
Cl       3.62229608       8.66589482       4.58218276      35.45000001      -0.00238140      -0.00406022      -0.00224561       17        3
Cl       1.91319968       0.88545769       1.45935357      35.45000001      -0.00970707       0.00170593       0.00737316       18        3
Cl      -1.93655948       7.61915577       1.32393268      35.45000001      -0.00999846       0.00725673       0.00709913       19        3
Cl      -0.26432811       4.22361168       1.45935355      35.45000001       0.00932077       0.00099851       0.00576877       21        3
Cl       1.84195608       7.62902489       1.42862145      35.45000001      -0.00548253       0.00146699       0.00569210       23        3
Cl       3.75433967       1.84220405       4.55573199      35.45000001      -0.00768584       0.01315413       0.00274267       24        3
Cl       1.96622530       5.55642991       4.55573198      35.45000001      -0.00935997       0.00396135       0.01514922       25        3
Cl       3.71536195       4.44032908       1.45935356      35.45000001       0.01381209      -0.00523659       0.00326969       26        3
Cl      -0.04209057       8.65888030       4.58218276      35.45000001      -0.00768777       0.00470137       0.00216641       27        3
Cl      -2.02202759       5.32707857       4.61492388      35.45000001       0.00280941      -0.00811751      -0.00009808       29        3
Li      -1.98889969       3.20857280       6.06073723       6.94000000       0.00362411      -0.00115858       0.00000903       33        1
Li       3.69859826       6.44137132       6.06073724       6.94000000      -0.00046149      -0.00120718       0.00125938       35        1
Li      -1.97569493       3.36142065       9.12253024       6.94000000       0.00380857      -0.00346440       0.00059255       38        1
Li       3.82436604       6.35351174       9.12253026       6.94000000      -0.00506283      -0.00182487       0.00113771       39        1
Y       -0.01307554       0.05491894       6.05113702      88.90584002      -0.00805300      -0.03802798      -0.00843083       40        2
Y       -0.02045816       6.30708433       6.05113701      88.90584002      -0.03413308       0.03202586       0.02134884       41        2
Cl      -0.35633147       2.15076450      10.66531520      35.45000001       0.01141415      -0.00682570      -0.00032452       45        3
Cl       3.62229608       8.66589482      10.69176599      35.45000001      -0.00238140      -0.00406022      -0.00224561       47        3
Cl       1.91319968       0.88545769       7.56893680      35.45000001      -0.00970707       0.00170593       0.00737316       48        3
Cl      -1.93655948       7.61915577       7.43351591      35.45000001      -0.00999846       0.00725673       0.00709913       49        3
Cl      -0.26432811       4.22361168       7.56893677      35.45000001       0.00932077       0.00099851       0.00576877       51        3
Cl       1.84195608       7.62902489       7.53820468      35.45000001      -0.00548253       0.00146699       0.00569210       53        3
Cl       3.75433967       1.84220405      10.66531522      35.45000001      -0.00768584       0.01315413       0.00274267       54        3
Cl       1.96622530       5.55642991      10.66531521      35.45000001      -0.00935997       0.00396135       0.01514922       55        3
Cl       3.71536195       4.44032908       7.56893679      35.45000001       0.01381209      -0.00523659       0.00326969       56        3
Cl      -0.04209057       8.65888030      10.69176599      35.45000001      -0.00768777       0.00470137       0.00216641       57        3
Cl      -2.02202759       5.32707857      10.72450711      35.45000001       0.00280941      -0.00811751      -0.00009808       59        3
Li      -2.00673553       9.70506242      -0.04884598       6.94000000      -0.00125693       0.00276961       0.00127128       61        1
Li      -2.14570802       9.64007413       3.01294704       6.94000000       0.00071965       0.00501233       0.00099847       66        1
Li      -2.00673553       9.70506242       6.06073725       6.94000000      -0.00125693       0.00276961       0.00127128       91        1
Li      -2.14570802       9.64007413       9.12253027       6.94000000       0.00071965       0.00501233       0.00099847       96        1
Y        5.39776721       3.18739518      -0.05844620      88.90584002       0.03898009       0.00778919      -0.02931234       12        2
Cl       5.46995838       7.54509888       1.32393269      35.45000001      -0.00494801      -0.00590677       0.00052913       16        3
Cl       5.54984204       5.41080804       4.61492389      35.45000001      -0.00058682       0.00766373      -0.00530446       22        3
Y        5.39776721       3.18739518       6.05113703      88.90584002       0.03898009       0.00778919      -0.02931234       42        2
Cl       5.46995838       7.54509888       7.43351592      35.45000001      -0.00494801      -0.00590677       0.00052913       46        3
Cl       5.54984204       5.41080804      10.72450712      35.45000001      -0.00058682       0.00766373      -0.00530446       52        3
Li       7.44934829      -0.08540320      -0.05454891       6.94000000      -0.00051956      -0.00034737      -0.00207981        2        1
Li       7.44934830      -0.08540321       3.03670546       6.94000000      -0.00018554      -0.00080823      -0.00187927        7        1
Cl       9.23342416       1.00684671       1.42862146      35.45000001      -0.00095716      -0.00134997      -0.01088304       14        3
Cl       7.44529845       2.03023141       4.58218277      35.45000001       0.00276521      -0.00269537      -0.01434318       20        3
Cl       5.61139419       0.91352685       1.42862146      35.45000001      -0.00286751       0.00455554      -0.00814613       28        3
Cl       7.49210507       4.19075188       1.32393269      35.45000001       0.01319128      -0.00443831      -0.00994591       30        3
Li       7.44934829      -0.08540320       6.05503431       6.94000000      -0.00051956      -0.00034737      -0.00207981       32        1
Li       7.44934830      -0.08540321       9.14628868       6.94000000      -0.00018554      -0.00080823      -0.00187927       37        1
Cl       9.23342416       1.00684671       7.53820469      35.45000001      -0.00095716      -0.00134997      -0.01088304       44        3
Cl       7.44529845       2.03023141      10.69176599      35.45000001       0.00276521      -0.00269537      -0.01434318       50        3
Cl       5.61139419       0.91352685       7.53820469      35.45000001      -0.00286751       0.00455554      -0.00814613       58        3
Cl       7.49210507       4.19075188       7.43351591      35.45000001       0.01319128      -0.00443831      -0.00994591       60        3
Li       9.33364123       3.20857280      -0.04884600       6.94000000       0.00362411      -0.00115858       0.00000903      123        1
Li       7.44934830       6.45166884       0.01543748       6.94000000      -0.00049191      -0.00048335       0.00037240      124        1
Li       9.34684599       3.36142065       3.01294702       6.94000000       0.00380857      -0.00346440       0.00059255      128        1
Y       11.30946538       0.05491894      -0.05844620      88.90584002      -0.00805300      -0.03802798      -0.00843083      130        2
Y       11.30208276       6.30708433      -0.05844622      88.90584002      -0.03413308       0.03202586       0.02134884      131        2
Cl       7.49768953       8.61711992       4.61492389      35.45000001       0.00893285      -0.00163370       0.00157246      133        3
Cl      10.96620945       2.15076450       4.55573198      35.45000001       0.01141415      -0.00682570      -0.00032452      135        3
Cl      13.23574060       0.88545769       1.45935357      35.45000001      -0.00970707       0.00170593       0.00737316      138        3
Cl       9.38598144       7.61915577       1.32393268      35.45000001      -0.00999846       0.00725673       0.00709913      139        3
Cl      11.05821281       4.22361168       1.45935355      35.45000001       0.00932077       0.00099851       0.00576877      141        3
Cl      13.16449700       7.62902489       1.42862145      35.45000001      -0.00548253       0.00146699       0.00569210      143        3
Cl      13.28876622       5.55642991       4.55573198      35.45000001      -0.00935997       0.00396135       0.01514922      145        3
Cl      11.28045035       8.65888030       4.58218276      35.45000001      -0.00768777       0.00470137       0.00216641      147        3
Cl       9.30051333       5.32707857       4.61492388      35.45000001       0.00280941      -0.00811751      -0.00009808      149        3
Li       9.33364123       3.20857280       6.06073723       6.94000000       0.00362411      -0.00115858       0.00000903      153        1
Li       7.44934830       6.45166884       6.12502071       6.94000000      -0.00049191      -0.00048335       0.00037240      154        1
Li       9.34684599       3.36142065       9.12253024       6.94000000       0.00380857      -0.00346440       0.00059255      158        1
Y       11.30946538       0.05491894       6.05113702      88.90584002      -0.00805300      -0.03802798      -0.00843083      160        2
Y       11.30208276       6.30708433       6.05113701      88.90584002      -0.03413308       0.03202586       0.02134884      161        2
Cl       7.49768953       8.61711992      10.72450712      35.45000001       0.00893285      -0.00163370       0.00157246      163        3
Cl      10.96620945       2.15076450      10.66531520      35.45000001       0.01141415      -0.00682570      -0.00032452      165        3
Cl      13.23574060       0.88545769       7.56893680      35.45000001      -0.00970707       0.00170593       0.00737316      168        3
Cl       9.38598144       7.61915577       7.43351591      35.45000001      -0.00999846       0.00725673       0.00709913      169        3
Cl      11.05821281       4.22361168       7.56893677      35.45000001       0.00932077       0.00099851       0.00576877      171        3
Cl      13.16449700       7.62902489       7.53820468      35.45000001      -0.00548253       0.00146699       0.00569210      173        3
Cl      13.28876622       5.55642991      10.66531521      35.45000001      -0.00935997       0.00396135       0.01514922      175        3
Cl      11.28045035       8.65888030      10.69176599      35.45000001      -0.00768777       0.00470137       0.00216641      177        3
Cl       9.30051333       5.32707857      10.72450711      35.45000001       0.00280941      -0.00811751      -0.00009808      179        3
Li       9.31580538       9.70506242      -0.04884598       6.94000000      -0.00125693       0.00276961       0.00127128      181        1
Li       9.17683290       9.64007413       3.01294704       6.94000000       0.00071965       0.00501233       0.00099847      186        1
Li       9.31580538       9.70506242       6.06073725       6.94000000      -0.00125693       0.00276961       0.00127128      211        1
Li       9.17683290       9.64007413       9.12253027       6.94000000       0.00071965       0.00501233       0.00099847      216        1
Li      15.02113918       6.44137132      -0.04884598       6.94000000      -0.00046149      -0.00120718       0.00125938      125        1
Li      15.14690696       6.35351174       3.01294703       6.94000000      -0.00506283      -0.00182487       0.00113771      129        1
Y       16.72030813       3.18739518      -0.05844620      88.90584002       0.03898009       0.00778919      -0.02931234      132        2
Cl      20.55596508       1.00684671       1.42862146      35.45000001      -0.00095716      -0.00134997      -0.01088304      134        3
Cl      16.79249930       7.54509888       1.32393269      35.45000001      -0.00494801      -0.00590677       0.00052913      136        3
Cl      14.94483700       8.66589482       4.58218276      35.45000001      -0.00238140      -0.00406022      -0.00224561      137        3
Cl      18.76783937       2.03023141       4.58218277      35.45000001       0.00276521      -0.00269537      -0.01434318      140        3
Cl      16.87238296       5.41080804       4.61492389      35.45000001      -0.00058682       0.00766373      -0.00530446      142        3
Cl      15.07688059       1.84220405       4.55573199      35.45000001      -0.00768584       0.01315413       0.00274267      144        3
Cl      15.03790287       4.44032908       1.45935356      35.45000001       0.01381209      -0.00523659       0.00326969      146        3
Cl      16.93393511       0.91352685       1.42862146      35.45000001      -0.00286751       0.00455554      -0.00814613      148        3
Cl      18.81464599       4.19075188       1.32393269      35.45000001       0.01319128      -0.00443831      -0.00994591      150        3
Li      15.02113918       6.44137132       6.06073724       6.94000000      -0.00046149      -0.00120718       0.00125938      155        1
Li      15.14690696       6.35351174       9.12253026       6.94000000      -0.00506283      -0.00182487       0.00113771      159        1
Y       16.72030813       3.18739518       6.05113703      88.90584002       0.03898009       0.00778919      -0.02931234      162        2
Cl      20.55596508       1.00684671       7.53820469      35.45000001      -0.00095716      -0.00134997      -0.01088304      164        3
Cl      16.79249930       7.54509888       7.43351592      35.45000001      -0.00494801      -0.00590677       0.00052913      166        3
Cl      14.94483700       8.66589482      10.69176599      35.45000001      -0.00238140      -0.00406022      -0.00224561      167        3
Cl      18.76783937       2.03023141      10.69176599      35.45000001       0.00276521      -0.00269537      -0.01434318      170        3
Cl      16.87238296       5.41080804      10.72450712      35.45000001      -0.00058682       0.00766373      -0.00530446      172        3
Cl      15.07688059       1.84220405      10.66531522      35.45000001      -0.00768584       0.01315413       0.00274267      174        3
Cl      15.03790287       4.44032908       7.56893679      35.45000001       0.01381209      -0.00523659       0.00326969      176        3
Cl      16.93393511       0.91352685       7.53820469      35.45000001      -0.00286751       0.00455554      -0.00814613      178        3
Cl      18.81464599       4.19075188       7.43351591      35.45000001       0.01319128      -0.00443831      -0.00994591      180        3
Li      18.77188921      -0.08540320      -0.05454891       6.94000000      -0.00051956      -0.00034737      -0.00207981      122        1
Li      18.77188922      -0.08540321       3.03670546       6.94000000      -0.00018554      -0.00080823      -0.00187927      127        1
Li      18.77188921      -0.08540320       6.05503431       6.94000000      -0.00051956      -0.00034737      -0.00207981      152        1
Li      18.77188922      -0.08540321       9.14628868       6.94000000      -0.00018554      -0.00080823      -0.00187927      157        1
Y       -5.67434600       9.86052701      -0.05844620      88.90584002      -0.00805300      -0.03802798      -0.00843083       70        2
Y       -5.67434600       9.86052701       6.05113702      88.90584002      -0.00805300      -0.03802798      -0.00843083      100        2
Li       3.65453493      -0.10054565      -0.04884598       6.94000000      -0.00125693       0.00276961       0.00127128        1        1
Li       3.51556244      -0.16553394       3.01294704       6.94000000       0.00071965       0.00501233       0.00099847        6        1
Li       3.65453493      -0.10054565       6.06073725       6.94000000      -0.00125693       0.00276961       0.00127128       31        1
Li       3.51556244      -0.16553394       9.12253027       6.94000000       0.00071965       0.00501233       0.00099847       36        1
Li      -7.65017015      13.01418087      -0.04884600       6.94000000       0.00362411      -0.00115858       0.00000903       63        1
Li      -7.63696539      13.16702872       3.01294702       6.94000000       0.00380857      -0.00346440       0.00059255       68        1
Y       -5.68172862      16.11269241      -0.05844622      88.90584002      -0.03413308       0.03202586       0.02134884       71        2
Cl      -9.48612185      18.42272800       4.61492389      35.45000001       0.00893285      -0.00163370       0.00157246       73        3
Cl      -6.01760193      11.95637257       4.55573198      35.45000001       0.01141415      -0.00682570      -0.00032452       75        3
Cl      -3.74807078      10.69106576       1.45935357      35.45000001      -0.00970707       0.00170593       0.00737316       78        3
Cl      -7.59782994      17.42476384       1.32393268      35.45000001      -0.00999846       0.00725673       0.00709913       79        3
Cl      -5.92559857      14.02921975       1.45935355      35.45000001       0.00932077       0.00099851       0.00576877       81        3
Cl      -3.81931438      17.43463297       1.42862145      35.45000001      -0.00548253       0.00146699       0.00569210       83        3
Cl      -3.69504516      15.36203798       4.55573198      35.45000001      -0.00935997       0.00396135       0.01514922       85        3
Cl      -5.70336103      18.46448837       4.58218276      35.45000001      -0.00768777       0.00470137       0.00216641       87        3
Cl      -7.68329805      15.13268664       4.61492388      35.45000001       0.00280941      -0.00811751      -0.00009808       89        3
Li      -7.65017015      13.01418087       6.06073723       6.94000000       0.00362411      -0.00115858       0.00000903       93        1
Li      -7.63696539      13.16702872       9.12253024       6.94000000       0.00380857      -0.00346440       0.00059255       98        1
Y       -5.68172862      16.11269241       6.05113701      88.90584002      -0.03413308       0.03202586       0.02134884      101        2
Cl      -9.48612185      18.42272800      10.72450712      35.45000001       0.00893285      -0.00163370       0.00157246      103        3
Cl      -6.01760193      11.95637257      10.66531520      35.45000001       0.01141415      -0.00682570      -0.00032452      105        3
Cl      -3.74807078      10.69106576       7.56893680      35.45000001      -0.00970707       0.00170593       0.00737316      108        3
Cl      -7.59782994      17.42476384       7.43351591      35.45000001      -0.00999846       0.00725673       0.00709913      109        3
Cl      -5.92559857      14.02921975       7.56893677      35.45000001       0.00932077       0.00099851       0.00576877      111        3
Cl      -3.81931438      17.43463297       7.53820468      35.45000001      -0.00548253       0.00146699       0.00569210      113        3
Cl      -3.69504516      15.36203798      10.66531521      35.45000001      -0.00935997       0.00396135       0.01514922      115        3
Cl      -5.70336103      18.46448837      10.69176599      35.45000001      -0.00768777       0.00470137       0.00216641      117        3
Cl      -7.68329805      15.13268664      10.72450711      35.45000001       0.00280941      -0.00811751      -0.00009808      119        3
Li      -9.53446308      16.25727692       0.01543748       6.94000000      -0.00049191      -0.00048335       0.00037240       64        1
Li      -9.53446308      16.25727692       6.12502071       6.94000000      -0.00049191      -0.00048335       0.00037240       94        1
Li       1.78807783       9.72020487      -0.05454891       6.94000000      -0.00051956      -0.00034737      -0.00207981       62        1
Li       1.78807784       9.72020486       3.03670546       6.94000000      -0.00018554      -0.00080823      -0.00187927       67        1
Li       1.78807783       9.72020487       6.05503431       6.94000000      -0.00051956      -0.00034737      -0.00207981       92        1
Li       1.78807784       9.72020486       9.14628868       6.94000000      -0.00018554      -0.00080823      -0.00187927       97        1
Li      -1.96267220      16.24697939      -0.04884598       6.94000000      -0.00046149      -0.00120718       0.00125938       65        1
Li      -1.83690442      16.15911981       3.01294703       6.94000000      -0.00506283      -0.00182487       0.00113771       69        1
Y       -0.26350325      12.99300325      -0.05844620      88.90584002       0.03898009       0.00778919      -0.02931234       72        2
Cl       3.57215370      10.81245478       1.42862146      35.45000001      -0.00095716      -0.00134997      -0.01088304       74        3
Cl      -0.19131208      17.35070695       1.32393269      35.45000001      -0.00494801      -0.00590677       0.00052913       76        3
Cl      -2.03897438      18.47150289       4.58218276      35.45000001      -0.00238140      -0.00406022      -0.00224561       77        3
Cl       1.78402800      11.83583948       4.58218277      35.45000001       0.00276521      -0.00269537      -0.01434318       80        3
Cl      -0.11142842      15.21641611       4.61492389      35.45000001      -0.00058682       0.00766373      -0.00530446       82        3
Cl      -1.90693079      11.64781212       4.55573199      35.45000001      -0.00768584       0.01315413       0.00274267       84        3
Cl      -1.94590851      14.24593715       1.45935356      35.45000001       0.01381209      -0.00523659       0.00326969       86        3
Cl      -0.04987627      10.71913493       1.42862146      35.45000001      -0.00286751       0.00455554      -0.00814613       88        3
Cl       1.83083461      13.99635995       1.32393269      35.45000001       0.01319128      -0.00443831      -0.00994591       90        3
Li      -1.96267220      16.24697939       6.06073724       6.94000000      -0.00046149      -0.00120718       0.00125938       95        1
Li      -1.83690442      16.15911981       9.12253026       6.94000000      -0.00506283      -0.00182487       0.00113771       99        1
Y       -0.26350325      12.99300325       6.05113703      88.90584002       0.03898009       0.00778919      -0.02931234      102        2
Cl       3.57215370      10.81245478       7.53820469      35.45000001      -0.00095716      -0.00134997      -0.01088304      104        3
Cl      -0.19131208      17.35070695       7.43351592      35.45000001      -0.00494801      -0.00590677       0.00052913      106        3
Cl      -2.03897438      18.47150289      10.69176599      35.45000001      -0.00238140      -0.00406022      -0.00224561      107        3
Cl       1.78402800      11.83583948      10.69176599      35.45000001       0.00276521      -0.00269537      -0.01434318      110        3
Cl      -0.11142842      15.21641611      10.72450712      35.45000001      -0.00058682       0.00766373      -0.00530446      112        3
Cl      -1.90693079      11.64781212      10.66531522      35.45000001      -0.00768584       0.01315413       0.00274267      114        3
Cl      -1.94590851      14.24593715       7.56893679      35.45000001       0.01381209      -0.00523659       0.00326969      116        3
Cl      -0.04987627      10.71913493       7.53820469      35.45000001      -0.00286751       0.00455554      -0.00814613      118        3
Cl       1.83083461      13.99635995       7.43351591      35.45000001       0.01319128      -0.00443831      -0.00994591      120        3
Li      14.97707584      -0.10054565      -0.04884598       6.94000000      -0.00125693       0.00276961       0.00127128      121        1
Li      14.83810336      -0.16553394       3.01294704       6.94000000       0.00071965       0.00501233       0.00099847      126        1
Li      14.97707584      -0.10054565       6.06073725       6.94000000      -0.00125693       0.00276961       0.00127128      151        1
Li      14.83810336      -0.16553394       9.12253027       6.94000000       0.00071965       0.00501233       0.00099847      156        1
Li       3.67237077      13.01418087      -0.04884600       6.94000000       0.00362411      -0.00115858       0.00000903      183        1
Li       1.78807784      16.25727692       0.01543748       6.94000000      -0.00049191      -0.00048335       0.00037240      184        1
Li       3.68557553      13.16702872       3.01294702       6.94000000       0.00380857      -0.00346440       0.00059255      188        1
Cl       1.83641907      18.42272800       4.61492389      35.45000001       0.00893285      -0.00163370       0.00157246      193        3
Cl       3.72471098      17.42476384       1.32393268      35.45000001      -0.00999846       0.00725673       0.00709913      199        3
Cl       3.63924287      15.13268664       4.61492388      35.45000001       0.00280941      -0.00811751      -0.00009808      209        3
Li       3.67237077      13.01418087       6.06073723       6.94000000       0.00362411      -0.00115858       0.00000903      213        1
Li       1.78807784      16.25727692       6.12502071       6.94000000      -0.00049191      -0.00048335       0.00037240      214        1
Li       3.68557553      13.16702872       9.12253024       6.94000000       0.00380857      -0.00346440       0.00059255      218        1
Cl       1.83641907      18.42272800      10.72450712      35.45000001       0.00893285      -0.00163370       0.00157246      223        3
Cl       3.72471098      17.42476384       7.43351591      35.45000001      -0.00999846       0.00725673       0.00709913      229        3
Cl       3.63924287      15.13268664      10.72450711      35.45000001       0.00280941      -0.00811751      -0.00009808      239        3
Cl       5.30493899      11.95637257       4.55573198      35.45000001       0.01141415      -0.00682570      -0.00032452      195        3
Cl       5.39694235      14.02921975       1.45935355      35.45000001       0.00932077       0.00099851       0.00576877      201        3
Cl       5.30493899      11.95637257      10.66531520      35.45000001       0.01141415      -0.00682570      -0.00032452      225        3
Cl       5.39694235      14.02921975       7.56893677      35.45000001       0.00932077       0.00099851       0.00576877      231        3
Li      13.11061875       9.72020487      -0.05454891       6.94000000      -0.00051956      -0.00034737      -0.00207981      182        1
Li      13.11061876       9.72020486       3.03670546       6.94000000      -0.00018554      -0.00080823      -0.00187927      187        1
Y        5.64819492       9.86052701      -0.05844620      88.90584002      -0.00805300      -0.03802798      -0.00843083      190        2
Li      13.11061875       9.72020487       6.05503431       6.94000000      -0.00051956      -0.00034737      -0.00207981      212        1
Li      13.11061876       9.72020486       9.14628868       6.94000000      -0.00018554      -0.00080823      -0.00187927      217        1
Y        5.64819492       9.86052701       6.05113702      88.90584002      -0.00805300      -0.03802798      -0.00843083      220        2
Y        5.64081230      16.11269241      -0.05844622      88.90584002      -0.03413308       0.03202586       0.02134884      191        2
Y        5.64081230      16.11269241       6.05113701      88.90584002      -0.03413308       0.03202586       0.02134884      221        2
Li       9.35986872      16.24697939      -0.04884598       6.94000000      -0.00046149      -0.00120718       0.00125938      185        1
Li       9.48563650      16.15911981       3.01294703       6.94000000      -0.00506283      -0.00182487       0.00113771      189        1
Y       11.05903767      12.99300325      -0.05844620      88.90584002       0.03898009       0.00778919      -0.02931234      192        2
Cl      11.13122884      17.35070695       1.32393269      35.45000001      -0.00494801      -0.00590677       0.00052913      196        3
Cl       9.28356654      18.47150289       4.58218276      35.45000001      -0.00238140      -0.00406022      -0.00224561      197        3
Cl       7.57447014      10.69106576       1.45935357      35.45000001      -0.00970707       0.00170593       0.00737316      198        3
Cl      13.10656891      11.83583948       4.58218277      35.45000001       0.00276521      -0.00269537      -0.01434318      200        3
Cl      11.21111250      15.21641611       4.61492389      35.45000001      -0.00058682       0.00766373      -0.00530446      202        3
Cl       7.50322654      17.43463297       1.42862145      35.45000001      -0.00548253       0.00146699       0.00569210      203        3
Cl       9.41561013      11.64781212       4.55573199      35.45000001      -0.00768584       0.01315413       0.00274267      204        3
Cl       7.62749576      15.36203798       4.55573198      35.45000001      -0.00935997       0.00396135       0.01514922      205        3
Cl       9.37663241      14.24593715       1.45935356      35.45000001       0.01381209      -0.00523659       0.00326969      206        3
Cl       5.61917989      18.46448837       4.58218276      35.45000001      -0.00768777       0.00470137       0.00216641      207        3
Cl      11.27266465      10.71913493       1.42862146      35.45000001      -0.00286751       0.00455554      -0.00814613      208        3
Cl      13.15337553      13.99635995       1.32393269      35.45000001       0.01319128      -0.00443831      -0.00994591      210        3
Li       9.35986872      16.24697939       6.06073724       6.94000000      -0.00046149      -0.00120718       0.00125938      215        1
Li       9.48563650      16.15911981       9.12253026       6.94000000      -0.00506283      -0.00182487       0.00113771      219        1
Y       11.05903767      12.99300325       6.05113703      88.90584002       0.03898009       0.00778919      -0.02931234      222        2
Cl      11.13122884      17.35070695       7.43351592      35.45000001      -0.00494801      -0.00590677       0.00052913      226        3
Cl       9.28356654      18.47150289      10.69176599      35.45000001      -0.00238140      -0.00406022      -0.00224561      227        3
Cl       7.57447014      10.69106576       7.56893680      35.45000001      -0.00970707       0.00170593       0.00737316      228        3
Cl      13.10656891      11.83583948      10.69176599      35.45000001       0.00276521      -0.00269537      -0.01434318      230        3
Cl      11.21111250      15.21641611      10.72450712      35.45000001      -0.00058682       0.00766373      -0.00530446      232        3
Cl       7.50322654      17.43463297       7.53820468      35.45000001      -0.00548253       0.00146699       0.00569210      233        3
Cl       9.41561013      11.64781212      10.66531522      35.45000001      -0.00768584       0.01315413       0.00274267      234        3
Cl       7.62749576      15.36203798      10.66531521      35.45000001      -0.00935997       0.00396135       0.01514922      235        3
Cl       9.37663241      14.24593715       7.56893679      35.45000001       0.01381209      -0.00523659       0.00326969      236        3
Cl       5.61917989      18.46448837      10.69176599      35.45000001      -0.00768777       0.00470137       0.00216641      237        3
Cl      11.27266465      10.71913493       7.53820469      35.45000001      -0.00286751       0.00455554      -0.00814613      238        3
Cl      13.15337553      13.99635995       7.43351591      35.45000001       0.01319128      -0.00443831      -0.00994591      240        3
Cl      14.89469462      10.81245478       1.42862146      35.45000001      -0.00095716      -0.00134997      -0.01088304      194        3
Cl      14.89469462      10.81245478       7.53820469      35.45000001      -0.00095716      -0.00134997      -0.01088304      224        3
Li      -3.87319262       6.45166884      12.23460393       6.94000000      -0.00049191      -0.00048335       0.00037240        4        1
Cl      -3.82485139       8.61711992      16.83409034      35.45000001       0.00893285      -0.00163370       0.00157246       13        3
Li      -3.87319262       6.45166884      18.34418716       6.94000000      -0.00049191      -0.00048335       0.00037240       34        1
Cl      -3.82485139       8.61711992      22.94367357      35.45000001       0.00893285      -0.00163370       0.00157246       43        3
Li      -1.98889969       3.20857280      12.17032045       6.94000000       0.00362411      -0.00115858       0.00000903        3        1
Li       3.69859826       6.44137132      12.17032047       6.94000000      -0.00046149      -0.00120718       0.00125938        5        1
Li      -1.97569493       3.36142065      15.23211347       6.94000000       0.00380857      -0.00346440       0.00059255        8        1
Li       3.82436604       6.35351174      15.23211348       6.94000000      -0.00506283      -0.00182487       0.00113771        9        1
Y       -0.01307554       0.05491894      12.16072025      88.90584002      -0.00805300      -0.03802798      -0.00843083       10        2
Y       -0.02045816       6.30708433      12.16072023      88.90584002      -0.03413308       0.03202586       0.02134884       11        2
Cl      -0.35633147       2.15076450      16.77489843      35.45000001       0.01141415      -0.00682570      -0.00032452       15        3
Cl       3.62229608       8.66589482      16.80134921      35.45000001      -0.00238140      -0.00406022      -0.00224561       17        3
Cl       1.91319968       0.88545769      13.67852002      35.45000001      -0.00970707       0.00170593       0.00737316       18        3
Cl      -1.93655948       7.61915577      13.54309913      35.45000001      -0.00999846       0.00725673       0.00709913       19        3
Cl      -0.26432811       4.22361168      13.67852000      35.45000001       0.00932077       0.00099851       0.00576877       21        3
Cl       1.84195608       7.62902489      13.64778790      35.45000001      -0.00548253       0.00146699       0.00569210       23        3
Cl       3.75433967       1.84220405      16.77489844      35.45000001      -0.00768584       0.01315413       0.00274267       24        3
Cl       1.96622530       5.55642991      16.77489843      35.45000001      -0.00935997       0.00396135       0.01514922       25        3
Cl       3.71536195       4.44032908      13.67852001      35.45000001       0.01381209      -0.00523659       0.00326969       26        3
Cl      -0.04209057       8.65888030      16.80134921      35.45000001      -0.00768777       0.00470137       0.00216641       27        3
Cl      -2.02202759       5.32707857      16.83409033      35.45000001       0.00280941      -0.00811751      -0.00009808       29        3
Li      -1.98889969       3.20857280      18.27990368       6.94000000       0.00362411      -0.00115858       0.00000903       33        1
Li       3.69859826       6.44137132      18.27990369       6.94000000      -0.00046149      -0.00120718       0.00125938       35        1
Li      -1.97569493       3.36142065      21.34169669       6.94000000       0.00380857      -0.00346440       0.00059255       38        1
Li       3.82436604       6.35351174      21.34169671       6.94000000      -0.00506283      -0.00182487       0.00113771       39        1
Y       -0.01307554       0.05491894      18.27030347      88.90584002      -0.00805300      -0.03802798      -0.00843083       40        2
Y       -0.02045816       6.30708433      18.27030346      88.90584002      -0.03413308       0.03202586       0.02134884       41        2
Cl      -0.35633147       2.15076450      22.88448165      35.45000001       0.01141415      -0.00682570      -0.00032452       45        3
Cl       3.62229608       8.66589482      22.91093244      35.45000001      -0.00238140      -0.00406022      -0.00224561       47        3
Cl       1.91319968       0.88545769      19.78810325      35.45000001      -0.00970707       0.00170593       0.00737316       48        3
Cl      -1.93655948       7.61915577      19.65268236      35.45000001      -0.00999846       0.00725673       0.00709913       49        3
Cl      -0.26432811       4.22361168      19.78810322      35.45000001       0.00932077       0.00099851       0.00576877       51        3
Cl       1.84195608       7.62902489      19.75737113      35.45000001      -0.00548253       0.00146699       0.00569210       53        3
Cl       3.75433967       1.84220405      22.88448167      35.45000001      -0.00768584       0.01315413       0.00274267       54        3
Cl       1.96622530       5.55642991      22.88448166      35.45000001      -0.00935997       0.00396135       0.01514922       55        3
Cl       3.71536195       4.44032908      19.78810324      35.45000001       0.01381209      -0.00523659       0.00326969       56        3
Cl      -0.04209057       8.65888030      22.91093244      35.45000001      -0.00768777       0.00470137       0.00216641       57        3
Cl      -2.02202759       5.32707857      22.94367356      35.45000001       0.00280941      -0.00811751      -0.00009808       59        3
Li      -2.00673553       9.70506242      12.17032047       6.94000000      -0.00125693       0.00276961       0.00127128       61        1
Li      -2.14570802       9.64007413      15.23211349       6.94000000       0.00071965       0.00501233       0.00099847       66        1
Li      -2.00673553       9.70506242      18.27990370       6.94000000      -0.00125693       0.00276961       0.00127128       91        1
Li      -2.14570802       9.64007413      21.34169672       6.94000000       0.00071965       0.00501233       0.00099847       96        1
Y        5.39776721       3.18739518      12.16072025      88.90584002       0.03898009       0.00778919      -0.02931234       12        2
Cl       5.46995838       7.54509888      13.54309914      35.45000001      -0.00494801      -0.00590677       0.00052913       16        3
Cl       5.54984204       5.41080804      16.83409034      35.45000001      -0.00058682       0.00766373      -0.00530446       22        3
Y        5.39776721       3.18739518      18.27030348      88.90584002       0.03898009       0.00778919      -0.02931234       42        2
Cl       5.46995838       7.54509888      19.65268237      35.45000001      -0.00494801      -0.00590677       0.00052913       46        3
Cl       5.54984204       5.41080804      22.94367357      35.45000001      -0.00058682       0.00766373      -0.00530446       52        3
Li       7.44934829      -0.08540320      12.16461754       6.94000000      -0.00051956      -0.00034737      -0.00207981        2        1
Li       7.44934830      -0.08540321      15.25587191       6.94000000      -0.00018554      -0.00080823      -0.00187927        7        1
Cl       9.23342416       1.00684671      13.64778791      35.45000001      -0.00095716      -0.00134997      -0.01088304       14        3
Cl       7.44529845       2.03023141      16.80134922      35.45000001       0.00276521      -0.00269537      -0.01434318       20        3
Cl       5.61139419       0.91352685      13.64778791      35.45000001      -0.00286751       0.00455554      -0.00814613       28        3
Cl       7.49210507       4.19075188      13.54309914      35.45000001       0.01319128      -0.00443831      -0.00994591       30        3
Li       7.44934829      -0.08540320      18.27420076       6.94000000      -0.00051956      -0.00034737      -0.00207981       32        1
Li       7.44934830      -0.08540321      21.36545513       6.94000000      -0.00018554      -0.00080823      -0.00187927       37        1
Cl       9.23342416       1.00684671      19.75737114      35.45000001      -0.00095716      -0.00134997      -0.01088304       44        3
Cl       7.44529845       2.03023141      22.91093244      35.45000001       0.00276521      -0.00269537      -0.01434318       50        3
Cl       5.61139419       0.91352685      19.75737114      35.45000001      -0.00286751       0.00455554      -0.00814613       58        3
Cl       7.49210507       4.19075188      19.65268236      35.45000001       0.01319128      -0.00443831      -0.00994591       60        3
Li       9.33364123       3.20857280      12.17032045       6.94000000       0.00362411      -0.00115858       0.00000903      123        1
Li       7.44934830       6.45166884      12.23460393       6.94000000      -0.00049191      -0.00048335       0.00037240      124        1
Li       9.34684599       3.36142065      15.23211347       6.94000000       0.00380857      -0.00346440       0.00059255      128        1
Y       11.30946538       0.05491894      12.16072025      88.90584002      -0.00805300      -0.03802798      -0.00843083      130        2
Y       11.30208276       6.30708433      12.16072023      88.90584002      -0.03413308       0.03202586       0.02134884      131        2
Cl       7.49768953       8.61711992      16.83409034      35.45000001       0.00893285      -0.00163370       0.00157246      133        3
Cl      10.96620945       2.15076450      16.77489843      35.45000001       0.01141415      -0.00682570      -0.00032452      135        3
Cl      13.23574060       0.88545769      13.67852002      35.45000001      -0.00970707       0.00170593       0.00737316      138        3
Cl       9.38598144       7.61915577      13.54309913      35.45000001      -0.00999846       0.00725673       0.00709913      139        3
Cl      11.05821281       4.22361168      13.67852000      35.45000001       0.00932077       0.00099851       0.00576877      141        3
Cl      13.16449700       7.62902489      13.64778790      35.45000001      -0.00548253       0.00146699       0.00569210      143        3
Cl      13.28876622       5.55642991      16.77489843      35.45000001      -0.00935997       0.00396135       0.01514922      145        3
Cl      11.28045035       8.65888030      16.80134921      35.45000001      -0.00768777       0.00470137       0.00216641      147        3
Cl       9.30051333       5.32707857      16.83409033      35.45000001       0.00280941      -0.00811751      -0.00009808      149        3
Li       9.33364123       3.20857280      18.27990368       6.94000000       0.00362411      -0.00115858       0.00000903      153        1
Li       7.44934830       6.45166884      18.34418716       6.94000000      -0.00049191      -0.00048335       0.00037240      154        1
Li       9.34684599       3.36142065      21.34169669       6.94000000       0.00380857      -0.00346440       0.00059255      158        1
Y       11.30946538       0.05491894      18.27030347      88.90584002      -0.00805300      -0.03802798      -0.00843083      160        2
Y       11.30208276       6.30708433      18.27030346      88.90584002      -0.03413308       0.03202586       0.02134884      161        2
Cl       7.49768953       8.61711992      22.94367357      35.45000001       0.00893285      -0.00163370       0.00157246      163        3
Cl      10.96620945       2.15076450      22.88448165      35.45000001       0.01141415      -0.00682570      -0.00032452      165        3
Cl      13.23574060       0.88545769      19.78810325      35.45000001      -0.00970707       0.00170593       0.00737316      168        3
Cl       9.38598144       7.61915577      19.65268236      35.45000001      -0.00999846       0.00725673       0.00709913      169        3
Cl      11.05821281       4.22361168      19.78810322      35.45000001       0.00932077       0.00099851       0.00576877      171        3
Cl      13.16449700       7.62902489      19.75737113      35.45000001      -0.00548253       0.00146699       0.00569210      173        3
Cl      13.28876622       5.55642991      22.88448166      35.45000001      -0.00935997       0.00396135       0.01514922      175        3
Cl      11.28045035       8.65888030      22.91093244      35.45000001      -0.00768777       0.00470137       0.00216641      177        3
Cl       9.30051333       5.32707857      22.94367356      35.45000001       0.00280941      -0.00811751      -0.00009808      179        3
Li       9.31580538       9.70506242      12.17032047       6.94000000      -0.00125693       0.00276961       0.00127128      181        1
Li       9.17683290       9.64007413      15.23211349       6.94000000       0.00071965       0.00501233       0.00099847      186        1
Li       9.31580538       9.70506242      18.27990370       6.94000000      -0.00125693       0.00276961       0.00127128      211        1
Li       9.17683290       9.64007413      21.34169672       6.94000000       0.00071965       0.00501233       0.00099847      216        1
Li      15.02113918       6.44137132      12.17032047       6.94000000      -0.00046149      -0.00120718       0.00125938      125        1
Li      15.14690696       6.35351174      15.23211348       6.94000000      -0.00506283      -0.00182487       0.00113771      129        1
Y       16.72030813       3.18739518      12.16072025      88.90584002       0.03898009       0.00778919      -0.02931234      132        2
Cl      20.55596508       1.00684671      13.64778791      35.45000001      -0.00095716      -0.00134997      -0.01088304      134        3
Cl      16.79249930       7.54509888      13.54309914      35.45000001      -0.00494801      -0.00590677       0.00052913      136        3
Cl      14.94483700       8.66589482      16.80134921      35.45000001      -0.00238140      -0.00406022      -0.00224561      137        3
Cl      18.76783937       2.03023141      16.80134922      35.45000001       0.00276521      -0.00269537      -0.01434318      140        3
Cl      16.87238296       5.41080804      16.83409034      35.45000001      -0.00058682       0.00766373      -0.00530446      142        3
Cl      15.07688059       1.84220405      16.77489844      35.45000001      -0.00768584       0.01315413       0.00274267      144        3
Cl      15.03790287       4.44032908      13.67852001      35.45000001       0.01381209      -0.00523659       0.00326969      146        3
Cl      16.93393511       0.91352685      13.64778791      35.45000001      -0.00286751       0.00455554      -0.00814613      148        3
Cl      18.81464599       4.19075188      13.54309914      35.45000001       0.01319128      -0.00443831      -0.00994591      150        3
Li      15.02113918       6.44137132      18.27990369       6.94000000      -0.00046149      -0.00120718       0.00125938      155        1
Li      15.14690696       6.35351174      21.34169671       6.94000000      -0.00506283      -0.00182487       0.00113771      159        1
Y       16.72030813       3.18739518      18.27030348      88.90584002       0.03898009       0.00778919      -0.02931234      162        2
Cl      20.55596508       1.00684671      19.75737114      35.45000001      -0.00095716      -0.00134997      -0.01088304      164        3
Cl      16.79249930       7.54509888      19.65268237      35.45000001      -0.00494801      -0.00590677       0.00052913      166        3
Cl      14.94483700       8.66589482      22.91093244      35.45000001      -0.00238140      -0.00406022      -0.00224561      167        3
Cl      18.76783937       2.03023141      22.91093244      35.45000001       0.00276521      -0.00269537      -0.01434318      170        3
Cl      16.87238296       5.41080804      22.94367357      35.45000001      -0.00058682       0.00766373      -0.00530446      172        3
Cl      15.07688059       1.84220405      22.88448167      35.45000001      -0.00768584       0.01315413       0.00274267      174        3
Cl      15.03790287       4.44032908      19.78810324      35.45000001       0.01381209      -0.00523659       0.00326969      176        3
Cl      16.93393511       0.91352685      19.75737114      35.45000001      -0.00286751       0.00455554      -0.00814613      178        3
Cl      18.81464599       4.19075188      19.65268236      35.45000001       0.01319128      -0.00443831      -0.00994591      180        3
Li      18.77188921      -0.08540320      12.16461754       6.94000000      -0.00051956      -0.00034737      -0.00207981      122        1
Li      18.77188922      -0.08540321      15.25587191       6.94000000      -0.00018554      -0.00080823      -0.00187927      127        1
Li      18.77188921      -0.08540320      18.27420076       6.94000000      -0.00051956      -0.00034737      -0.00207981      152        1
Li      18.77188922      -0.08540321      21.36545513       6.94000000      -0.00018554      -0.00080823      -0.00187927      157        1
Y       -5.67434600       9.86052701      12.16072025      88.90584002      -0.00805300      -0.03802798      -0.00843083       70        2
Y       -5.67434600       9.86052701      18.27030347      88.90584002      -0.00805300      -0.03802798      -0.00843083      100        2
Li       3.65453493      -0.10054565      12.17032047       6.94000000      -0.00125693       0.00276961       0.00127128        1        1
Li       3.51556244      -0.16553394      15.23211349       6.94000000       0.00071965       0.00501233       0.00099847        6        1
Li       3.65453493      -0.10054565      18.27990370       6.94000000      -0.00125693       0.00276961       0.00127128       31        1
Li       3.51556244      -0.16553394      21.34169672       6.94000000       0.00071965       0.00501233       0.00099847       36        1
Li      -7.65017015      13.01418087      12.17032045       6.94000000       0.00362411      -0.00115858       0.00000903       63        1
Li      -7.63696539      13.16702872      15.23211347       6.94000000       0.00380857      -0.00346440       0.00059255       68        1
Y       -5.68172862      16.11269241      12.16072023      88.90584002      -0.03413308       0.03202586       0.02134884       71        2
Cl      -9.48612185      18.42272800      16.83409034      35.45000001       0.00893285      -0.00163370       0.00157246       73        3
Cl      -6.01760193      11.95637257      16.77489843      35.45000001       0.01141415      -0.00682570      -0.00032452       75        3
Cl      -3.74807078      10.69106576      13.67852002      35.45000001      -0.00970707       0.00170593       0.00737316       78        3
Cl      -7.59782994      17.42476384      13.54309913      35.45000001      -0.00999846       0.00725673       0.00709913       79        3
Cl      -5.92559857      14.02921975      13.67852000      35.45000001       0.00932077       0.00099851       0.00576877       81        3
Cl      -3.81931438      17.43463297      13.64778790      35.45000001      -0.00548253       0.00146699       0.00569210       83        3
Cl      -3.69504516      15.36203798      16.77489843      35.45000001      -0.00935997       0.00396135       0.01514922       85        3
Cl      -5.70336103      18.46448837      16.80134921      35.45000001      -0.00768777       0.00470137       0.00216641       87        3
Cl      -7.68329805      15.13268664      16.83409033      35.45000001       0.00280941      -0.00811751      -0.00009808       89        3
Li      -7.65017015      13.01418087      18.27990368       6.94000000       0.00362411      -0.00115858       0.00000903       93        1
Li      -7.63696539      13.16702872      21.34169669       6.94000000       0.00380857      -0.00346440       0.00059255       98        1
Y       -5.68172862      16.11269241      18.27030346      88.90584002      -0.03413308       0.03202586       0.02134884      101        2
Cl      -9.48612185      18.42272800      22.94367357      35.45000001       0.00893285      -0.00163370       0.00157246      103        3
Cl      -6.01760193      11.95637257      22.88448165      35.45000001       0.01141415      -0.00682570      -0.00032452      105        3
Cl      -3.74807078      10.69106576      19.78810325      35.45000001      -0.00970707       0.00170593       0.00737316      108        3
Cl      -7.59782994      17.42476384      19.65268236      35.45000001      -0.00999846       0.00725673       0.00709913      109        3
Cl      -5.92559857      14.02921975      19.78810322      35.45000001       0.00932077       0.00099851       0.00576877      111        3
Cl      -3.81931438      17.43463297      19.75737113      35.45000001      -0.00548253       0.00146699       0.00569210      113        3
Cl      -3.69504516      15.36203798      22.88448166      35.45000001      -0.00935997       0.00396135       0.01514922      115        3
Cl      -5.70336103      18.46448837      22.91093244      35.45000001      -0.00768777       0.00470137       0.00216641      117        3
Cl      -7.68329805      15.13268664      22.94367356      35.45000001       0.00280941      -0.00811751      -0.00009808      119        3
Li      -9.53446308      16.25727692      12.23460393       6.94000000      -0.00049191      -0.00048335       0.00037240       64        1
Li      -9.53446308      16.25727692      18.34418716       6.94000000      -0.00049191      -0.00048335       0.00037240       94        1
Li       1.78807783       9.72020487      12.16461754       6.94000000      -0.00051956      -0.00034737      -0.00207981       62        1
Li       1.78807784       9.72020486      15.25587191       6.94000000      -0.00018554      -0.00080823      -0.00187927       67        1
Li       1.78807783       9.72020487      18.27420076       6.94000000      -0.00051956      -0.00034737      -0.00207981       92        1
Li       1.78807784       9.72020486      21.36545513       6.94000000      -0.00018554      -0.00080823      -0.00187927       97        1
Li      -1.96267220      16.24697939      12.17032047       6.94000000      -0.00046149      -0.00120718       0.00125938       65        1
Li      -1.83690442      16.15911981      15.23211348       6.94000000      -0.00506283      -0.00182487       0.00113771       69        1
Y       -0.26350325      12.99300325      12.16072025      88.90584002       0.03898009       0.00778919      -0.02931234       72        2
Cl       3.57215370      10.81245478      13.64778791      35.45000001      -0.00095716      -0.00134997      -0.01088304       74        3
Cl      -0.19131208      17.35070695      13.54309914      35.45000001      -0.00494801      -0.00590677       0.00052913       76        3
Cl      -2.03897438      18.47150289      16.80134921      35.45000001      -0.00238140      -0.00406022      -0.00224561       77        3
Cl       1.78402800      11.83583948      16.80134922      35.45000001       0.00276521      -0.00269537      -0.01434318       80        3
Cl      -0.11142842      15.21641611      16.83409034      35.45000001      -0.00058682       0.00766373      -0.00530446       82        3
Cl      -1.90693079      11.64781212      16.77489844      35.45000001      -0.00768584       0.01315413       0.00274267       84        3
Cl      -1.94590851      14.24593715      13.67852001      35.45000001       0.01381209      -0.00523659       0.00326969       86        3
Cl      -0.04987627      10.71913493      13.64778791      35.45000001      -0.00286751       0.00455554      -0.00814613       88        3
Cl       1.83083461      13.99635995      13.54309914      35.45000001       0.01319128      -0.00443831      -0.00994591       90        3
Li      -1.96267220      16.24697939      18.27990369       6.94000000      -0.00046149      -0.00120718       0.00125938       95        1
Li      -1.83690442      16.15911981      21.34169671       6.94000000      -0.00506283      -0.00182487       0.00113771       99        1
Y       -0.26350325      12.99300325      18.27030348      88.90584002       0.03898009       0.00778919      -0.02931234      102        2
Cl       3.57215370      10.81245478      19.75737114      35.45000001      -0.00095716      -0.00134997      -0.01088304      104        3
Cl      -0.19131208      17.35070695      19.65268237      35.45000001      -0.00494801      -0.00590677       0.00052913      106        3
Cl      -2.03897438      18.47150289      22.91093244      35.45000001      -0.00238140      -0.00406022      -0.00224561      107        3
Cl       1.78402800      11.83583948      22.91093244      35.45000001       0.00276521      -0.00269537      -0.01434318      110        3
Cl      -0.11142842      15.21641611      22.94367357      35.45000001      -0.00058682       0.00766373      -0.00530446      112        3
Cl      -1.90693079      11.64781212      22.88448167      35.45000001      -0.00768584       0.01315413       0.00274267      114        3
Cl      -1.94590851      14.24593715      19.78810324      35.45000001       0.01381209      -0.00523659       0.00326969      116        3
Cl      -0.04987627      10.71913493      19.75737114      35.45000001      -0.00286751       0.00455554      -0.00814613      118        3
Cl       1.83083461      13.99635995      19.65268236      35.45000001       0.01319128      -0.00443831      -0.00994591      120        3
Li      14.97707584      -0.10054565      12.17032047       6.94000000      -0.00125693       0.00276961       0.00127128      121        1
Li      14.83810336      -0.16553394      15.23211349       6.94000000       0.00071965       0.00501233       0.00099847      126        1
Li      14.97707584      -0.10054565      18.27990370       6.94000000      -0.00125693       0.00276961       0.00127128      151        1
Li      14.83810336      -0.16553394      21.34169672       6.94000000       0.00071965       0.00501233       0.00099847      156        1
Li       3.67237077      13.01418087      12.17032045       6.94000000       0.00362411      -0.00115858       0.00000903      183        1
Li       1.78807784      16.25727692      12.23460393       6.94000000      -0.00049191      -0.00048335       0.00037240      184        1
Li       3.68557553      13.16702872      15.23211347       6.94000000       0.00380857      -0.00346440       0.00059255      188        1
Cl       1.83641907      18.42272800      16.83409034      35.45000001       0.00893285      -0.00163370       0.00157246      193        3
Cl       3.72471098      17.42476384      13.54309913      35.45000001      -0.00999846       0.00725673       0.00709913      199        3
Cl       3.63924287      15.13268664      16.83409033      35.45000001       0.00280941      -0.00811751      -0.00009808      209        3
Li       3.67237077      13.01418087      18.27990368       6.94000000       0.00362411      -0.00115858       0.00000903      213        1
Li       1.78807784      16.25727692      18.34418716       6.94000000      -0.00049191      -0.00048335       0.00037240      214        1
Li       3.68557553      13.16702872      21.34169669       6.94000000       0.00380857      -0.00346440       0.00059255      218        1
Cl       1.83641907      18.42272800      22.94367357      35.45000001       0.00893285      -0.00163370       0.00157246      223        3
Cl       3.72471098      17.42476384      19.65268236      35.45000001      -0.00999846       0.00725673       0.00709913      229        3
Cl       3.63924287      15.13268664      22.94367356      35.45000001       0.00280941      -0.00811751      -0.00009808      239        3
Cl       5.30493899      11.95637257      16.77489843      35.45000001       0.01141415      -0.00682570      -0.00032452      195        3
Cl       5.39694235      14.02921975      13.67852000      35.45000001       0.00932077       0.00099851       0.00576877      201        3
Cl       5.30493899      11.95637257      22.88448165      35.45000001       0.01141415      -0.00682570      -0.00032452      225        3
Cl       5.39694235      14.02921975      19.78810322      35.45000001       0.00932077       0.00099851       0.00576877      231        3
Li      13.11061875       9.72020487      12.16461754       6.94000000      -0.00051956      -0.00034737      -0.00207981      182        1
Li      13.11061876       9.72020486      15.25587191       6.94000000      -0.00018554      -0.00080823      -0.00187927      187        1
Y        5.64819492       9.86052701      12.16072025      88.90584002      -0.00805300      -0.03802798      -0.00843083      190        2
Li      13.11061875       9.72020487      18.27420076       6.94000000      -0.00051956      -0.00034737      -0.00207981      212        1
Li      13.11061876       9.72020486      21.36545513       6.94000000      -0.00018554      -0.00080823      -0.00187927      217        1
Y        5.64819492       9.86052701      18.27030347      88.90584002      -0.00805300      -0.03802798      -0.00843083      220        2
Y        5.64081230      16.11269241      12.16072023      88.90584002      -0.03413308       0.03202586       0.02134884      191        2
Y        5.64081230      16.11269241      18.27030346      88.90584002      -0.03413308       0.03202586       0.02134884      221        2
Li       9.35986872      16.24697939      12.17032047       6.94000000      -0.00046149      -0.00120718       0.00125938      185        1
Li       9.48563650      16.15911981      15.23211348       6.94000000      -0.00506283      -0.00182487       0.00113771      189        1
Y       11.05903767      12.99300325      12.16072025      88.90584002       0.03898009       0.00778919      -0.02931234      192        2
Cl      11.13122884      17.35070695      13.54309914      35.45000001      -0.00494801      -0.00590677       0.00052913      196        3
Cl       9.28356654      18.47150289      16.80134921      35.45000001      -0.00238140      -0.00406022      -0.00224561      197        3
Cl       7.57447014      10.69106576      13.67852002      35.45000001      -0.00970707       0.00170593       0.00737316      198        3
Cl      13.10656891      11.83583948      16.80134922      35.45000001       0.00276521      -0.00269537      -0.01434318      200        3
Cl      11.21111250      15.21641611      16.83409034      35.45000001      -0.00058682       0.00766373      -0.00530446      202        3
Cl       7.50322654      17.43463297      13.64778790      35.45000001      -0.00548253       0.00146699       0.00569210      203        3
Cl       9.41561013      11.64781212      16.77489844      35.45000001      -0.00768584       0.01315413       0.00274267      204        3
Cl       7.62749576      15.36203798      16.77489843      35.45000001      -0.00935997       0.00396135       0.01514922      205        3
Cl       9.37663241      14.24593715      13.67852001      35.45000001       0.01381209      -0.00523659       0.00326969      206        3
Cl       5.61917989      18.46448837      16.80134921      35.45000001      -0.00768777       0.00470137       0.00216641      207        3
Cl      11.27266465      10.71913493      13.64778791      35.45000001      -0.00286751       0.00455554      -0.00814613      208        3
Cl      13.15337553      13.99635995      13.54309914      35.45000001       0.01319128      -0.00443831      -0.00994591      210        3
Li       9.35986872      16.24697939      18.27990369       6.94000000      -0.00046149      -0.00120718       0.00125938      215        1
Li       9.48563650      16.15911981      21.34169671       6.94000000      -0.00506283      -0.00182487       0.00113771      219        1
Y       11.05903767      12.99300325      18.27030348      88.90584002       0.03898009       0.00778919      -0.02931234      222        2
Cl      11.13122884      17.35070695      19.65268237      35.45000001      -0.00494801      -0.00590677       0.00052913      226        3
Cl       9.28356654      18.47150289      22.91093244      35.45000001      -0.00238140      -0.00406022      -0.00224561      227        3
Cl       7.57447014      10.69106576      19.78810325      35.45000001      -0.00970707       0.00170593       0.00737316      228        3
Cl      13.10656891      11.83583948      22.91093244      35.45000001       0.00276521      -0.00269537      -0.01434318      230        3
Cl      11.21111250      15.21641611      22.94367357      35.45000001      -0.00058682       0.00766373      -0.00530446      232        3
Cl       7.50322654      17.43463297      19.75737113      35.45000001      -0.00548253       0.00146699       0.00569210      233        3
Cl       9.41561013      11.64781212      22.88448167      35.45000001      -0.00768584       0.01315413       0.00274267      234        3
Cl       7.62749576      15.36203798      22.88448166      35.45000001      -0.00935997       0.00396135       0.01514922      235        3
Cl       9.37663241      14.24593715      19.78810324      35.45000001       0.01381209      -0.00523659       0.00326969      236        3
Cl       5.61917989      18.46448837      22.91093244      35.45000001      -0.00768777       0.00470137       0.00216641      237        3
Cl      11.27266465      10.71913493      19.75737114      35.45000001      -0.00286751       0.00455554      -0.00814613      238        3
Cl      13.15337553      13.99635995      19.65268236      35.45000001       0.01319128      -0.00443831      -0.00994591      240        3
Cl      14.89469462      10.81245478      13.64778791      35.45000001      -0.00095716      -0.00134997      -0.01088304      194        3
Cl      14.89469462      10.81245478      19.75737114      35.45000001      -0.00095716      -0.00134997      -0.01088304      224        3
