272
Lattice="20.174194627239018 0.0 0.0 0.0 20.174194627239018 0.0 0.0 0.0 20.174194627239018" Properties=species:S:1:pos:R:3 pbc="T T T"
Cl       8.30200517      11.87769352       6.68735256
Cl       5.71655511      10.57770228       4.83911802
Cl       7.33405393       8.51136824       7.12933454
Cl       4.48319309       9.46434246       8.08068797
Cl       7.09978130      10.81062167       9.50098953
Cl       1.81047512      15.66102886       5.24769533
Cl      20.38291253      13.19393149       3.87813127
Cl       3.20382859      12.12896230       3.01392593
Cl       2.39584204      10.80855144       5.91549801
Cl      21.10767451      13.25029326       7.31260595
Cl       5.50847665       9.13939763      11.58628287
Cl       6.08258559      11.66371370      13.90091842
Cl       8.07103934       8.93693205      13.56086343
Cl       0.95152894      15.20657319       9.97402236
Cl      19.66036605      16.39559773       7.30605823
Cl       2.51127265      17.79251208       8.57665812
O       11.50078110      11.13723538      12.01402889
O        9.37731601      10.15771392      11.10019737
O        9.12206474      11.84247043      12.64667852
O       10.17357357      12.40967901      10.45653160
O        5.86526278      14.76671611       6.86365372
O        3.56647982      14.67025089       7.80407286
O        4.01153635      13.84019246       5.42464907
O        4.94885579      12.53698776       7.34542585
S       10.16975778      11.42351339      11.50461183
S        4.59674449      13.95653969       6.87049263
Zr       6.14622262      11.11577923       7.20170780
Zr       7.56939116      10.83121805      12.07346616
Zr       2.25181708      13.12806808       5.15376616
Zr       1.91078054      15.56559678       7.75454429
Cl      15.88290015       9.89051445      -0.27030063
Cl      14.13709606       7.22635577      19.05612853
Cl      10.97930736       8.93228903       1.02780861
Cl      12.39756516       9.12944138      16.91455773
Cl      12.91063902      11.41240556      19.19682991
Cl      19.90435804       6.50157920      15.56099126
Cl      17.09966668       3.51487785      15.25845473
Cl      18.58995202       4.67032029      17.77867677
Cl      15.07254093       5.95621445      15.62509092
Cl      17.57307661       6.22413625      13.25872143
Cl       9.67347945      11.96061467      19.76026580
Cl      11.51832026      14.86413711      19.17520853
Cl       9.88993057      11.80307930       2.84419235
Cl      16.76405380       9.26408170      11.78442073
Cl      19.98877238       7.91869265      12.01946901
Cl      20.20779122       9.87205521      14.57877985
O       13.95187852      12.08509737       3.84399320
O       13.21290260      10.52629216       2.07759587
O       12.55575387      12.75992438       1.79080771
O       15.06249355      12.19496415       1.71644336
O       17.98746385       9.62385288      17.06368847
O       17.36435106       8.22930396      15.06220406
O       17.25009532       7.23703763      17.26535248
O       15.62551061       8.99567096      16.67558711
S       13.81642187      11.89407377       2.42646636
S       17.13175644       8.59952867      16.60715927
Zr      14.46515730       9.33831504      18.05569484
Zr      11.44477703      11.26861290      21.27536164
Zr      17.43410257       5.93235692      15.82353731
Zr      18.30681318       8.89167413      13.61180918
Cl      16.67511860       0.15128128       6.53406023
Cl      15.28530451      18.22722720      10.84635107
Cl      17.19893314       1.37610051       9.66199619
Cl      18.51088731      18.55233726       9.69620903
Cl      15.78765158      17.37707621       7.65761610
Cl      16.40560762      19.21454443      21.45076227
Cl      20.70917627       1.09768794       3.04871007
Cl      18.54172294       1.77221096       0.42369781
Cl      19.51621933      18.81106824       0.24110648
Cl      19.11077430      18.18388028       3.56211207
Cl      12.80413217       2.83985762       4.81904029
Cl      14.10276116      19.80132610       4.26717162
Cl      14.96950300       3.18815030       7.34458790
Cl      16.70522676       0.59534198      18.14399575
Cl      13.78117296       0.72143633      20.13950978
Cl      15.74150156       3.66120651      19.49168058
O       13.10257938      18.70720467       7.87356001
O       12.21370042       0.32138278       9.32601660
O       14.65754020       0.20011901       8.94111627
O       13.09034454       0.85478667       7.06514458
O       16.05250459       2.41753366       4.56829858
O       17.40835896       0.70901759       3.38170368
O       15.60105853       1.94114584       2.19510632
O       17.64804722       3.09411054       2.85327290
S       13.24890410      -0.08574181       8.24372191
S       16.73177751       2.09431267       3.24254506
Zr      16.28342731      -0.77793272       8.85977632
Zr      18.77480633      20.16747063       2.30248453
Zr      14.71548110       1.51024850       5.51959963
Zr      16.01563037       1.55012365      20.58764982
Cl      -0.10878565       6.07765407       2.02751481
Cl      17.32516054       7.85817328       7.35405453
Cl      16.20847718       6.10721740       4.68837074
Cl      17.21743316       8.63909678       2.67471784
Cl      18.13827723      10.28266718       5.38511285
Cl       5.37728418       9.53690761      17.64482768
Cl      -0.52922498       7.97556752      19.30319893
Cl       2.04986801       8.75655500      17.11347089
Cl       1.08624068      11.86452207      17.97253030
Cl      -0.44173673      10.85154748       0.64367636
Cl       3.84728687       7.71988752       4.57829504
Cl       1.06296026       9.13968791       3.07991009
Cl       3.38734380       5.14593041       2.17040855
Cl       4.46960250       7.59182955      15.02396909
Cl       6.14150673       6.03028149      17.73101005
Cl       2.63760085       5.65196297      17.39189975
O        0.90061874       7.95316903       6.19310884
O       -0.02059256       5.70596493       6.42651721
O       19.35724914       7.16699885       4.63780201
O        1.46253733       6.17161423       4.51172502
O        3.60242543       8.34889636       1.77871634
O        2.55652503       9.57566391      -0.10511072
O        4.06336713       7.62170534      19.62539425
O        1.88908821       7.27851270      20.73127431
S        0.43117498       6.73767714       5.55525930
S        3.02796339       8.20527695       0.43278134
Zr      17.73928280       7.89785977       4.93782309
Zr       0.96250456       9.82797837      19.15789718
Zr       2.02384226       6.93645075       2.85040311
Zr       4.25205343       7.45843300      17.77740284
Cl       6.69969574      14.12812746      20.04201081
Cl       7.53801587      17.19876603      21.36208891
Cl       3.39198446      14.77765323       0.68935375
Cl       4.25461281      18.21951990      14.60573437
Cl       2.56503219      14.69600274      16.38887355
Cl       1.21465190      16.95465242      14.80911184
Cl       7.31317752      18.80299468       5.40104076
Cl       4.38539790      17.44752620       5.82721660
Cl       4.57016850      17.55852395       2.46964555
Cl       6.03613256      17.38480570       8.67867999
Cl       8.79155639      16.10597010       7.01943620
Cl       5.32773538      16.15387142      16.67099754
Cl       2.33817985       1.85900094      19.03898280
Cl       1.97654225      -0.70927080      16.79251050
Cl       4.96469121       1.37739866      16.32585995
Cl       5.77101466      20.71557597      19.66163004
O        8.08872306      14.60870886       2.63466486
O        6.99139551      13.55155134       4.52446842
O        6.92975462      16.02461923       4.32055550
O        5.57939789      14.56433843       2.79987237
O        4.85180886      17.08525111      -0.46298644
O        4.43771992      18.63063016      17.68179744
O        2.72295859      16.98958526      18.35404087
O        3.24355201      19.02187057      19.72861874
S        6.98271335      14.62111761       3.55934209
S        3.78496573      17.86185362      19.01190355
Zr       5.49454062      15.68716303       1.25941232
Zr       3.06358276      17.06477680      16.43329041
Zr       6.56765002      16.40429198       6.14709569
Zr       3.92036341      20.49344808      18.14210201
Cl       8.21442512       6.94238239      10.38954062
Cl       8.25944123       4.55071312       8.00445898
Cl       6.00699573       5.23822528      12.09309066
Cl      14.48134004       1.84162751      11.86505292
Cl      12.64330066       5.46393756      12.20292311
Cl      12.42278388       3.02308016      14.50724783
Cl       4.85407234       1.02494382       7.00427219
Cl       1.03944231       3.25006368       8.42908086
Cl       5.73171219       2.75492245       9.69047371
Cl      23.11302395       1.00439889       9.65512092
Cl       2.89066880       3.19302078       5.77026902
Cl      12.58265926       3.38010629       9.63496634
Cl       8.60254699      18.52915080      10.95014765
Cl      11.65556100       0.44281116      12.28205772
Cl      11.85173868      -2.43739227      10.61926277
Cl       9.65391207      -0.66481090       7.86583210
O        5.45791575       5.07336587       6.90280307
O        3.64078332       6.58439686       7.54102410
O        3.89865280       4.41312888       8.65937862
O        5.55195608       6.19216875       9.11146974
O        8.35313213       3.49299484      10.76312386
O        9.79143084       1.59730953      10.03100785
O       10.39256657       3.04832737      11.99168037
O        8.50952080       1.44576848      12.08697277
S        4.63791369       5.60551489       7.93238154
S        9.17735601       2.37502151      11.23869854
Zr       6.82761956       4.97193200       9.81986083
Zr      12.22479246       3.12960893      12.08626134
Zr       3.33454231       2.76403265       8.04988950
Zr      10.50107330      -0.17941752      10.07567570
Cl      10.11442430      16.05768266      14.25432507
Cl       7.68329677      18.16809978      14.33408417
Cl       8.63217747      15.50116540      17.30219531
Cl      13.27074810      16.88297506       1.06447367
Cl      15.69076019      17.39361060      18.61924052
Cl      14.77241303      14.43273216      19.63364980
Cl      13.48069216      16.01673797      16.39868341
Cl       7.85788443      18.80838749      17.49113946
Cl       9.29690064       1.98018898      16.39727853
Cl      11.93238386       2.81905564      18.15586630
Cl      13.54657952       0.31405995      16.29764092
Cl      10.56973691      19.50816019      15.05651377
O       10.41209521      17.78109349      19.46121975
O       11.01372303      17.61519016      17.09468364
O       10.94870233      19.83924848      18.21894071
O       12.73860555      18.18136040      18.73373077
S       11.22001196      18.33987323      18.44918092
Zr      13.34272014      16.36525069      18.71344372
Zr      11.34794374       0.88357461      16.91014733
Zr       9.41957331      17.39012080      16.16389005
Cl      -0.52595988      12.52706870      11.75397761
Cl      -0.42120938      13.77100769      14.78729210
Cl      18.23622396      15.94511429      12.17314548
Cl      13.57308572      14.66967783       8.53312610
Cl      17.23094271      11.36196880       9.01182050
Cl      14.57822704      11.56913923       7.11285899
Cl      17.08880008      14.59435632       8.95671182
Cl      16.33210677      14.37821333      14.90740594
Cl      15.48613118      11.85707152      17.25823060
Cl      12.65584905      12.71551982      15.60608875
Cl      14.18429978      10.10256561      13.88328890
Cl      17.26185637      11.38806621      14.32745047
O       15.10429323      14.82079336      11.44388952
O       16.70071413      12.98470224      11.87628373
O       14.47254534      13.07134463      13.05502669
O       14.60211586      12.51855666      10.64832002
S       15.19174086      13.44423229      11.75509057
Zr      15.28087621      13.01130316       8.95693831
Zr      14.79121066      12.26529927      14.71471924
Zr      17.94703842      13.76443142      13.06596224
Cl       3.55896994      15.63329706      12.09711044
Cl       3.15986702      12.83903757      13.63008449
Cl       3.93829389      12.60116355      10.48594764
Cl       6.35047789      14.96237464      13.84342546
O        7.68580927      13.89662759       9.31323729
O        5.96020845      14.89686979      10.80354983
O        6.85416905      12.80430926      11.53898023
O        8.39808473      14.90454934      11.40598835
S        7.36715227      14.21381840      10.66166704
Zr       5.08462978      13.63534830      12.28876577
Cl       2.43048511       0.83057681      13.63578376
Cl      19.27383968       0.68045811      13.17220407
Cl      -0.18705708       1.93766057      16.09997346
Cl      -0.52151445       3.80053887      12.31362941
O        3.83913062       4.44506815      14.42278066
O        2.28671904       3.55052272      12.74838391
O        1.43901215       3.81554104      14.93017976
O        2.04376906       5.88096950      13.53712391
S        2.50825261       4.51108554      13.89668892
Zr       0.68830599       2.36226249      13.82095638
Li       6.16637277       7.48188302      13.07913243
Li       5.21380758      12.88131654       4.00796067
Li      13.73895640      17.13718575       9.13061220
Li       6.46222515       8.33911947       9.44503674
Li      16.59290189      10.14814053       7.14449511
Li       4.46880140      -1.24713304       7.67007189
Li      12.77827782      14.46443970      21.18708423
Li       3.33327705       9.92028198       3.89234877
Li      14.88284243       2.20926701       9.51918277
Li       5.33267429       7.84860102       6.32984162
Li      14.44611264      18.71020877       0.07155638
Li       8.67152270      13.42773697       1.20167753
Li      18.80285697      16.16028485       9.53628035
Li       0.58063076       4.27230537      16.63165589
Li      13.56489397      -0.39224494      11.24764973
Li       8.42268707      17.72864699       8.70984104
Li      15.16709278      12.11250260      -0.23794021
Li      17.24022188       2.80131889      17.49326341
Li       6.06382864      18.40906650      16.02505740
Li      17.83178139      11.20844110      11.24181926
Li       6.71084342      17.89505645       3.37020808
Li       8.11414121      16.38887879      12.71321006
Li      -0.05456386       5.93682942      13.26538732
Li      13.43465454      11.01388752      11.83288030
Li      17.46666139      18.91918552      19.34585685
Li       4.56719876      15.49820012       9.60086100
Li       2.10077782       7.08105832      15.09301044
Li       2.68207825       8.40003044       6.66221691
Li       6.69231416      18.23971876      -0.70694677
Li      19.31715162       8.35305461      21.74541414
Li      21.93015815      14.71302794      14.08404874
Li      12.39910568       2.67857183       7.31727533
