272
Lattice="20.174194627239018 0.0 0.0 0.0 20.174194627239018 0.0 0.0 0.0 20.174194627239018" Properties=species:S:1:pos:R:3:cluster_id:I:1 pbc="T T T"
Cl       8.02911737      11.68596084       7.03669958        0
Cl       5.08368492       9.96104989       5.91883320        0
Cl       6.88243830       8.83914821       8.63767801        0
Cl       3.90199036      10.56452229       9.38377561        0
Cl       6.89196963      12.05961259      10.16401970        0
Cl       1.25630704      14.75271891       4.73041127        0
Cl      19.10453376      11.90679757       4.32336712        0
Cl       2.08430320      11.33935294       3.21359375        0
Cl       1.54830251      10.50918111       6.73289101        0
Cl      20.08466912      13.25915583       7.31027058        0
Cl       6.01886480       9.44978549      12.26963612        0
Cl       7.91365968      12.33753559      13.52570661        0
Cl       9.33923847       9.09036836      13.30860813        0
Cl       0.85243379      15.64765432       9.66738644        0
Cl      19.32277260      16.69735813       6.75973508        0
Cl       2.68942005      17.20698583       6.90932160        0
O       11.70480483       9.98462928      11.05183217        0
O        9.33002565       9.85797465      10.26368644        0
O       10.04253447      11.73662472      11.47829342        0
O       10.90511407      11.30485988       9.15629272        0
O        4.63253180      14.75399969       6.08930299        0
O        2.80792371      13.93277915       7.52217576        0
O        3.39462710      12.70449261       5.51783611        0
O        4.92181416      12.74497639       7.42984466        0
S       10.59011441      10.72436732      10.46815853        0
S        3.96742114      13.57851984       6.61080970        0
Zr       5.92559736      10.92656394       7.94155189        0
Zr       8.08219514      10.63601584      11.95187227        0
Zr       1.05753240      12.28558610       5.12447899        0
Zr       1.10356597      15.55884724       7.28654579        0
Cl      15.80662737       9.45242949       1.13974847        1
Cl      15.49216588       6.17745521      19.87305005        1
Cl      12.70909617       8.01436513       0.57440048        1
Cl      13.46928324       7.93769852      17.30869901        1
Cl      13.86365541      10.89800426      19.00136331        1
Cl      19.80207436       6.42588343      15.35815996        1
Cl      18.17792790       3.19810249      14.57161155        1
Cl      18.48074794       3.87167361      17.88154835        1
Cl      15.39904591       5.11834775      16.36139989        1
Cl      16.95429875       6.28803131      13.75539957        1
Cl      10.56205810      10.04438863      18.38660678        1
Cl      11.62082205      13.56294542      18.46301606        1
Cl       9.46721739      12.18261520       0.75462296        1
Cl      16.90554752       9.63295051      12.77695872        1
Cl      19.77048890       7.69194863      12.08121323        1
Cl      19.91188685       9.96791390      14.84158418        1
O       11.63472696      12.67702773       3.31315830        1
O       12.18226796      10.88420600       1.65099695        1
O       12.60234965      13.12878594       1.10541719        1
O       13.93674105      11.96965690       2.89370440        1
O       18.72827812       9.00258862      17.69333318        1
O       17.18500295       8.36114716      15.88679592        1
O       17.74460185       6.74778466      17.60557358        1
O       16.35827329       8.69144469      18.14408519        1
S       12.60235662      12.20574774       2.32725261        1
S       17.55494795       8.22633411      17.35154442        1
Zr      14.69281904       8.39497619      19.45344283        1
Zr      11.55476246      11.68556708      19.83108583        1
Zr      17.80453614       5.02339842      15.92774042        1
Zr      18.53986490       8.32821839      13.94573461        1
Cl      15.60313709       0.87616889       5.65586630        2
Cl      16.91468994      19.05054410      10.05358613        2
Cl      17.18341557       2.00515575       8.85574370        2
Cl      18.17061701      19.30766063       6.95611778        2
Cl      14.84669747      18.11215051       7.53495763        2
Cl      16.17365421      18.80822925      19.99548170        2
Cl      19.08435222       0.00757168       3.55928425        2
Cl      18.14919442       1.24626424       0.33854087        2
Cl      19.62883206      18.30066335       0.56738660        2
Cl      17.05970007      17.29485810       2.91697297        2
Cl      11.13082347       2.70567126       4.15530453        2
Cl      12.42634186      19.66382598       4.90506295        2
Cl      14.33854573       3.95534719       4.94803554        2
Cl      17.44921217       0.36361158      17.18853630        2
Cl      14.13107375       0.49278194      17.68313370        2
Cl      16.05962454       3.38438126      18.87667007        2
O       12.09167294      20.16040671       8.22116760        2
O       12.40724474       2.17297365       9.29816230        2
O       14.32876149       0.89787770       8.53926541        2
O       12.83047358       1.91998435       6.92406429        2
O       13.99098301       1.35774949       2.95203205        2
O       16.12130073       0.27513006       2.51933860        2
O       14.86043031       1.26861916       0.68578309        2
O       15.91763912       2.71308033       2.32935672        2
S       12.85591219       1.22758680       8.28903276        2
S       15.23846531       1.41247358       2.12813065        2
Zr      16.11248263       0.02283482       7.96602785        2
Zr      17.85270666      19.29316396       1.80010844        2
Zr      13.14210656       1.81951111       4.88737094        2
Zr      16.03809408       1.01980356      19.04350957        2
Cl       0.84215003       7.63252879       2.42075741        3
Cl      16.73434592       8.96981796       4.64236331        3
Cl      17.63732512       6.15054602       3.05088506        3
Cl      18.25234704       9.40422658       1.68521373        3
Cl      19.93259390      10.09029223       4.77047313        3
Cl       4.72494265      10.91073575      18.91089840        3
Cl       0.08132649       9.24833695      18.84271434        3
Cl       3.18771432       8.49277595      17.24223018        3
Cl       1.86499567      11.67347809      16.91303227        3
Cl       1.72910669      11.95112247       0.34952833        3
Cl       5.01316080       5.59218740       4.43073992        3
Cl       3.41431931       8.75477686       4.58933399        3
Cl       2.38132092       4.59999400       2.29331961        3
Cl       6.09593779       9.85672268      15.82757945        3
Cl       7.91153700       9.26281223      18.58841700        3
Cl       5.91279767       6.44802158      17.32858425        3
O        1.16984371       7.65093533       6.84743250        3
O        0.27808694       5.36049760       6.85713631        3
O       19.68734365       6.96077455       5.19942569        3
O        1.77019868       6.07160316       5.08304526        3
O        3.96141506       7.44918822       1.80573532        3
O        2.82510000       8.82819484       0.16114696        3
O        5.08867022       8.03245589      19.90897320        3
O        3.24126452       6.45401368      19.87572918        3
S        0.68778175       6.51294238       6.07137400        3
S        3.76429822       7.68301628       0.34132768        3
Zr      18.89627224       8.12156132       3.68194670        3
Zr       2.16205370      10.28339660      18.82057310        3
Zr       3.09072521       6.56175554       3.57596526        3
Zr       5.66617976       8.72863459      17.92650616        3
Cl       3.47987369      14.28036602      20.16768037        4
Cl       6.18642791      15.96953327      19.92874780        4
Cl       2.27415915      16.10560248       2.73870243        4
Cl       4.19860530      17.88991241      13.67945269        4
Cl       3.49943352      15.34940801      16.18107921        4
Cl       1.22362802      18.31590837      15.61204819        4
Cl       7.92554830      18.77322970       5.33815062        4
Cl       4.06519244      17.60717743       5.43906758        4
Cl       5.59815006      18.05708141       2.30082763        4
Cl       5.75214014      18.62171877       8.13139924        4
Cl       7.12502872      15.46504306       7.52001620        4
Cl       6.06734957      17.75455314      16.62502204        4
Cl       5.38689335       1.89482940      18.79501061        4
Cl       4.01028146       0.10090373      16.34861945        4
Cl       7.47327822       0.80958617      16.06466947        4
Cl       8.06530856      19.47537017      19.24787624        4
O        7.53929182      14.35605928       3.09361535        4
O        5.93670264      13.69577895       4.84377630        4
O        6.57684112      16.02868428       4.54448087        4
O        5.20348784      14.93213914       2.87556357        4
O        3.34818896      17.62120756       0.24357223        4
O        4.96235833      19.00150082      19.21263685        4
O        3.22389700      17.77559079      18.03689312        4
O        2.63914836      19.72344817      19.40580728        4
S        6.34732739      14.69641971       3.85915076        4
S        3.51865770      18.57279671      19.28206624        4
Zr       4.26173417      16.16629801       1.51724932        4
Zr       3.53888512      17.72914679      15.93189889        4
Zr       6.33461949      17.30963221       6.17799854        4
Zr       6.23192665      20.04459610      17.80232337        4
Cl       6.91247441       6.86969272      10.59595328        5
Cl       7.92695988       4.35499910       8.89802932        5
Cl       4.14903351       5.17675484      11.94458448        5
Cl      13.70386440       4.47841508      12.54564866        5
Cl      10.87936049       6.60350763      11.70463832        5
Cl      11.18762121       4.87045548      15.05198307        5
Cl       3.18508481       0.15306254       7.51232955        5
Cl       2.08822245       2.65327155      10.48185096        5
Cl       5.52318315       2.22596701       9.83425658        5
Cl      20.13928661       0.61299473       8.91554195        5
Cl       0.57421887       3.07097633       6.50504311        5
Cl      11.26838090       3.36877825      10.30421333        5
Cl       9.41879456      19.49302463      12.29506232        5
Cl      11.30133038       1.90588497      13.22310583        5
Cl      12.44066260       0.00404406      10.45541217        5
Cl       9.35104525       0.58177539       8.75862136        5
O        4.85158421       4.71277618       6.44916521        5
O        2.72504783       5.60553880       7.31411806        5
O        3.38329129       3.29781873       7.74183988        5
O        4.57964432       5.11120073       8.81616783        5
O        6.95644350       3.83987232      12.03100080        5
O        8.62598268       2.19126625      11.35437126        5
O        9.24838327       4.17203092      12.61796348        5
O        7.97248344       2.37894169      13.69820232        5
S        3.86800072       4.71728118       7.52397315        5
S        8.18578483       3.11393327      12.46242839        5
Zr       5.79532706       4.58869643      10.39862492        5
Zr      11.35522487       4.47130980      12.68141336        5
Zr       1.86678711       1.93383165       8.19750776        5
Zr      10.38297437       1.01587999      10.88502817        5
Cl       8.99288084      15.22202443      14.31934186        6
Cl       6.63952930      17.91404940      14.81161909        6
Cl       7.38528591      15.80247497      17.53830197        6
Cl      13.50535193      15.34345010       0.82850921        6
Cl      15.61432107      16.58354224      17.99345241        6
Cl      15.35661404      13.19210942      18.96534498        6
Cl      12.74879245      13.88609732      17.02611798        6
Cl       8.37924714      19.19580802      17.39472938        6
Cl       9.06469005       1.55560882      15.15138341        6
Cl      10.57287276       1.62685859      18.39904814        6
Cl      12.56409234       0.84655267      15.46264768        6
Cl      10.19023401      18.56140162      14.67019579        6
O       10.30991027      17.41660510      19.33001382        6
O       10.35432325      16.62725350      17.04720433        6
O       11.46195589      18.73664836      17.61349903        6
O       12.41024145      16.65392150      18.33602999        6
S       11.12266232      17.35535775      18.10417801        6
Zr      13.92589318      15.17007839      18.71283271        6
Zr      10.62113935       0.20659176      16.55215485        6
Zr       8.58809792      16.95338060      15.79123986        6
Cl       0.64760977      13.03230758      11.70578683        7
Cl       0.99156538      13.73179654      15.22999008        7
Cl      19.56231560      16.11686329      13.18301141        7
Cl      13.32503327      15.44761919       9.97109396        7
Cl      13.50081255      11.57549097       9.84110089        7
Cl      14.16231981      13.68016620       7.07604122        7
Cl      16.96095766      13.43862731       8.85149586        7
Cl      17.85783629      14.21748665      15.63462310        7
Cl      18.04253506      11.23923416      17.37228374        7
Cl      14.85285423      12.79076557      16.87659808        7
Cl      15.73517529       9.77536965      15.05309119        7
Cl      18.67093096      11.40740620      14.03851746        7
O       15.87746397      15.22996209      13.24896429        7
O       17.62907016      13.79208682      12.41191109        7
O       15.80667729      12.82629900      13.73222338        7
O       15.39014575      13.59447326      11.49717138        7
S       16.16962661      13.88503996      12.72664637        7
Zr      14.62386415      13.56982162       9.48392136        7
Zr      16.52338188      11.90558230      15.51414062        7
Zr      19.53452944      13.72376027      13.49261180        7
Cl       2.76781066      15.70166700      12.04414561        8
Cl       3.33105031      12.63500635      14.10694717        8
Cl       3.42921683      12.42747833      10.77068304        8
Cl       5.64543682      15.30222494      14.07922182        8
O        7.15321969      14.09229022       9.51995556        8
O        5.38784229      15.27763809      10.81464971        8
O        6.35826408      13.35444736      11.73001844        8
O        7.75877349      15.39795510      11.47134392        8
S        6.73474006      14.54594188      10.87077134        8
Zr       4.37414336      13.99059960      12.41225834        8
Cl       1.27302790       0.14605419      12.70679294        9
Cl      19.06872195       1.06565282      15.44063093        9
Cl       2.03931364       0.21691927      16.19781869        9
Cl       0.02826190       3.44531737      13.09051365        9
O        4.51345163       3.54291273      15.18760884        9
O        3.04594058       2.28726603      13.61674839        9
O        2.07455714       3.35002565      15.46207684        9
O        3.06997107       4.74993442      13.65828374        9
S        3.20982124       3.54711372      14.47616070        9
Zr       1.02645674       1.67919706      14.50463580        9
Li       7.75192343       6.70529076      16.85491092       10
Li       4.38151952      12.49804877       3.91613954       11
Li      15.49314031      17.99826466      11.45853751       12
Li       7.54541848       6.11289385       7.30524659       13
Li      14.27847871       9.76549473       6.21796992       14
Li       4.29085888       0.05095679       4.87596988       15
Li      13.26326882      13.70267907      19.57981906       16
Li       5.90187352       8.37905486       3.62861811       17
Li      14.95645573       3.64356250       8.89924266       18
Li       7.49494139       7.23798793       4.95297374       19
Li      13.80044007      18.66188171       0.27047825       20
Li       9.38428166      14.45638812       1.66259926       21
Li      16.78424774      16.30911570       7.13748866       22
Li       1.36482851       4.09245348      17.64102554       23
Li      13.21654690       2.44695250      11.40741496       24
Li       8.63673446      17.28148049       8.25695510       25
Li      14.61145394      11.36457681       0.67496656       26
Li      16.91232888       3.13448293      16.50304822       27
Li       6.57559110      19.46281894      15.60102493       28
Li      17.65005882       8.35702024       9.44831425       29
Li       9.36226271      16.71625988       2.43318730       30
Li       8.93178705      16.72537432      12.60782998       31
Li       1.30335740       7.44100676      13.09127466       32
Li      15.47985511      11.53311219      12.34067097       33
Li      17.29275187      18.87103348      17.54713480       34
Li       4.29502992      16.04145970       8.92758948       35
Li       2.76587670       6.94650374      14.83856257       36
Li       3.19525475       7.87304732       7.64968340       37
Li       8.83589034      19.99798328       1.79872256       38
Li      18.60997857       7.98073867      20.14668393       39
Li      19.29358706      16.42013758      16.65725232       40
Li      11.39098542       6.02682440       5.73193944       41
