272
Lattice="20.174194627239018 0.0 0.0 0.0 20.174194627239018 0.0 0.0 0.0 20.174194627239018" Properties=species:S:1:pos:R:3:cluster_id:I:1:forces:R:3:stresses:R:9 energy=-1484.3649284722783 stress="0.0008242412533543393 -0.00042714374464012647 -0.0006194735624751519 -0.00042714374464012647 0.0007243211276198953 -0.00014557688838517387 -0.0006194735624751519 -0.00014557688838517387 -0.00035860720436075715" pbc="T T T"
Cl       8.30200517      11.87769352       6.68735256        0       0.00208873       0.00052630      -0.00128685       0.00015713       0.00009807      -0.00001685       0.00009099       0.00005612      -0.00005519      -0.00001930      -0.00006232       0.00011009
Cl       5.71655511      10.57770228       4.83911802        0       0.00343431      -0.00128473      -0.00247869       0.00003156       0.00002730       0.00002227       0.00004349      -0.00004162       0.00001373       0.00001453       0.00002482       0.00011418
Cl       7.33405393       8.51136824       7.12933454        0       0.01012013      -0.00041818      -0.00193602       0.00012670      -0.00012259       0.00001437      -0.00010010       0.00017315       0.00002989       0.00000439       0.00003235       0.00001987
Cl       4.48319309       9.46434246       8.08068797        0       0.00699583      -0.00443048      -0.00618219       0.00013299       0.00006286      -0.00006213       0.00003558       0.00008166      -0.00003549      -0.00004051      -0.00003186       0.00004751
Cl       7.09978130      10.81062167       9.50098953        0      -0.00871163      -0.00054113      -0.00275697       0.00012987       0.00000047      -0.00001425       0.00000032       0.00009420      -0.00002832      -0.00002957      -0.00003750       0.00034092
Cl       1.81047512      15.66102886       5.24769533        0      -0.00008351      -0.00266471      -0.00005815       0.00017909       0.00002894      -0.00003789       0.00001758       0.00027056       0.00004186      -0.00000261       0.00001981       0.00017606
Cl      20.38291253      13.19393149       3.87813127        0       0.00632831      -0.00064861      -0.01016506       0.00020601      -0.00004495       0.00011286      -0.00001632       0.00006130       0.00001396       0.00008079      -0.00000370       0.00011170
Cl       3.20382859      12.12896230       3.01392593        0       0.00440165      -0.00434635      -0.00306175       0.00011523      -0.00002737      -0.00004087      -0.00003615       0.00002617       0.00000093      -0.00002338       0.00001613       0.00017012
Cl       2.39584204      10.80855144       5.91549801        0       0.00252757      -0.00138913      -0.00017335       0.00007117      -0.00007929      -0.00001000      -0.00005621       0.00007073      -0.00004994      -0.00001516      -0.00003628       0.00011820
Cl      21.10767451      13.25029326       7.31260595        0      -0.00421366      -0.00070065      -0.00839105       0.00007242       0.00000354      -0.00000572       0.00001581       0.00028950       0.00007693       0.00000755       0.00006722       0.00020732
Cl       5.50847665       9.13939763      11.58628287        0      -0.00201615      -0.00756697      -0.00436442       0.00017607       0.00006959       0.00005676       0.00006845       0.00005610      -0.00003346       0.00005826      -0.00003967       0.00007959
Cl       6.08258559      11.66371370      13.90091842        0      -0.00448692      -0.00653620       0.00050494       0.00019229      -0.00006113      -0.00005794      -0.00005764       0.00026187      -0.00004064      -0.00006957      -0.00003482       0.00022690
Cl       8.07103934       8.93693205      13.56086343        0      -0.00385929       0.00183483       0.00098970       0.00007924      -0.00006171       0.00004912      -0.00004267       0.00007466      -0.00003959       0.00004028      -0.00005399       0.00012255
Cl       0.95152894      15.20657319       9.97402236        0      -0.00140281      -0.01108692      -0.00407456       0.00002304       0.00004100      -0.00000076       0.00004331       0.00009272      -0.00003627      -0.00001279      -0.00004145       0.00022906
Cl      19.66036605      16.39559773       7.30605823        0       0.00090234       0.00219140      -0.00050492       0.00030387      -0.00005691       0.00006406      -0.00007657       0.00007203      -0.00003146       0.00003589      -0.00001706       0.00012866
Cl       2.51127265      17.79251208       8.57665812        0       0.00032221      -0.00712246       0.00873762       0.00007104       0.00006364      -0.00002083       0.00006685       0.00011929       0.00004129      -0.00002115       0.00005133       0.00005720
O       11.50078110      11.13723538      12.01402889        0      -0.00471294      -0.00931227      -0.04212873       0.00127307      -0.00026686       0.00055820      -0.00025024       0.00024442      -0.00014821       0.00053453      -0.00015148       0.00036556
O        9.37731601      10.15771392      11.10019737        0      -0.00976265      -0.01721161      -0.01201010       0.00070164       0.00048172       0.00010957       0.00040593       0.00127053       0.00039875       0.00007091       0.00039109       0.00040723
O        9.12206474      11.84247043      12.64667852        0      -0.00058270      -0.00464037      -0.02585699       0.00028203      -0.00052398      -0.00076356      -0.00048462       0.00014892       0.00025593      -0.00076231       0.00023366       0.00086974
O       10.17357357      12.40967901      10.45653160        0      -0.01844610      -0.02484168      -0.03841996       0.00007778      -0.00000419       0.00008675       0.00000367       0.00075067      -0.00071996       0.00008141      -0.00071444       0.00087737
O        5.86526278      14.76671611       6.86365372        0      -0.00158016      -0.00022902       0.00006199       0.00099555       0.00032891       0.00010388       0.00035154      -0.00014114       0.00025585       0.00009835       0.00026990       0.00000875
O        3.56647982      14.67025089       7.80407286        0      -0.00160319      -0.00405439      -0.00066406      -0.00022608       0.00003556      -0.00053884       0.00004266       0.00004377       0.00025694      -0.00049675       0.00024414       0.00043224
O        4.01153635      13.84019246       5.42464907        0       0.00089610      -0.00177847      -0.00219192      -0.00054355      -0.00027660       0.00036344      -0.00033529      -0.00012976      -0.00003171       0.00036893      -0.00000078       0.00101007
O        4.94885579      12.53698776       7.34542585        0       0.00092869      -0.00042609      -0.00016222      -0.00042868       0.00040118       0.00006369       0.00045183       0.00041635      -0.00048075       0.00005725      -0.00044444       0.00020488
S       10.16975778      11.42351339      11.50461183        0      -0.00861887      -0.01534088      -0.03196739      -0.00272917      -0.00006629      -0.00016384       0.00005014      -0.00237444       0.00024077      -0.00009774       0.00028191      -0.00230250
S        4.59674449      13.95653969       6.87049263        0      -0.00066141      -0.00133969      -0.00127930      -0.00197447      -0.00002107       0.00002355       0.00003348      -0.00210494      -0.00010746       0.00002918      -0.00013336      -0.00214255
Zr       6.14622262      11.11577923       7.20170780        0       0.00132638       0.00118546      -0.00362101      -0.00008120      -0.00058507      -0.00000278      -0.00059663       0.00017294       0.00011589      -0.00002047       0.00011378      -0.00036665
Zr       7.56939116      10.83121805      12.07346616        0      -0.00562001      -0.00234734      -0.00336295      -0.00036353       0.00037448       0.00016665       0.00029628      -0.00090996       0.00011252       0.00015571       0.00011070      -0.00067107
Zr       2.25181708      13.12806808       5.15376616        0       0.00181705      -0.00300160      -0.00394134       0.00019994       0.00027070       0.00006013       0.00032742      -0.00033712       0.00002746       0.00007545       0.00000249      -0.00044174
Zr       1.91078054      15.56559678       7.75454429        0      -0.00059660      -0.00227710      -0.00127312       0.00013877      -0.00037270       0.00008435      -0.00045734      -0.00027854       0.00002307       0.00000884       0.00003019      -0.00047045
Cl      15.88290015       9.89051445      -0.27030063        1       0.00354668       0.00148962      -0.00575647       0.00006298       0.00005070       0.00016923       0.00004476       0.00011332      -0.00002810       0.00014278      -0.00001962       0.00008657
Cl      14.13709606       7.22635577      19.05612853        1      -0.00364014       0.00517276      -0.00593184       0.00001623       0.00001362       0.00006018       0.00001622       0.00017547      -0.00005859       0.00005888      -0.00004535       0.00004892
Cl      10.97930736       8.93228903       1.02780861        1       0.00107105       0.00349518       0.00065791       0.00005383       0.00004530       0.00002664       0.00000977       0.00022750       0.00000013       0.00002936       0.00002008       0.00002190
Cl      12.39756516       9.12944138      16.91455773        1      -0.00196426       0.00941761      -0.00084975       0.00017965      -0.00003792       0.00006709      -0.00000857       0.00005682       0.00000735       0.00010695      -0.00000797       0.00008206
Cl      12.91063902      11.41240556      19.19682991        1       0.00133587       0.00260887       0.00308441       0.00019687      -0.00004646      -0.00009274      -0.00004691       0.00017175       0.00005143      -0.00010179       0.00004761       0.00017733
Cl      19.90435804       6.50157920      15.56099126        1       0.00039244      -0.00020194       0.00262948       0.00011176       0.00006801      -0.00002456       0.00005836       0.00001068      -0.00006468       0.00000522      -0.00006055       0.00010452
Cl      17.09966668       3.51487785      15.25845473        1       0.00812386      -0.00413608       0.00830197       0.00011767      -0.00000811       0.00005034      -0.00003260       0.00019011       0.00000285       0.00006485       0.00003514       0.00008814
Cl      18.58995202       4.67032029      17.77867677        1       0.00215093       0.00591477       0.00837066       0.00007173      -0.00000318       0.00004693       0.00000901       0.00015957      -0.00000708       0.00005426      -0.00002782       0.00014808
Cl      15.07254093       5.95621445      15.62509092        1       0.00102820      -0.00872204       0.00117707       0.00020577      -0.00006592       0.00002666      -0.00007556       0.00005842       0.00000877       0.00001110       0.00001242       0.00005519
Cl      17.57307661       6.22413625      13.25872143        1      -0.00066580      -0.00608528       0.00261409       0.00007849       0.00004309      -0.00005071       0.00004390       0.00031423       0.00000851      -0.00006406       0.00002200       0.00023533
Cl       9.67347945      11.96061467      19.76026580        1       0.00398519       0.00753840       0.00437644       0.00010423      -0.00000981       0.00005228      -0.00000275       0.00006131      -0.00004736       0.00003542      -0.00004449       0.00012829
Cl      11.51832026      14.86413711      19.17520853        1      -0.01841599       0.01692512       0.01121888       0.00020669       0.00005480      -0.00000247       0.00006709       0.00001229       0.00006297      -0.00001580       0.00006091       0.00000812
Cl       9.88993057      11.80307930       2.84419235        1       0.00560265       0.00385280       0.00614466      -0.00000383       0.00005210      -0.00007176       0.00005165       0.00000476       0.00004203      -0.00007380       0.00002902       0.00013435
Cl      16.76405380       9.26408170      11.78442073        1       0.00157636      -0.00292934      -0.00349309       0.00008555      -0.00002925       0.00001933      -0.00000366       0.00000849      -0.00000408       0.00001922      -0.00003641       0.00006793
Cl      19.98877238       7.91869265      12.01946901        1      -0.00070818      -0.01074264      -0.00159515       0.00014809      -0.00005479      -0.00004381      -0.00002790       0.00013127       0.00005014      -0.00004593       0.00007887       0.00013249
Cl      20.20779122       9.87205521      14.57877985        1      -0.00082601      -0.00403765      -0.00491890       0.00008192       0.00004248       0.00007124       0.00002284       0.00006684       0.00007704       0.00008490       0.00009282       0.00007904
O       13.95187852      12.08509737       3.84399320        1       0.00576567       0.00312803       0.00127041       0.00010952       0.00005181       0.00006196       0.00004538       0.00012299       0.00019073       0.00004922       0.00020584       0.00147981
O       13.21290260      10.52629216       2.07759587        1       0.00162430       0.00217587       0.00416510       0.00057651       0.00041454       0.00021402       0.00035812       0.00145698       0.00023003       0.00023049       0.00025161       0.00037543
O       12.55575387      12.75992438       1.79080771        1       0.00474003       0.00255675       0.00213961       0.00070446      -0.00069739       0.00023915      -0.00065001       0.00028663      -0.00030873       0.00023082      -0.00033289       0.00026318
O       15.06249355      12.19496415       1.71644336        1       0.00426883      -0.00167263       0.00044709       0.00115752       0.00024483      -0.00060294       0.00024515       0.00020341      -0.00012152      -0.00058032      -0.00011147       0.00048988
O       17.98746385       9.62385288      17.06368847        1      -0.00312547      -0.00087542      -0.00303775       0.00044808       0.00054976       0.00028394       0.00054125       0.00071966       0.00023005       0.00027919       0.00020914       0.00004780
O       17.36435106       8.22930396      15.06220406        1      -0.00039096      -0.00338424      -0.00195973      -0.00016139      -0.00021700       0.00030625      -0.00024349       0.00054139       0.00053744       0.00031836       0.00047961       0.00064799
O       17.25009532       7.23703763      17.26535248        1      -0.00558398       0.00051583       0.00001415       0.00008009       0.00004060       0.00016450       0.00002087       0.00090505      -0.00084510       0.00016539      -0.00087357       0.00011230
O       15.62551061       8.99567096      16.67558711        1      -0.00283178       0.00012583      -0.00764667       0.00093782      -0.00007611       0.00061554      -0.00011121       0.00017903      -0.00016208       0.00058862      -0.00019492      -0.00064120
S       13.81642187      11.89407377       2.42646636        1       0.00429911       0.00159848       0.00168327      -0.00240047      -0.00029956       0.00006714      -0.00020242      -0.00207574      -0.00000726       0.00006138      -0.00006832      -0.00255626
S       17.13175644       8.59952867      16.60715927        1      -0.00296980      -0.00088517      -0.00349087      -0.00204093      -0.00015744      -0.00019494      -0.00014037      -0.00211592      -0.00004896      -0.00020953       0.00006893      -0.00168592
Zr      14.46515730       9.33831504      18.05569484        1       0.00111935       0.00495259      -0.00526897       0.00007129      -0.00029426      -0.00074818      -0.00027004      -0.00063221       0.00020640      -0.00076183       0.00023853       0.00034173
Zr      11.44477703      11.26861290      21.27536164        1       0.00227357       0.00313235       0.00432473      -0.00054574       0.00028885       0.00003260       0.00025869      -0.00043578       0.00012835       0.00005762       0.00013175      -0.00041296
Zr      17.43410257       5.93235692      15.82353731        1       0.00042934      -0.00259166       0.00428315      -0.00071015      -0.00000981      -0.00020422       0.00001488      -0.00076299       0.00056558      -0.00017037       0.00046588      -0.00034396
Zr      18.30681318       8.89167413      13.61180918        1       0.00014959      -0.00703174      -0.00343499      -0.00019845       0.00022957      -0.00044837       0.00026755      -0.00044537      -0.00051115      -0.00048599      -0.00050423       0.00039944
Cl      16.67511860       0.15128128       6.53406023        2       0.01199305       0.00653840       0.00843522       0.00006208      -0.00004546       0.00007006      -0.00003198       0.00016893      -0.00002922       0.00004574      -0.00000807       0.00019006
Cl      15.28530451      18.22722720      10.84635107        2       0.01003536      -0.01005903       0.00178933       0.00008619      -0.00000120      -0.00010353       0.00000008       0.00007279      -0.00006415      -0.00010411      -0.00006846       0.00012106
Cl      17.19893314       1.37610051       9.66199619        2       0.00486374      -0.00184109       0.01385813       0.00019124       0.00008499       0.00003847       0.00009806       0.00021205       0.00005539       0.00004538       0.00005729       0.00007020
Cl      18.51088731      18.55233726       9.69620903        2       0.00766605       0.00070780       0.00252451       0.00022037      -0.00004730       0.00008193      -0.00007126       0.00009118      -0.00001741       0.00005940      -0.00000441       0.00009135
Cl      15.78765158      17.37707621       7.65761610        2       0.01024496       0.00334648      -0.00080925       0.00006295       0.00002436       0.00006832       0.00003149       0.00011848       0.00005030       0.00003799       0.00004959       0.00010721
Cl      16.40560762      19.21454443      21.45076227        2      -0.00976253       0.01122394       0.01273728       0.00025399      -0.00001022       0.00006180      -0.00000683       0.00018417      -0.00000671       0.00006380      -0.00001815       0.00015566
Cl      20.70917627       1.09768794       3.04871007        2       0.00823168      -0.00291179      -0.01447855       0.00006234       0.00009951       0.00004067       0.00009453       0.00007078       0.00001162       0.00005750       0.00002237       0.00004301
Cl      18.54172294       1.77221096       0.42369781        2      -0.00425646       0.00016699      -0.00294853       0.00016995      -0.00005016       0.00006971      -0.00003341       0.00017081      -0.00001700       0.00006651      -0.00000825       0.00016743
Cl      19.51621933      18.81106824       0.24110648        2      -0.01565454      -0.00685342       0.00569605       0.00000962      -0.00002866      -0.00005170      -0.00000019       0.00010378       0.00007367      -0.00000534       0.00005742       0.00019275
Cl      19.11077430      18.18388028       3.56211207        2      -0.00863300       0.00932757       0.01085683       0.00003242      -0.00001133      -0.00000201      -0.00002757       0.00018105      -0.00007040       0.00000985      -0.00009480       0.00010903
Cl      12.80413217       2.83985762       4.81904029        2       0.01939999       0.00829754       0.00513103       0.00009262      -0.00004207       0.00007557      -0.00005668       0.00011692      -0.00004219       0.00008306      -0.00006033       0.00003952
Cl      14.10276116      19.80132610       4.26717162        2       0.01397371       0.00649714       0.00913758      -0.00003490      -0.00002014       0.00006349      -0.00002122       0.00011382       0.00010771       0.00007350       0.00013072      -0.00000041
Cl      14.96950300       3.18815030       7.34458790        2       0.01902067      -0.00146660       0.01083451       0.00004536       0.00001751      -0.00000742      -0.00000344       0.00005890       0.00012288      -0.00003081       0.00007878       0.00023185
Cl      16.70522676       0.59534198      18.14399575        2      -0.01668087       0.00340719       0.00553504       0.00007674      -0.00002176      -0.00003908      -0.00001645       0.00008629       0.00009801      -0.00005056       0.00011363       0.00020621
Cl      13.78117296       0.72143633      20.13950978        2      -0.00991776       0.00985128       0.02131722       0.00019680       0.00002076       0.00004033       0.00000294       0.00010109       0.00000116       0.00001175      -0.00001222       0.00007150
Cl      15.74150156       3.66120651      19.49168058        2       0.00090144       0.00603670       0.00323125       0.00002359      -0.00000639       0.00002850      -0.00000072       0.00016412      -0.00005493       0.00001622      -0.00005253      -0.00004475
O       13.10257938      18.70720467       7.87356001        2       0.01126114       0.00465614      -0.00270537      -0.00007711       0.00010245       0.00003790       0.00010895       0.00126502       0.00031233       0.00004368       0.00029640       0.00017977
O       12.21370042       0.32138278       9.32601660        2       0.00306773       0.00516136      -0.00936876       0.00030340      -0.00046545      -0.00037574      -0.00037831       0.00028899       0.00022769      -0.00040709       0.00026751       0.00078567
O       14.65754020       0.20011901       8.94111627        2       0.00522158      -0.00036789       0.01212140       0.00055969       0.00063231       0.00047346       0.00063379      -0.00003306       0.00009893       0.00050747       0.00007685       0.00035359
O       13.09034454       0.85478667       7.06514458        2       0.02123508       0.00701215       0.00306891       0.00038305       0.00008522      -0.00019738       0.00007995       0.00063470      -0.00075737      -0.00015663      -0.00075751       0.00120833
O       16.05250459       2.41753366       4.56829858        2       0.01430041       0.01538655       0.00564713      -0.00008653      -0.00050804      -0.00020461      -0.00048012      -0.00001286       0.00051374      -0.00018842       0.00054143       0.00100265
O       17.40835896       0.70901759       3.38170368        2       0.00704126       0.01637784       0.00234250      -0.00020105      -0.00018781       0.00051011      -0.00022620       0.00119442      -0.00037659       0.00042289      -0.00035127      -0.00042685
O       15.60105853       1.94114584       2.19510632        2       0.00518132       0.01998232       0.00846147       0.00083013       0.00025230       0.00097746       0.00024481       0.00008672      -0.00009105       0.00099646      -0.00012102      -0.00034130
O       17.64804722       3.09411054       2.85327290        2       0.00864826       0.01278663      -0.00011246       0.00064075       0.00060229      -0.00029454       0.00057903       0.00058983      -0.00031359      -0.00031375      -0.00034234       0.00012558
S       13.24890410      -0.08574181       8.24372191        2       0.01006178       0.00376704       0.00064156      -0.00183942      -0.00000383       0.00002592      -0.00001386      -0.00239640      -0.00002440       0.00004766      -0.00000024      -0.00228559
S       16.73177751       2.09431267       3.24254506        2       0.00792722       0.01518892       0.00404745      -0.00212376      -0.00008869      -0.00002252      -0.00002172      -0.00218871       0.00000363       0.00003492       0.00007811      -0.00191787
Zr      16.28342731      -0.77793272       8.85977632        2       0.00635572       0.00044372       0.00476374       0.00012702      -0.00044395      -0.00006360      -0.00046588      -0.00036885       0.00003253      -0.00011572       0.00006560      -0.00052760
Zr      18.77480633      20.16747063       2.30248453        2      -0.00221617       0.00474251       0.00295991       0.00012521      -0.00031871      -0.00045228      -0.00033323      -0.00039193       0.00019453      -0.00041079       0.00016017      -0.00027784
Zr      14.71548110       1.51024850       5.51959963        2       0.01894070       0.00762109       0.00352567      -0.00020086       0.00030544      -0.00025956       0.00027551      -0.00031500      -0.00029652      -0.00023694      -0.00032627      -0.00036959
Zr      16.01563037       1.55012365      20.58764982        2      -0.00674552       0.00847819       0.00820038      -0.00034479      -0.00006526      -0.00010731      -0.00006794      -0.00033318       0.00019310      -0.00017353       0.00020486       0.00052221
Cl      -0.10878565       6.07765407       2.02751481        3       0.00337600      -0.00554676       0.00062270       0.00017542       0.00006075       0.00000198       0.00006966       0.00005399      -0.00002075      -0.00000310      -0.00002419       0.00010730
Cl      17.32516054       7.85817328       7.35405453        3      -0.01091221      -0.00211943      -0.00414074      -0.00004990       0.00006497       0.00002179       0.00007775       0.00004741      -0.00003238       0.00001667      -0.00002007       0.00018252
Cl      16.20847718       6.10721740       4.68837074        3      -0.00031567      -0.00376028      -0.00286899       0.00007629       0.00009619       0.00001334       0.00011933       0.00006995      -0.00000075       0.00002534       0.00000399       0.00005945
Cl      17.21743316       8.63909678       2.67471784        3       0.00377008      -0.00818920      -0.00343174       0.00003342       0.00001192       0.00005398       0.00001022       0.00008692      -0.00003922       0.00007332      -0.00006257       0.00020836
Cl      18.13827723      10.28266718       5.38511285        3       0.00332880      -0.00651631      -0.00235148      -0.00001648       0.00007289      -0.00000901       0.00005567       0.00016298       0.00000849      -0.00000774       0.00000187       0.00011147
Cl       5.37728418       9.53690761      17.64482768        3      -0.00458977       0.00632309      -0.00199777       0.00001339       0.00008660       0.00001880       0.00006374       0.00020240      -0.00002293       0.00004611       0.00001191       0.00003457
Cl      -0.52922498       7.97556752      19.30319893        3      -0.00274503      -0.00666895      -0.00002337       0.00000297       0.00002979      -0.00002690       0.00004083       0.00017621       0.00000563      -0.00002681      -0.00001217      -0.00002397
Cl       2.04986801       8.75655500      17.11347089        3      -0.00238141       0.00582105       0.00080536       0.00023513      -0.00007929      -0.00005188      -0.00007694       0.00022007       0.00001296      -0.00004161       0.00002263       0.00007417
Cl       1.08624068      11.86452207      17.97253030        3      -0.01120379      -0.00145132       0.00576509       0.00002935       0.00002265      -0.00003124       0.00000191       0.00017467      -0.00009256      -0.00001920      -0.00006902       0.00010834
Cl      -0.44173673      10.85154748       0.64367636        3      -0.00569715      -0.00668854       0.00496113       0.00006406      -0.00001984      -0.00004681      -0.00002851       0.00003589       0.00006335      -0.00005917       0.00006728       0.00015425
Cl       3.84728687       7.71988752       4.57829504        3       0.00597136      -0.00156341       0.00192943       0.00010574       0.00007454       0.00010431       0.00005492       0.00008334       0.00002159       0.00005752       0.00001376       0.00015924
Cl       1.06296026       9.13968791       3.07991009        3       0.00166665      -0.00125034       0.00169837       0.00003626      -0.00010618       0.00002448      -0.00007551       0.00014485      -0.00002015       0.00001490       0.00000739       0.00001883
Cl       3.38734380       5.14593041       2.17040855        3       0.00108035      -0.00253395      -0.00024660       0.00010389      -0.00007314      -0.00003970      -0.00009660       0.00009424       0.00008025      -0.00002929       0.00005336       0.00004618
Cl       4.46960250       7.59182955      15.02396909        3      -0.00428702       0.00304832      -0.00098984      -0.00000793      -0.00000635       0.00002488      -0.00001984       0.00003609      -0.00001320       0.00001961      -0.00002462       0.00025421
Cl       6.14150673       6.03028149      17.73101005        3       0.00084017       0.00887949      -0.00087428       0.00013695      -0.00008276      -0.00002106      -0.00007626       0.00010615       0.00001096       0.00000277      -0.00000670       0.00004413
Cl       2.63760085       5.65196297      17.39189975        3      -0.00028306       0.00378870       0.00421562       0.00007695       0.00003284       0.00000983       0.00004851       0.00007201      -0.00001393      -0.00002549      -0.00002977      -0.00013334
O        0.90061874       7.95316903       6.19310884        3       0.00082269       0.00308448      -0.00217890       0.00001498       0.00036614       0.00010082       0.00039384       0.00117355       0.00043147       0.00014963       0.00042458       0.00024924
O       -0.02059256       5.70596493       6.42651721        3       0.01030583       0.00119739       0.00992392       0.00023133       0.00036117      -0.00030407       0.00034308       0.00084600      -0.00053743      -0.00027387      -0.00056486       0.00059456
O       19.35724914       7.16699885       4.63780201        3       0.00034724      -0.00937725       0.00535274      -0.00028332       0.00026950       0.00095534       0.00024840       0.00005578      -0.00035354       0.00095559      -0.00034667       0.00059048
O        1.46253733       6.17161423       4.51172502        3       0.00507848      -0.00083956       0.00388384       0.00078157      -0.00042420      -0.00041720      -0.00042079       0.00025697       0.00063714      -0.00040867       0.00064388       0.00024381
O        3.60242543       8.34889636       1.77871634        3      -0.00152339      -0.00107967       0.00079455       0.00065916       0.00033445       0.00029312       0.00031101       0.00038780       0.00003738       0.00036425       0.00006283       0.00134449
O        2.55652503       9.57566391      -0.10511072        3      -0.00402754       0.00239308       0.00261243      -0.00065190      -0.00023340      -0.00030856      -0.00018461       0.00117182      -0.00038330      -0.00033108      -0.00041554      -0.00003156
O        4.06336713       7.62170534      19.62539425        3      -0.00190382       0.00665294      -0.00129102       0.00069372      -0.00029502      -0.00050911      -0.00031249       0.00030603       0.00019210      -0.00055765       0.00022232      -0.00048352
O        1.88908821       7.27851270      20.73127431        3      -0.00204459       0.00155464       0.00079807       0.00103798       0.00073251       0.00002979       0.00069147       0.00061694      -0.00005592       0.00001631      -0.00007627       0.00070921
S        0.43117498       6.73767714       5.55525930        3       0.00415262      -0.00130357       0.00418237      -0.00201746      -0.00015194       0.00010873      -0.00014045      -0.00250045      -0.00009340       0.00004479      -0.00003899      -0.00219700
S        3.02796339       8.20527695       0.43278134        3      -0.00274264       0.00194628       0.00076778      -0.00199438      -0.00008043       0.00009592      -0.00004295      -0.00211527      -0.00001826       0.00003968      -0.00002623      -0.00219517
Zr      17.73928280       7.89785977       4.93782309        3       0.00078112      -0.00564277      -0.00210742       0.00102671      -0.00070604      -0.00022926      -0.00073221      -0.00024091       0.00012316      -0.00025154       0.00013155      -0.00049981
Zr       0.96250456       9.82797837      19.15789718        3      -0.00578226      -0.00296991       0.00326646       0.00065935      -0.00015508       0.00066528      -0.00016550      -0.00037917      -0.00008303       0.00068932      -0.00009337       0.00001166
Zr       2.02384226       6.93645075       2.85040311        3       0.00178184      -0.00242633       0.00211852      -0.00095139      -0.00020886      -0.00023865      -0.00021040      -0.00067470      -0.00017142      -0.00023937      -0.00018452      -0.00068110
Zr       4.25205343       7.45843300      17.77740284        3      -0.00155908       0.00533384      -0.00142185      -0.00052039      -0.00010376      -0.00015490      -0.00009911      -0.00061635       0.00013869      -0.00013241       0.00012003       0.00050260
Cl       6.69969574      14.12812746      20.04201081        4       0.00479291       0.01051061      -0.00203236       0.00009403      -0.00001248      -0.00005106      -0.00004714       0.00011205       0.00004997      -0.00006877       0.00003418       0.00005908
Cl       7.53801587      17.19876603      21.36208891        4      -0.01100912       0.01184412       0.00463918       0.00016148      -0.00000138       0.00003901      -0.00001971       0.00010866       0.00001871       0.00006131       0.00001581       0.00000577
Cl       3.39198446      14.77765323       0.68935375        4       0.00195752      -0.00813732      -0.00653969       0.00023254       0.00005511       0.00008362       0.00007998       0.00006871       0.00003704       0.00005213       0.00001562       0.00005091
Cl       4.25461281      18.21951990      14.60573437        4      -0.00746701       0.00027282       0.00334946       0.00021956       0.00002446       0.00000706       0.00002594       0.00016441      -0.00008897      -0.00003146      -0.00010084       0.00013424
Cl       2.56503219      14.69600274      16.38887355        4      -0.00544665       0.00063595       0.00749776       0.00014895       0.00001675       0.00005395       0.00002120       0.00021592       0.00002256       0.00004615      -0.00001994       0.00009025
Cl       1.21465190      16.95465242      14.80911184        4      -0.00998890       0.00181616       0.00944735       0.00012623       0.00001298       0.00004339       0.00000178       0.00013395      -0.00004440       0.00004468      -0.00003165       0.00007725
Cl       7.31317752      18.80299468       5.40104076        4      -0.00913671       0.00177764       0.00289485       0.00011939       0.00008718       0.00000276       0.00007652       0.00032669      -0.00003700       0.00001018      -0.00002530       0.00009346
Cl       4.38539790      17.44752620       5.82721660        4      -0.00729983       0.00221766       0.00639651       0.00024439      -0.00003680       0.00002616      -0.00002372       0.00000762      -0.00000202       0.00004511      -0.00001321       0.00015032
Cl       4.57016850      17.55852395       2.46964555        4      -0.01583123      -0.01072587       0.00458975       0.00008295      -0.00002058      -0.00010293       0.00000887       0.00010450       0.00008817      -0.00011326       0.00011001       0.00008351
Cl       6.03613256      17.38480570       8.67867999        4      -0.00238531      -0.00429546       0.00367323       0.00001294      -0.00003981      -0.00001500      -0.00006041      -0.00006321       0.00009411      -0.00002741       0.00010285       0.00024004
Cl       8.79155639      16.10597010       7.01943620        4      -0.00261366       0.00107405      -0.00382239       0.00020215      -0.00002868       0.00004716      -0.00004548       0.00005959      -0.00003781       0.00002681      -0.00003606       0.00003017
Cl       5.32773538      16.15387142      16.67099754        4      -0.00491831       0.00310011       0.00583980       0.00019849      -0.00002224       0.00000584      -0.00004428       0.00016442       0.00002599       0.00004116      -0.00000127       0.00014234
Cl       2.33817985       1.85900094      19.03898280        4      -0.00350382       0.00494729      -0.00235324       0.00011561      -0.00005484      -0.00003874      -0.00008665       0.00008765       0.00004933      -0.00004643       0.00003970       0.00005037
Cl       1.97654225      -0.70927080      16.79251050        4      -0.00503896      -0.00015772       0.00433502       0.00028140      -0.00002227       0.00005369      -0.00002660       0.00025103       0.00008357       0.00005800       0.00008136       0.00018710
Cl       4.96469121       1.37739866      16.32585995        4       0.00383856      -0.00246885       0.00154308       0.00002818       0.00003607      -0.00002191       0.00002718      -0.00000514      -0.00003230      -0.00001856      -0.00004596       0.00009849
Cl       5.77101466      20.71557597      19.66163004        4      -0.00043399      -0.00120402      -0.00045821       0.00009090       0.00001975       0.00005251       0.00003280      -0.00006159       0.00000401       0.00004380       0.00001067       0.00011947
O        8.08872306      14.60870886       2.63466486        4       0.00020167       0.00685441       0.00202826       0.00074648       0.00007937      -0.00070326       0.00008007       0.00009074      -0.00004003      -0.00071393      -0.00004061       0.00060235
O        6.99139551      13.55155134       4.52446842        4       0.00083082       0.00295811       0.00060512       0.00009305      -0.00011559       0.00004567      -0.00007722       0.00066917      -0.00070613       0.00001994      -0.00073788       0.00073883
O        6.92975462      16.02461923       4.32055550        4      -0.01053966       0.00051954       0.00023824       0.00009094      -0.00000439       0.00007097       0.00000734       0.00116093       0.00041066       0.00007635       0.00037049      -0.00053442
O        5.57939789      14.56433843       2.79987237        4      -0.00009665      -0.00512546      -0.00298460       0.00118889       0.00001530       0.00054217      -0.00002750      -0.00018713       0.00035073       0.00052459       0.00038154      -0.00000608
O        4.85180886      17.08525111      -0.46298644        4      -0.00410580       0.00397482       0.00526526       0.00082983      -0.00059060       0.00049772      -0.00060385       0.00071862      -0.00055205       0.00052726      -0.00057113       0.00067107
O        4.43771992      18.63063016      17.68179744        4      -0.00238274       0.00198437       0.00472928       0.00058176       0.00038145      -0.00015660       0.00044920       0.00030990      -0.00023008      -0.00016735      -0.00024040       0.00100259
O        2.72295859      16.98958526      18.35404087        4      -0.00406947       0.00429276       0.00612289       0.00080755       0.00052005       0.00046851       0.00052824       0.00060793       0.00030855       0.00048003       0.00037412      -0.00024783
O        3.24355201      19.02187057      19.72861874        4      -0.00220484       0.00484854       0.00292219       0.00037014      -0.00025373      -0.00038871      -0.00032650       0.00109270       0.00030201      -0.00037306       0.00019590       0.00070657
S        6.98271335      14.62111761       3.55934209        4      -0.00151348       0.00123714      -0.00011209      -0.00214800       0.00005544       0.00026854       0.00006083      -0.00211249       0.00012615       0.00028721       0.00014881      -0.00200573
S        3.78496573      17.86185362      19.01190355        4      -0.00275496       0.00415054       0.00410326      -0.00212158       0.00019218      -0.00030733       0.00025844      -0.00198217      -0.00029116      -0.00027999      -0.00009209      -0.00166075
Zr       5.49454062      15.68716303       1.25941232        4      -0.00297932       0.00018326       0.00120922      -0.00069347       0.00006018      -0.00003644       0.00006454      -0.00051261      -0.00020093      -0.00003288      -0.00017518      -0.00014444
Zr       3.06358276      17.06477680      16.43329041        4      -0.00603840       0.00206417       0.00621568      -0.00081203      -0.00016423      -0.00025659      -0.00016003      -0.00094414      -0.00005123      -0.00029833      -0.00009858      -0.00001356
Zr       6.56765002      16.40429198       6.14709569        4      -0.00467595       0.00075318       0.00100435      -0.00034990       0.00030179      -0.00024353       0.00026899       0.00003666      -0.00012040      -0.00021120      -0.00005293       0.00043576
Zr       3.92036341      20.49344808      18.14210201        4      -0.00084097       0.00270049       0.00137894      -0.00058712      -0.00010749       0.00005794      -0.00016516      -0.00018730       0.00023104       0.00005957       0.00020762      -0.00071238
Cl       8.21442512       6.94238239      10.38954062        5       0.00501161      -0.00297646      -0.00220633       0.00015270       0.00008157       0.00002514       0.00009311       0.00009769       0.00003467       0.00001993       0.00002829       0.00011087
Cl       8.25944123       4.55071312       8.00445898        5      -0.00833446       0.00501803      -0.01106032       0.00004177       0.00000587      -0.00006529      -0.00000341       0.00004705       0.00003423      -0.00008779       0.00005962       0.00017033
Cl       6.00699573       5.23822528      12.09309066        5       0.00471827      -0.00233835      -0.00170788       0.00002036      -0.00000461      -0.00008348      -0.00000939       0.00005350      -0.00002485      -0.00004203      -0.00004130       0.00016959
Cl      14.48134004       1.84162751      11.86505292        5       0.00421417      -0.01542042       0.01835953       0.00018728      -0.00013358      -0.00004780      -0.00008781       0.00006427      -0.00003648      -0.00003644      -0.00003734       0.00002410
Cl      12.64330066       5.46393756      12.20292311        5       0.02095566      -0.01859492       0.03082738       0.00003011       0.00002364       0.00000444       0.00004714       0.00019740       0.00001282       0.00000531       0.00001604       0.00008798
Cl      12.42278388       3.02308016      14.50724783        5      -0.01039736      -0.01481901       0.00155342       0.00006049      -0.00000883       0.00001056      -0.00000796       0.00009913      -0.00003965       0.00003908      -0.00005016       0.00026253
Cl       4.85407234       1.02494382       7.00427219        5       0.00104105      -0.00196460       0.00447434       0.00013894      -0.00008361      -0.00003115      -0.00010429       0.00004994       0.00003069      -0.00003562       0.00001685       0.00014247
Cl       1.03944231       3.25006368       8.42908086        5       0.00059097      -0.00676727       0.01020230       0.00020465      -0.00003111      -0.00002997      -0.00006136       0.00006151      -0.00001661      -0.00004669      -0.00002241       0.00008849
Cl       5.73171219       2.75492245       9.69047371        5       0.00263201       0.00132568       0.00390874       0.00023022       0.00012231       0.00004991       0.00008127       0.00014315       0.00007173       0.00006233       0.00009498       0.00008778
Cl      23.11302395       1.00439889       9.65512092        5       0.00583451      -0.00593311       0.00513849       0.00011882      -0.00000042      -0.00001179       0.00000183       0.00011435      -0.00010183      -0.00000977      -0.00009431       0.00012203
Cl       2.89066880       3.19302078       5.77026902        5      -0.00541700      -0.00705355       0.00463288       0.00004940      -0.00003432      -0.00001426      -0.00003753      -0.00001551      -0.00007797      -0.00001948      -0.00004104       0.00019218
Cl      12.58265926       3.38010629       9.63496634        5       0.01933449       0.00220885       0.00827925      -0.00001154      -0.00000976       0.00001734       0.00000825       0.00002587      -0.00003901      -0.00001269      -0.00001589       0.00019601
Cl       8.60254699      18.52915080      10.95014765        5       0.01190505      -0.00432468      -0.01018694       0.00017274       0.00004941      -0.00006467       0.00003665      -0.00004406      -0.00001379      -0.00005691      -0.00002309       0.00005805
Cl      11.65556100       0.44281116      12.28205772        5      -0.00067056      -0.00660067      -0.01007765       0.00019466       0.00006700       0.00000161       0.00006786       0.00033252       0.00005438       0.00000123       0.00004587       0.00029017
Cl      11.85173868      -2.43739227      10.61926277        5       0.01107583      -0.00124577      -0.01160888       0.00011313      -0.00010854       0.00001457      -0.00013186       0.00015562      -0.00005138       0.00002457      -0.00005427       0.00004340
Cl       9.65391207      -0.66481090       7.86583210        5       0.00682263       0.00026609      -0.01304966       0.00001957       0.00002711       0.00006501       0.00002211       0.00007037       0.00003296       0.00006763       0.00004255       0.00025892
O        5.45791575       5.07336587       6.90280307        5      -0.01012776       0.00884839      -0.00506770       0.00052850      -0.00035427      -0.00055729      -0.00037499       0.00034168       0.00038920      -0.00054135       0.00034478       0.00062812
O        3.64078332       6.58439686       7.54102410        5      -0.01508332      -0.00356042       0.01030362       0.00086036      -0.00062285       0.00018863      -0.00064480       0.00074125      -0.00020969       0.00021312      -0.00021676       0.00026031
O        3.89865280       4.41312888       8.65937862        5       0.00118752      -0.00484510       0.00061571       0.00032406       0.00002154      -0.00045999       0.00016977      -0.00006111      -0.00088501      -0.00046460      -0.00092488       0.00038661
O        5.55195608       6.19216875       9.11146974        5      -0.00256959       0.00087816      -0.00190657       0.00024040       0.00064955       0.00036592       0.00064567       0.00001223       0.00058140       0.00036057       0.00057452       0.00084641
O        8.35313213       3.49299484      10.76312386        5       0.00593087       0.00134019      -0.01108914       0.00084687      -0.00081430       0.00046461      -0.00078035       0.00118739      -0.00054405       0.00046505      -0.00055556       0.00040863
O        9.79143084       1.59730953      10.03100785        5       0.00495838       0.00006932      -0.00984440       0.00023392      -0.00008905      -0.00055662      -0.00012183      -0.00014078       0.00053861      -0.00052624       0.00049806       0.00101440
O       10.39256657       3.04832737      11.99168037        5       0.00298149      -0.00082148      -0.00752185      -0.00024008       0.00048915       0.00055637       0.00040679       0.00037520       0.00018613       0.00052219       0.00019200       0.00040549
O        8.50952080       1.44576848      12.08697277        5       0.00205263       0.00060093      -0.01193555       0.00033856       0.00041089      -0.00029027       0.00042817       0.00063878      -0.00062650      -0.00027011      -0.00058719       0.00054466
S        4.63791369       5.60551489       7.93238154        5      -0.00744786       0.00153609       0.00113036      -0.00223851       0.00024834       0.00008020       0.00028677      -0.00215659      -0.00001056       0.00006488       0.00002900      -0.00218849
S        9.17735601       2.37502151      11.23869854        5       0.00398077       0.00024846      -0.01054754      -0.00217018       0.00005358       0.00006846      -0.00000010      -0.00254835       0.00014633       0.00005609       0.00008831      -0.00222292
Zr       6.82761956       4.97193200       9.81986083        5      -0.00029358       0.00253303      -0.00437006      -0.00042937      -0.00008621       0.00017778      -0.00018921      -0.00050465      -0.00017483       0.00016867      -0.00011754      -0.00061119
Zr      12.22479246       3.12960893      12.08626134        5       0.00236407      -0.01212074      -0.00073663       0.00086446       0.00012835       0.00013923       0.00015052      -0.00067935       0.00006840       0.00016524       0.00008631      -0.00061601
Zr       3.33454231       2.76403265       8.04988950        5      -0.00014553      -0.00476899       0.00392698      -0.00070231       0.00057057       0.00006621       0.00055649       0.00041533       0.00043497       0.00006474       0.00040102      -0.00062099
Zr      10.50107330      -0.17941752      10.07567570        5       0.00423667      -0.00026456      -0.01190007       0.00020852      -0.00001298      -0.00030768      -0.00005307       0.00009242       0.00003217      -0.00033279       0.00002790      -0.00035178
Cl      10.11442430      16.05768266      14.25432507        6      -0.00668544      -0.00042228       0.00147205       0.00005069      -0.00004951      -0.00008007      -0.00004327       0.00008748       0.00004487      -0.00005812       0.00003387       0.00009470
Cl       7.68329677      18.16809978      14.33408417        6      -0.01116093      -0.00321375      -0.00792517       0.00019451      -0.00006370       0.00009870      -0.00004349       0.00009350      -0.00004583       0.00008139      -0.00006396       0.00019022
Cl       8.63217747      15.50116540      17.30219531        6      -0.00864827       0.01712113       0.00179703       0.00007070      -0.00001756      -0.00004135       0.00001182       0.00015842      -0.00009891      -0.00005472      -0.00010295       0.00010433
Cl      13.27074810      16.88297506       1.06447367        6      -0.01141592       0.00793215       0.00639997       0.00001901      -0.00001720      -0.00003941      -0.00002299       0.00005630       0.00004103      -0.00003862       0.00006955       0.00025462
Cl      15.69076019      17.39361060      18.61924052        6      -0.00951295       0.00533498       0.01542494       0.00020724       0.00003843       0.00000460       0.00005297       0.00010213      -0.00003308      -0.00001004      -0.00002891       0.00005694
Cl      14.77241303      14.43273216      19.63364980        6      -0.01384992       0.00335832      -0.00005395       0.00012141      -0.00007858       0.00008072      -0.00013287       0.00020002      -0.00002340       0.00009360      -0.00000293       0.00003602
Cl      13.48069216      16.01673797      16.39868341        6      -0.00332935      -0.00162458       0.00990723      -0.00000059       0.00005470       0.00002537       0.00004701       0.00001859      -0.00000401       0.00002429       0.00001279       0.00018955
Cl       7.85788443      18.80838749      17.49113946        6      -0.00131921       0.01629281      -0.00922414      -0.00005848      -0.00005427      -0.00001306      -0.00006319       0.00011138       0.00005064      -0.00002744       0.00006720       0.00012870
Cl       9.29690064       1.98018898      16.39727853        6       0.01248194       0.01146957      -0.01421357       0.00018810      -0.00006285       0.00007747      -0.00005277       0.00008661      -0.00000153       0.00003950       0.00001582       0.00006200
Cl      11.93238386       2.81905564      18.15586630        6       0.03046629      -0.00739213      -0.01643190       0.00009246       0.00002860       0.00004589       0.00003121       0.00017701       0.00007049       0.00005483       0.00009289       0.00010617
Cl      13.54657952       0.31405995      16.29764092        6      -0.00054023      -0.02437725      -0.02821653       0.00016192      -0.00007302      -0.00004583      -0.00009222       0.00002278       0.00004624      -0.00000480       0.00003513       0.00003987
Cl      10.56973691      19.50816019      15.05651377        6      -0.01110477      -0.00030638      -0.01461042       0.00021518       0.00008368       0.00001415       0.00009128       0.00033086       0.00003018       0.00000344      -0.00001444       0.00019497
O       10.41209521      17.78109349      19.46121975        6      -0.01171490       0.02114447      -0.00818638       0.00032501       0.00033947      -0.00050929       0.00036593       0.00026811      -0.00038665      -0.00048802      -0.00036230       0.00059540
O       11.01372303      17.61519016      17.09468364        6      -0.00299374       0.00616104      -0.00446095      -0.00080731       0.00005277      -0.00048649       0.00001613       0.00028950       0.00047686      -0.00044628       0.00051241       0.00091447
O       10.94870233      19.83924848      18.21894071        6       0.00251368       0.01093277      -0.01664215       0.00008832      -0.00046285       0.00018013      -0.00048072       0.00079844       0.00039584       0.00020429       0.00036202      -0.00059276
O       12.73860555      18.18136040      18.73373077        6      -0.00740496       0.00912546       0.00149426       0.00138201       0.00015812       0.00021002       0.00017953      -0.00061120       0.00005091       0.00022325      -0.00000411       0.00023351
S       11.22001196      18.33987323      18.44918092        6      -0.00493088       0.01203375      -0.00745932      -0.00192527      -0.00005966       0.00025485      -0.00010057      -0.00196543       0.00003792       0.00023216      -0.00000877      -0.00195648
Zr      13.34272014      16.36525069      18.71344372        6      -0.01158456       0.00781917       0.00744310      -0.00048430      -0.00021726       0.00000997      -0.00024079       0.00030906       0.00002938      -0.00002144       0.00008344      -0.00064607
Zr      11.34794374       0.88357461      16.91014733        6       0.00955526       0.00366285      -0.02166462      -0.00050375       0.00026762      -0.00022603       0.00028339       0.00015543      -0.00077797      -0.00024475      -0.00078405       0.00033361
Zr       9.41957331      17.39012080      16.16389005        6      -0.00381798       0.01074491      -0.00535761       0.00044905       0.00016483       0.00054397       0.00015970      -0.00051207       0.00014974       0.00056521       0.00016972      -0.00031817
Cl      -0.52595988      12.52706870      11.75397761        7       0.00297196      -0.00449550       0.00053105       0.00020790      -0.00006340      -0.00001844      -0.00005749       0.00006759       0.00006316      -0.00002915       0.00006761       0.00012283
Cl      -0.42120938      13.77100769      14.78729210        7      -0.00289478       0.00022344      -0.00068600       0.00013880      -0.00005485       0.00014548      -0.00002390       0.00003418       0.00002403       0.00013139      -0.00001204       0.00019072
Cl      18.23622396      15.94511429      12.17314548        7       0.00044286      -0.00406516      -0.00461603      -0.00001073      -0.00003320       0.00001122      -0.00003533       0.00010239      -0.00004178       0.00001377      -0.00005374      -0.00001331
Cl      13.57308572      14.66967783       8.53312610        7       0.00293494       0.00255956      -0.00258854       0.00008992      -0.00007318       0.00000178      -0.00005710       0.00004558      -0.00000604      -0.00001494       0.00000398      -0.00002498
Cl      17.23094271      11.36196880       9.01182050        7       0.00105082      -0.00246753      -0.00800992       0.00012696      -0.00003715       0.00006610      -0.00004673       0.00013568      -0.00003311       0.00006313      -0.00002700       0.00006715
Cl      14.57822704      11.56913923       7.11285899        7       0.00024676      -0.00019003      -0.00517877       0.00003363       0.00003988       0.00006282       0.00002645       0.00004177       0.00005474       0.00004329       0.00004808       0.00005537
Cl      17.08880008      14.59435632       8.95671182        7       0.00347490      -0.00049992      -0.00419571       0.00010472      -0.00000077       0.00002186       0.00000527       0.00016195      -0.00000033       0.00003152       0.00000383       0.00001702
Cl      16.33210677      14.37821333      14.90740594        7      -0.00181262      -0.00148115      -0.00651667       0.00019097       0.00003885      -0.00002930       0.00004892       0.00016787       0.00002827      -0.00001825       0.00001830       0.00005714
Cl      15.48613118      11.85707152      17.25823060        7      -0.00119685      -0.00047590      -0.00436851       0.00012881       0.00002846       0.00004528       0.00002890       0.00016918      -0.00008690       0.00006272      -0.00007008       0.00020302
Cl      12.65584905      12.71551982      15.60608875        7      -0.00020439       0.00170289      -0.00666158       0.00017278      -0.00002826      -0.00010375      -0.00002999       0.00004710       0.00002601      -0.00006498       0.00001593       0.00009492
Cl      14.18429978      10.10256561      13.88328890        7      -0.01003600      -0.00167601      -0.00883044      -0.00000106       0.00005406      -0.00005028       0.00001970       0.00014234       0.00005286      -0.00005573       0.00007517       0.00001854
Cl      17.26185637      11.38806621      14.32745047        7      -0.00348884      -0.00299679      -0.00335785       0.00025204      -0.00002656       0.00000967      -0.00000915       0.00029348       0.00001655      -0.00000620       0.00003703       0.00009220
O       15.10429323      14.82079336      11.44388952        7       0.00577974      -0.00214050      -0.00340798       0.00000224       0.00002047      -0.00003720      -0.00001344       0.00114674      -0.00031406      -0.00004020      -0.00031487       0.00005384
O       16.70071413      12.98470224      11.87628373        7       0.00342483      -0.00510602      -0.00667698       0.00091377      -0.00064553      -0.00028798      -0.00069680       0.00016236      -0.00030167      -0.00028810      -0.00027069      -0.00047043
O       14.47254534      13.07134463      13.05502669        7       0.00224311      -0.00372544      -0.00680237       0.00028788       0.00026265      -0.00069238       0.00027813       0.00010290       0.00018585      -0.00076363       0.00015748       0.00028323
O       14.60211586      12.51855666      10.64832002        7       0.00290552       0.00010652      -0.00780068       0.00019692       0.00021888       0.00062530       0.00022274       0.00052244       0.00069937       0.00068117       0.00070534       0.00000900
S       15.19174086      13.44423229      11.75509057        7       0.00402191      -0.00268986      -0.00561948      -0.00199919      -0.00002685       0.00018699       0.00000390      -0.00235970       0.00007021       0.00015374       0.00009826      -0.00169318
Zr      15.28087621      13.01130316       8.95693831        7       0.00335744       0.00015132      -0.00691504      -0.00038250       0.00021947      -0.00035957       0.00021001      -0.00039880      -0.00021246      -0.00033750      -0.00021856       0.00051440
Zr      14.79121066      12.26529927      14.71471924        7      -0.00145775      -0.00467117      -0.00636284      -0.00049932      -0.00010148       0.00005397      -0.00012710      -0.00017985      -0.00050606       0.00011644      -0.00050381       0.00051115
Zr      17.94703842      13.76443142      13.06596224        7      -0.00000524      -0.00338518      -0.00330560      -0.00006734       0.00025708       0.00040537       0.00031123      -0.00023642       0.00028913       0.00037948       0.00028987      -0.00006576
Cl       3.55896994      15.63329706      12.09711044        8      -0.00844076      -0.00017032       0.00794685       0.00016864      -0.00008297       0.00004576      -0.00006572       0.00019414       0.00000013       0.00003574       0.00000414      -0.00003359
Cl       3.15986702      12.83903757      13.63008449        8      -0.00435360      -0.00079950       0.00794563       0.00011530       0.00000922      -0.00004696       0.00000092       0.00010303      -0.00003486      -0.00003050      -0.00003554       0.00015443
Cl       3.93829389      12.60116355      10.48594764        8      -0.00572141       0.00240613       0.00128061      -0.00001240       0.00004104       0.00002637       0.00004842       0.00001474       0.00009255       0.00001901       0.00011215       0.00011465
Cl       6.35047789      14.96237464      13.84342546        8      -0.00444791      -0.00820445       0.00824890       0.00008886       0.00001875       0.00005988       0.00003072       0.00011133       0.00004447       0.00006669       0.00005550       0.00014042
O        7.68580927      13.89662759       9.31323729        8      -0.00937414       0.00591281       0.00410123       0.00022959      -0.00008692      -0.00024808      -0.00008193       0.00018241       0.00028741      -0.00024311       0.00029425       0.00131058
O        5.96020845      14.89686979      10.80354983        8      -0.00210492       0.00584683       0.01192905       0.00126769      -0.00049191      -0.00018236      -0.00050261       0.00054895       0.00002707      -0.00016617       0.00000834       0.00029031
O        6.85416905      12.80430926      11.53898023        8      -0.01049196      -0.00128090       0.00046668       0.00034323       0.00006022      -0.00008701       0.00003243       0.00100910      -0.00042531      -0.00006707      -0.00039246       0.00055158
O        8.39808473      14.90454934      11.40598835        8      -0.00070208      -0.01044700       0.00845825       0.00074526       0.00041542       0.00051450       0.00041174       0.00032890       0.00034893       0.00048165       0.00033140       0.00050015
S        7.36715227      14.21381840      10.66166704        8      -0.00591835      -0.00099739       0.00635028      -0.00240094      -0.00008624      -0.00018427      -0.00005915      -0.00160669      -0.00040321      -0.00016928      -0.00040339      -0.00233596
Zr       5.08462978      13.63534830      12.28876577        8      -0.00695690       0.00032895       0.00401099      -0.00086779       0.00006607       0.00001529       0.00002834      -0.00081562       0.00015388       0.00002051       0.00010088      -0.00075342
Cl       2.43048511       0.83057681      13.63578376        9       0.00504291       0.00047989       0.00843041       0.00016485      -0.00004874      -0.00002405      -0.00006347       0.00004847      -0.00001381      -0.00000494      -0.00002572       0.00001674
Cl      19.27383968       0.68045811      13.17220407        9       0.00574713      -0.00982950       0.02085495       0.00014444       0.00005880       0.00002137       0.00008596       0.00014627       0.00000548       0.00005105       0.00002430       0.00008171
Cl      -0.18705708       1.93766057      16.09997346        9       0.00284107       0.00201629       0.01500443       0.00007862       0.00005251      -0.00001595       0.00006897       0.00009695      -0.00003245      -0.00001705      -0.00000803       0.00014264
Cl      -0.52151445       3.80053887      12.31362941        9      -0.00283731      -0.00991876       0.01170876       0.00007403      -0.00003436       0.00000402      -0.00001453       0.00012896      -0.00005904      -0.00000210      -0.00005238       0.00006320
O        3.83913062       4.44506815      14.42278066        9       0.00236227       0.00065680      -0.00063236       0.00130793      -0.00010197       0.00048042      -0.00009342       0.00022920       0.00000890       0.00047016       0.00001645       0.00036595
O        2.28671904       3.55052272      12.74838391        9      -0.00268885      -0.00297078       0.00593559       0.00050419       0.00027553      -0.00002285       0.00024963       0.00087898       0.00058343      -0.00005865       0.00051612       0.00121497
O        1.43901215       3.81554104      14.93017976        9       0.00504780      -0.00247209       0.00888696       0.00063134       0.00023524      -0.00057642       0.00020350       0.00020707      -0.00050436      -0.00063333      -0.00055410       0.00061100
O        2.04376906       5.88096950      13.53712391        9      -0.00231935      -0.00284036       0.00417172       0.00029578      -0.00041717       0.00015042      -0.00042865       0.00125835      -0.00036269       0.00015666      -0.00035081       0.00018776
S        2.50825261       4.51108554      13.89668892        9       0.00017367      -0.00190562       0.00433067      -0.00238012       0.00012073      -0.00028058       0.00015948      -0.00242973      -0.00001229      -0.00018708       0.00007834      -0.00211416
Zr       0.68830599       2.36226249      13.82095638        9       0.00208707      -0.00365711       0.01292705      -0.00068446      -0.00015186       0.00031211      -0.00015873      -0.00039279       0.00033346       0.00030919       0.00032944      -0.00055473
Li       6.16637277       7.48188302      13.07913243       10      -0.00249338      -0.00113275       0.00210233      -0.00000187       0.00003847       0.00000599       0.00004877       0.00005159      -0.00001737       0.00000991      -0.00000281      -0.00004941
Li       5.21380758      12.88131654       4.00796067       11       0.00084305      -0.00068928      -0.00042852       0.00001035       0.00004303      -0.00004749       0.00004995       0.00006213       0.00006354      -0.00001390       0.00007384       0.00007808
Li      13.73895640      17.13718575       9.13061220       12       0.01068894      -0.00206426      -0.00496341      -0.00006496       0.00003720       0.00002518       0.00002118       0.00012112      -0.00004433       0.00004035      -0.00005377      -0.00002851
Li       6.46222515       8.33911947       9.44503674       13       0.01203420       0.00512365       0.00010806      -0.00003025       0.00000489       0.00007439       0.00004227       0.00009098       0.00003797       0.00008203       0.00000715      -0.00004086
Li      16.59290189      10.14814053       7.14449511       14      -0.00095468       0.00092773      -0.00643476       0.00003647      -0.00007496      -0.00003750      -0.00005908       0.00004417       0.00007214      -0.00002040       0.00007237       0.00003719
Li       4.46880140      -1.24713304       7.67007189       15      -0.00246885      -0.00108208       0.00849528      -0.00003325      -0.00004135      -0.00000409      -0.00001597       0.00008290       0.00000128      -0.00000076       0.00001765      -0.00004138
Li      12.77827782      14.46443970      21.18708423       16      -0.01581372       0.00463042       0.00441945      -0.00002934      -0.00003782      -0.00000139      -0.00004948       0.00015558      -0.00012581       0.00000691      -0.00012828       0.00004357
Li       3.33327705       9.92028198       3.89234877       17       0.00347214      -0.00462829       0.00076344       0.00002159       0.00010324       0.00000009       0.00010772       0.00010596       0.00001416       0.00000982       0.00000086      -0.00000358
Li      14.88284243       2.20926701       9.51918277       18       0.01033888      -0.00448615       0.01913785       0.00002844      -0.00000803      -0.00001912       0.00004250       0.00002825       0.00006067      -0.00000343       0.00003898       0.00005560
Li       5.33267429       7.84860102       6.32984162       19       0.01417039      -0.00457788      -0.00383692      -0.00005290       0.00002166       0.00000883       0.00000042      -0.00002963       0.00000417       0.00002034       0.00004060      -0.00001412
Li      14.44611264      18.71020877       0.07155638       20      -0.00997313       0.00893004       0.01002461       0.00002248       0.00002047       0.00003332       0.00004687      -0.00003800       0.00005165       0.00003108       0.00004118      -0.00009906
Li       8.67152270      13.42773697       1.20167753       21       0.00367104       0.01339513      -0.00000463       0.00010772      -0.00010016      -0.00005536      -0.00010744       0.00006086       0.00008168      -0.00005458       0.00007986       0.00003447
Li      18.80285697      16.16028485       9.53628035       22       0.00034685      -0.00056647       0.00033883      -0.00001851       0.00001603      -0.00004590       0.00003063      -0.00006244       0.00000293      -0.00004657       0.00001021      -0.00006769
Li       0.58063076       4.27230537      16.63165589       23       0.00107253       0.00361514       0.00629111       0.00000732      -0.00004153      -0.00006461      -0.00006484      -0.00002655       0.00004964      -0.00008444       0.00002479       0.00006741
Li      13.56489397      -0.39224494      11.24764973       24       0.00749395      -0.01602389       0.00693580       0.00002140      -0.00006784       0.00001049      -0.00007260       0.00002006       0.00006812      -0.00000975       0.00006179      -0.00003812
Li       8.42268707      17.72864699       8.70984104       25      -0.00420939       0.00864130      -0.01189747       0.00001032       0.00006777       0.00000030       0.00009162       0.00007537       0.00005169       0.00001120       0.00003473      -0.00004908
Li      15.16709278      12.11250260      -0.23794021       26       0.00161986       0.00231877       0.00125024       0.00002695       0.00004035      -0.00007398       0.00004904      -0.00003769       0.00006301      -0.00008942       0.00005293       0.00013704
Li      17.24022188       2.80131889      17.49326341       27       0.02002020      -0.00519883       0.00945261      -0.00005081       0.00003056      -0.00004576       0.00001889      -0.00001425      -0.00002601      -0.00004119      -0.00002968       0.00002270
Li       6.06382864      18.40906650      16.02505740       28      -0.00490475       0.00183858      -0.00167777       0.00003492       0.00003082      -0.00000621       0.00005353      -0.00010689      -0.00003447       0.00000899      -0.00002999      -0.00006869
Li      17.83178139      11.20844110      11.24181926       29       0.00680819      -0.00358796      -0.00743848       0.00001247      -0.00000411      -0.00000494      -0.00005269      -0.00000321       0.00000436      -0.00000910       0.00000438       0.00001929
Li       6.71084342      17.89505645       3.37020808       30      -0.01925832       0.00265364       0.00466751      -0.00001393       0.00001363       0.00000350       0.00000848       0.00012150      -0.00002285      -0.00001531      -0.00003630       0.00003213
Li       8.11414121      16.38887879      12.71321006       31      -0.00848386      -0.01183388       0.00335800      -0.00007019       0.00000517       0.00005069      -0.00000054       0.00009857       0.00009596       0.00006326       0.00010510       0.00002150
Li      -0.05456386       5.93682942      13.26538732       32      -0.00268695      -0.00609033       0.00325410       0.00008878      -0.00010402      -0.00004290      -0.00009560       0.00000219       0.00003167      -0.00003823       0.00001725      -0.00000919
Li      13.43465454      11.01388752      11.83288030       33      -0.00227867       0.00349793      -0.01138283       0.00015699       0.00000736       0.00002148       0.00000609      -0.00003120      -0.00004919       0.00000612      -0.00003438      -0.00005030
Li      17.46666139      18.91918552      19.34585685       34      -0.01502406       0.00694105       0.01032171      -0.00003665      -0.00000073      -0.00002126      -0.00000321       0.00001294       0.00006312      -0.00001811       0.00005779       0.00005224
Li       4.56719876      15.49820012       9.60086100       35      -0.00008167      -0.00873585       0.00167953       0.00008253      -0.00006022       0.00004190      -0.00007543       0.00002429      -0.00002023       0.00005956      -0.00003321       0.00009083
Li       2.10077782       7.08105832      15.09301044       36      -0.00337533       0.00048984       0.00121575      -0.00003825      -0.00001158       0.00001902      -0.00000451       0.00001137       0.00008238       0.00000447       0.00009432       0.00009207
Li       2.68207825       8.40003044       6.66221691       37       0.00148881      -0.00348020      -0.00092637       0.00018120       0.00004503       0.00005724       0.00004548       0.00005604       0.00004428       0.00005062       0.00003066       0.00004124
Li       6.69231416      18.23971876      -0.70694677       38       0.00195302      -0.01847279      -0.01953638       0.00005859      -0.00001532      -0.00002776      -0.00000891      -0.00004872      -0.00007414      -0.00003325      -0.00009288      -0.00004155
Li      19.31715162       8.35305461      21.74541414       39       0.00623434      -0.00444689       0.00057204       0.00002447       0.00002616       0.00000104       0.00002926      -0.00006373      -0.00005911      -0.00001133      -0.00005668       0.00005616
Li      21.93015815      14.71302794      14.08404874       40      -0.00317808       0.00008468       0.00400910      -0.00006736      -0.00001250      -0.00005363       0.00000307      -0.00008526       0.00002438      -0.00003638       0.00004406      -0.00005402
Li      12.39910568       2.67857183       7.31727533       41       0.03303309       0.01321776       0.00567404       0.00003554      -0.00006521      -0.00003544      -0.00004253       0.00007721      -0.00001165      -0.00005034       0.00000608      -0.00000170
