224
Lattice="7.992 0.0 0.0 0.0 25.13 0.0 0.0 0.0 25.53" Properties=species:S:1:pos:R:3:id:I:1:type:I:1 comment="(written by ASE)" pbc="T T T"
Li       0.00000000       1.29419500       8.16960000        1        1
Li       0.00000000      11.27080500       1.78710000        2        1
Li       1.99800000       7.57669500       8.16960000        3        1
Li       1.99800000       4.98830500       1.78710000        4        1
Nb       0.00000000       3.14125000       3.86779500        5        2
Nb       0.00000000       9.42375000      10.25029500        6        2
Nb       1.99800000       9.42375000       3.86779500        7        2
Nb       1.99800000       3.14125000      10.25029500        8        2
Cl       0.00000000       1.43241000       5.31024000        9        4
Cl       0.00000000      11.13259000      11.69274000       10        4
Cl       1.99800000       7.71491000       5.31024000       11        4
Cl       1.99800000       4.85009000      11.69274000       12        4
Cl       0.00000000       0.37695000       2.70618000       13        4
Cl       0.00000000      12.18805000       9.08868000       14        4
Cl       1.99800000       6.65945000       2.70618000       15        4
Cl       1.99800000       5.90555000       9.08868000       16        4
Cl       0.00000000       4.72444000       5.02941000       17        4
Cl       0.00000000       7.84056000      11.41191000       18        4
Cl       1.99800000      11.00694000       5.02941000       19        4
Cl       1.99800000       1.55806000      11.41191000       20        4
Cl       0.00000000       4.08362500       1.55733000       21        4
Cl       0.00000000       8.48137500       7.93983000       22        4
Cl       1.99800000      10.36612500       1.55733000       23        4
Cl       1.99800000       2.19887500       7.93983000       24        4
O        0.00000000       3.19151000       9.50992500       25        3
O        0.00000000       9.37349000       3.12742500       26        3
O        1.99800000       9.47401000       9.50992500       27        3
O        1.99800000       3.09099000       3.12742500       28        3
Li       0.00000000       1.29419500      20.93460000       29        1
Li       0.00000000      11.27080500      14.55210000       30        1
Li       1.99800000       7.57669500      20.93460000       31        1
Li       1.99800000       4.98830500      14.55210000       32        1
Nb       0.00000000       3.14125000      16.63279500       33        2
Nb       0.00000000       9.42375000      23.01529500       34        2
Nb       1.99800000       9.42375000      16.63279500       35        2
Nb       1.99800000       3.14125000      23.01529500       36        2
Cl       0.00000000       1.43241000      18.07524000       37        4
Cl       0.00000000      11.13259000      24.45774000       38        4
Cl       1.99800000       7.71491000      18.07524000       39        4
Cl       1.99800000       4.85009000      24.45774000       40        4
Cl       0.00000000       0.37695000      15.47118000       41        4
Cl       0.00000000      12.18805000      21.85368000       42        4
Cl       1.99800000       6.65945000      15.47118000       43        4
Cl       1.99800000       5.90555000      21.85368000       44        4
Cl       0.00000000       4.72444000      17.79441000       45        4
Cl       0.00000000       7.84056000      24.17691000       46        4
Cl       1.99800000      11.00694000      17.79441000       47        4
Cl       1.99800000       1.55806000      24.17691000       48        4
Cl       0.00000000       4.08362500      14.32233000       49        4
Cl       0.00000000       8.48137500      20.70483000       50        4
Cl       1.99800000      10.36612500      14.32233000       51        4
Cl       1.99800000       2.19887500      20.70483000       52        4
O        0.00000000       3.19151000      22.27492500       53        3
O        0.00000000       9.37349000      15.89242500       54        3
O        1.99800000       9.47401000      22.27492500       55        3
O        1.99800000       3.09099000      15.89242500       56        3
Li       0.00000000      13.85919500       8.16960000       57        1
Li       0.00000000      23.83580500       1.78710000       58        1
Li       1.99800000      20.14169500       8.16960000       59        1
Li       1.99800000      17.55330500       1.78710000       60        1
Nb       0.00000000      15.70625000       3.86779500       61        2
Nb       0.00000000      21.98875000      10.25029500       62        2
Nb       1.99800000      21.98875000       3.86779500       63        2
Nb       1.99800000      15.70625000      10.25029500       64        2
Cl       0.00000000      13.99741000       5.31024000       65        4
Cl       0.00000000      23.69759000      11.69274000       66        4
Cl       1.99800000      20.27991000       5.31024000       67        4
Cl       1.99800000      17.41509000      11.69274000       68        4
Cl       0.00000000      12.94195000       2.70618000       69        4
Cl       0.00000000      24.75305000       9.08868000       70        4
Cl       1.99800000      19.22445000       2.70618000       71        4
Cl       1.99800000      18.47055000       9.08868000       72        4
Cl       0.00000000      17.28944000       5.02941000       73        4
Cl       0.00000000      20.40556000      11.41191000       74        4
Cl       1.99800000      23.57194000       5.02941000       75        4
Cl       1.99800000      14.12306000      11.41191000       76        4
Cl       0.00000000      16.64862500       1.55733000       77        4
Cl       0.00000000      21.04637500       7.93983000       78        4
Cl       1.99800000      22.93112500       1.55733000       79        4
Cl       1.99800000      14.76387500       7.93983000       80        4
O        0.00000000      15.75651000       9.50992500       81        3
O        0.00000000      21.93849000       3.12742500       82        3
O        1.99800000      22.03901000       9.50992500       83        3
O        1.99800000      15.65599000       3.12742500       84        3
Li       0.00000000      13.85919500      20.93460000       85        1
Li       0.00000000      23.83580500      14.55210000       86        1
Li       1.99800000      20.14169500      20.93460000       87        1
Li       1.99800000      17.55330500      14.55210000       88        1
Nb       0.00000000      15.70625000      16.63279500       89        2
Nb       0.00000000      21.98875000      23.01529500       90        2
Nb       1.99800000      21.98875000      16.63279500       91        2
Nb       1.99800000      15.70625000      23.01529500       92        2
Cl       0.00000000      13.99741000      18.07524000       93        4
Cl       0.00000000      23.69759000      24.45774000       94        4
Cl       1.99800000      20.27991000      18.07524000       95        4
Cl       1.99800000      17.41509000      24.45774000       96        4
Cl       0.00000000      12.94195000      15.47118000       97        4
Cl       0.00000000      24.75305000      21.85368000       98        4
Cl       1.99800000      19.22445000      15.47118000       99        4
Cl       1.99800000      18.47055000      21.85368000      100        4
Cl       0.00000000      17.28944000      17.79441000      101        4
Cl       0.00000000      20.40556000      24.17691000      102        4
Cl       1.99800000      23.57194000      17.79441000      103        4
Cl       1.99800000      14.12306000      24.17691000      104        4
Cl       0.00000000      16.64862500      14.32233000      105        4
Cl       0.00000000      21.04637500      20.70483000      106        4
Cl       1.99800000      22.93112500      14.32233000      107        4
Cl       1.99800000      14.76387500      20.70483000      108        4
O        0.00000000      15.75651000      22.27492500      109        3
O        0.00000000      21.93849000      15.89242500      110        3
O        1.99800000      22.03901000      22.27492500      111        3
O        1.99800000      15.65599000      15.89242500      112        3
Li       3.99600000       1.29419500       8.16960000      113        1
Li       3.99600000      11.27080500       1.78710000      114        1
Li       5.99400000       7.57669500       8.16960000      115        1
Li       5.99400000       4.98830500       1.78710000      116        1
Nb       3.99600000       3.14125000       3.86779500      117        2
Nb       3.99600000       9.42375000      10.25029500      118        2
Nb       5.99400000       9.42375000       3.86779500      119        2
Nb       5.99400000       3.14125000      10.25029500      120        2
Cl       3.99600000       1.43241000       5.31024000      121        4
Cl       3.99600000      11.13259000      11.69274000      122        4
Cl       5.99400000       7.71491000       5.31024000      123        4
Cl       5.99400000       4.85009000      11.69274000      124        4
Cl       3.99600000       0.37695000       2.70618000      125        4
Cl       3.99600000      12.18805000       9.08868000      126        4
Cl       5.99400000       6.65945000       2.70618000      127        4
Cl       5.99400000       5.90555000       9.08868000      128        4
Cl       3.99600000       4.72444000       5.02941000      129        4
Cl       3.99600000       7.84056000      11.41191000      130        4
Cl       5.99400000      11.00694000       5.02941000      131        4
Cl       5.99400000       1.55806000      11.41191000      132        4
Cl       3.99600000       4.08362500       1.55733000      133        4
Cl       3.99600000       8.48137500       7.93983000      134        4
Cl       5.99400000      10.36612500       1.55733000      135        4
Cl       5.99400000       2.19887500       7.93983000      136        4
O        3.99600000       3.19151000       9.50992500      137        3
O        3.99600000       9.37349000       3.12742500      138        3
O        5.99400000       9.47401000       9.50992500      139        3
O        5.99400000       3.09099000       3.12742500      140        3
Li       3.99600000       1.29419500      20.93460000      141        1
Li       3.99600000      11.27080500      14.55210000      142        1
Li       5.99400000       7.57669500      20.93460000      143        1
Li       5.99400000       4.98830500      14.55210000      144        1
Nb       3.99600000       3.14125000      16.63279500      145        2
Nb       3.99600000       9.42375000      23.01529500      146        2
Nb       5.99400000       9.42375000      16.63279500      147        2
Nb       5.99400000       3.14125000      23.01529500      148        2
Cl       3.99600000       1.43241000      18.07524000      149        4
Cl       3.99600000      11.13259000      24.45774000      150        4
Cl       5.99400000       7.71491000      18.07524000      151        4
Cl       5.99400000       4.85009000      24.45774000      152        4
Cl       3.99600000       0.37695000      15.47118000      153        4
Cl       3.99600000      12.18805000      21.85368000      154        4
Cl       5.99400000       6.65945000      15.47118000      155        4
Cl       5.99400000       5.90555000      21.85368000      156        4
Cl       3.99600000       4.72444000      17.79441000      157        4
Cl       3.99600000       7.84056000      24.17691000      158        4
Cl       5.99400000      11.00694000      17.79441000      159        4
Cl       5.99400000       1.55806000      24.17691000      160        4
Cl       3.99600000       4.08362500      14.32233000      161        4
Cl       3.99600000       8.48137500      20.70483000      162        4
Cl       5.99400000      10.36612500      14.32233000      163        4
Cl       5.99400000       2.19887500      20.70483000      164        4
O        3.99600000       3.19151000      22.27492500      165        3
O        3.99600000       9.37349000      15.89242500      166        3
O        5.99400000       9.47401000      22.27492500      167        3
O        5.99400000       3.09099000      15.89242500      168        3
Li       3.99600000      13.85919500       8.16960000      169        1
Li       3.99600000      23.83580500       1.78710000      170        1
Li       5.99400000      20.14169500       8.16960000      171        1
Li       5.99400000      17.55330500       1.78710000      172        1
Nb       3.99600000      15.70625000       3.86779500      173        2
Nb       3.99600000      21.98875000      10.25029500      174        2
Nb       5.99400000      21.98875000       3.86779500      175        2
Nb       5.99400000      15.70625000      10.25029500      176        2
Cl       3.99600000      13.99741000       5.31024000      177        4
Cl       3.99600000      23.69759000      11.69274000      178        4
Cl       5.99400000      20.27991000       5.31024000      179        4
Cl       5.99400000      17.41509000      11.69274000      180        4
Cl       3.99600000      12.94195000       2.70618000      181        4
Cl       3.99600000      24.75305000       9.08868000      182        4
Cl       5.99400000      19.22445000       2.70618000      183        4
Cl       5.99400000      18.47055000       9.08868000      184        4
Cl       3.99600000      17.28944000       5.02941000      185        4
Cl       3.99600000      20.40556000      11.41191000      186        4
Cl       5.99400000      23.57194000       5.02941000      187        4
Cl       5.99400000      14.12306000      11.41191000      188        4
Cl       3.99600000      16.64862500       1.55733000      189        4
Cl       3.99600000      21.04637500       7.93983000      190        4
Cl       5.99400000      22.93112500       1.55733000      191        4
Cl       5.99400000      14.76387500       7.93983000      192        4
O        3.99600000      15.75651000       9.50992500      193        3
O        3.99600000      21.93849000       3.12742500      194        3
O        5.99400000      22.03901000       9.50992500      195        3
O        5.99400000      15.65599000       3.12742500      196        3
Li       3.99600000      13.85919500      20.93460000      197        1
Li       3.99600000      23.83580500      14.55210000      198        1
Li       5.99400000      20.14169500      20.93460000      199        1
Li       5.99400000      17.55330500      14.55210000      200        1
Nb       3.99600000      15.70625000      16.63279500      201        2
Nb       3.99600000      21.98875000      23.01529500      202        2
Nb       5.99400000      21.98875000      16.63279500      203        2
Nb       5.99400000      15.70625000      23.01529500      204        2
Cl       3.99600000      13.99741000      18.07524000      205        4
Cl       3.99600000      23.69759000      24.45774000      206        4
Cl       5.99400000      20.27991000      18.07524000      207        4
Cl       5.99400000      17.41509000      24.45774000      208        4
Cl       3.99600000      12.94195000      15.47118000      209        4
Cl       3.99600000      24.75305000      21.85368000      210        4
Cl       5.99400000      19.22445000      15.47118000      211        4
Cl       5.99400000      18.47055000      21.85368000      212        4
Cl       3.99600000      17.28944000      17.79441000      213        4
Cl       3.99600000      20.40556000      24.17691000      214        4
Cl       5.99400000      23.57194000      17.79441000      215        4
Cl       5.99400000      14.12306000      24.17691000      216        4
Cl       3.99600000      16.64862500      14.32233000      217        4
Cl       3.99600000      21.04637500      20.70483000      218        4
Cl       5.99400000      22.93112500      14.32233000      219        4
Cl       5.99400000      14.76387500      20.70483000      220        4
O        3.99600000      15.75651000      22.27492500      221        3
O        3.99600000      21.93849000      15.89242500      222        3
O        5.99400000      22.03901000      22.27492500      223        3
O        5.99400000      15.65599000      15.89242500      224        3
