272
Lattice="20.1148 0.0 0.0 0.0 20.1148 0.0 0.0 0.0 20.1148" Properties=species:S:1:pos:R:3 material=0.5Li2SO4-ZrCl4 role="common-cell transport-series start" pbc="T T T"
Cl       9.75091000      11.85350000       6.30560000
Cl       6.26625000      11.86920000       3.77392000
Cl       7.21558000       9.69880000       5.61987000
Cl       5.37441000      10.66230000       7.97234000
Cl       6.13259000       8.55977000      10.93510000
Cl       5.95210000      15.29420000      11.69720000
Cl       1.85992000      13.83420000       5.10335000
Cl       2.89519000      12.07560000       2.46720000
Cl       3.31037000      10.30610000       5.06079000
Cl       5.88735000      17.41520000       9.38121000
Cl       8.98083000       7.81438000      12.49150000
Cl      11.41800000      13.15870000      12.24580000
Cl      10.84400000      10.06220000      10.78250000
Cl       2.84949000      16.36850000       8.09431000
Cl       2.86265000      16.93270000      11.48850000
Cl       2.97877000      13.70180000      10.31980000
O        9.41049000       7.77385000       7.15804000
O        8.90936000       7.42894000       9.52527000
O        8.43264000       9.65671000       8.71114000
O        7.05993000       7.48971000       7.83531000
O        5.72851000      15.40830000       6.20381000
O        5.47054000      14.32640000       8.47506000
O        4.38760000      13.20980000       6.42335000
O        6.83595000      13.22860000       6.86500000
S        8.45391000       7.98247000       8.19483000
S        5.53760000      14.09830000       6.96329000
Zr       7.62131000      11.45160000       7.56426000
Zr       8.44167000       9.36672000      10.66130000
Zr       3.92051000      12.76730000       4.60978000
Zr       4.44009000      15.46130000       9.59680000
Cl      15.72760000      13.28390000      19.10840000
Cl      16.25240000      10.33340000       0.10041500
Cl       9.76973000       9.18818000      19.38240000
Cl      13.11820000      10.77770000      20.04630000
Cl       9.33367000      12.33740000      18.36490000
Cl      17.11700000       5.26714000      17.55930000
Cl      14.92180000       4.07269000      15.90890000
Cl      14.91380000       6.94299000      19.76450000
Cl      12.13990000       5.80600000      17.32800000
Cl      12.57520000       5.49727000      14.07050000
Cl       6.64852000      10.69200000      19.86770000
Cl       9.11736000      15.45130000      17.18240000
Cl       8.84154000      10.18880000       2.62685000
Cl      14.50020000      10.18540000      10.44070000
Cl      15.54620000       7.55481000      13.36480000
Cl      17.68050000       8.34971000      16.27760000
O        9.50817000      13.10300000       3.05898000
O       10.29540000      12.36730000       0.93572400
O        7.94454000      12.88770000       1.11699000
O        9.50133000      14.82380000       1.42481000
O       15.17220000       9.34983000      17.62630000
O       14.31060000       9.58601000      15.46830000
O       14.50440000       7.34904000      16.36240000
O       12.80400000       8.76665000      17.33350000
S        9.28246000      13.41730000       1.68141000
S       14.05950000       8.78513000      16.73450000
Zr      14.83750000      11.14410000      18.36950000
Zr       8.95031000      11.06200000       0.30388700
Zr      14.64770000       5.94720000      17.54200000
Zr      16.08150000       9.65565000      14.76310000
Cl      17.98490000       1.22133000       9.00284000
Cl      15.50310000      17.18960000       9.70793000
Cl      15.43670000       0.17171600      11.38720000
Cl      18.36860000      18.22560000      10.75500000
Cl      17.88430000      18.31190000       7.61889000
Cl      11.84650000       5.32808000       1.00437000
Cl      12.39930000      18.19410000       1.79080000
Cl      14.71710000      18.17550000       4.43212000
Cl      16.42910000       0.50840800       2.79000000
Cl      15.38310000      18.42410000       0.31739500
Cl      11.81520000       4.12910000       6.39024000
Cl      10.62440000       1.18195000       5.45763000
Cl      15.17750000       2.66454000       6.20124000
Cl      14.20210000       3.69596000      19.64530000
Cl      14.02260000       6.65248000       3.13601000
Cl      16.54570000       4.76013000       1.66763000
O       12.88950000       0.21559600       6.91237000
O       12.91890000      19.18030000       9.04789000
O       15.07220000      20.05760000       8.16056000
O       13.40560000       1.53866000       8.91596000
O       13.57810000       1.17234000       4.12207000
O       11.86140000       2.52529000       2.72379000
O       14.21480000       3.09142000       2.67057000
O       13.46130000       0.84288500       1.78801000
S       13.52420000       0.25768000       8.26583000
S       13.16630000       1.96552000       2.83043000
Zr      16.53520000      19.43800000       9.24661000
Zr      14.46610000      19.41650000       2.27074000
Zr      13.03170000       1.84994000       5.88030000
Zr      14.17810000       4.74106000       1.75944000
Cl       2.46626000       5.02134000       2.11102000
Cl       2.82281000       5.29929000      10.21810000
Cl       0.69714100       8.22227000       9.82649000
Cl       0.30379500       9.14439000      13.32100000
Cl       3.97658000       7.56155000       8.31509000
Cl       4.76126000       7.21980000      15.81990000
Cl       0.73102800       9.31996000       1.84167000
Cl      19.15600000       7.42364000      19.38140000
Cl      19.61000000      10.48940000      19.18090000
Cl       2.78645000      10.67730000      19.40670000
Cl       6.64498000       6.87327000       2.98964000
Cl       4.59615000       8.94046000       2.13739000
Cl       5.55496000       4.07988000       1.62809000
Cl       1.42368000       8.05859000      17.10110000
Cl       3.68748000       3.89765000      16.13680000
Cl       0.87796700       4.87284000      17.82410000
O        5.19310000       7.12397000       5.46230000
O        2.98969000       6.10522000       5.96947000
O        3.36965000       7.14066000       3.84406000
O        4.56424000       5.05977000       4.24654000
O        3.92496000       8.19896000      18.57180000
O        2.31814000       7.32894000      20.05820000
O        3.53261000       5.69414000      18.59170000
O        4.65313000       6.73823000       0.31644700
S        4.01981000       6.42338000       4.95369000
S        3.64784000       7.02842000      19.33960000
Zr       2.99123000       5.48966000       7.77382000
Zr       1.20941000       8.85368000      19.64430000
Zr       4.44401000       6.38096000       2.15811000
Zr       2.86484000       6.02292000      16.75630000
Cl       7.00488000      16.08470000      19.89320000
Cl       4.33873000      19.67840000       1.34960000
Cl       4.71043000      14.09670000      18.45680000
Cl       0.35922300      17.87680000      16.98120000
Cl       3.42438000      15.07800000      14.31480000
Cl       1.60284000      14.52790000      16.91750000
Cl       7.45431000      18.04650000       2.84882000
Cl       4.55660000      17.81530000       4.71989000
Cl       2.41213000      15.31050000       0.45239600
Cl       7.50814000      18.26320000       6.24739000
Cl       8.77818000      15.49720000       5.53171000
Cl       3.04712000      18.39530000      14.80280000
Cl       1.67004000       2.14743000       0.71481100
Cl       0.95968100      19.19760000       0.02124760
Cl       1.53804000       1.47019000      17.85790000
Cl       4.53877000       1.91772000      19.15080000
O        5.40681000      14.05460000       1.38283000
O        4.23121000      14.48880000       3.62182000
O        6.63685000      14.94250000       3.43446000
O        4.98561000      16.21300000       2.04026000
O        4.42686000      17.48360000      19.59740000
O        5.70802000      18.02690000      17.61190000
O        3.51048000      16.68750000      17.32960000
O        3.54783000      19.13790000      18.03500000
S        5.36025000      14.91890000       2.67915000
S        4.29706000      17.81730000      18.10900000
Zr       4.66625000      15.62820000       0.05564680
Zr       2.21376000      16.57000000      16.00570000
Zr       6.49415000      16.37280000       4.73974000
Zr       2.95317000       0.09039940      19.46280000
Cl       8.65995000       4.24398000       7.99439000
Cl       7.81619000       0.90259700       8.30283000
Cl       7.16676000       5.22849000      10.74940000
Cl      11.83500000       2.10713000      14.08720000
Cl      11.27420000       5.45148000      10.60900000
Cl       9.48526000       4.26858000      13.10780000
Cl       8.16721000       4.31194000       4.77489000
Cl       0.55351400       5.01403000       7.84287000
Cl       6.60294000       2.02550000      11.58240000
Cl       7.05658000       1.31349000       3.97057000
Cl       4.04079000       1.94925000       4.02077000
Cl      14.05640000       3.86362000      11.93310000
Cl       8.97565000      18.32700000      10.77000000
Cl      12.32780000      19.40190000      12.03790000
Cl      11.68080000      16.63260000      10.07230000
Cl      10.41180000      18.43720000       7.52425000
O        5.87537000       5.04569000       7.59377000
O        3.78105000       3.71545000       7.46517000
O        5.80922000       2.97906000       6.25368000
O        5.60047000       2.94500000       8.78781000
O        9.40655000       2.84253000      10.48160000
O       10.53650000       0.78581200       9.61165000
O       11.67580000       2.37358000      11.08520000
O        9.65138000       0.90489000      11.91420000
S        5.31763000       3.70331000       7.52258000
S       10.29050000       1.62807000      10.83830000
Zr       7.44612000       2.91550000       9.55956000
Zr      11.68050000       3.90006000      12.34560000
Zr       5.74138000       3.56734000       4.47258000
Zr      11.23520000      19.10680000       9.98719000
Cl       6.42891000      18.82410000      13.33080000
Cl       8.79726000       2.41342000      16.38210000
Cl       6.38547000      16.02880000      15.11150000
Cl       9.85325000      17.80190000      19.31260000
Cl      12.88850000      18.13080000      17.99030000
Cl      11.62940000      14.98740000      18.95880000
Cl      12.33410000      15.48240000      15.72920000
Cl       5.71108000       0.49578100      15.82220000
Cl       7.72828000       0.57171700      18.98000000
Cl      10.90400000       0.85045400       0.13657600
Cl      12.12750000       2.03579000      17.61450000
Cl       9.44848000       3.91254000      19.18410000
O        8.23690000      18.50870000      16.43890000
O        9.37990000      19.86570000      14.75650000
O       10.24960000      19.81530000      17.05790000
O       10.54410000      17.88470000      15.60970000
S        9.58478000      19.00360000      15.91160000
Zr      11.00940000      16.90300000      17.18820000
Zr       9.84453000       1.18025000      18.07490000
Zr       6.44634000      18.30580000      15.85130000
Cl       0.39246300      16.29300000      13.85460000
Cl      18.26850000      14.08640000      15.35790000
Cl      19.97420000      14.68420000      11.01830000
Cl      17.71910000       9.88345000       9.20863000
Cl       1.13756000      12.84930000      13.63730000
Cl      18.47590000       6.95955000      11.37090000
Cl       0.06709660      11.56680000      10.83330000
Cl      16.99050000      14.85600000      12.49450000
Cl      13.21820000      12.14650000      16.94430000
Cl      17.29420000      13.49990000       8.31428000
Cl      15.06390000      11.07780000       7.31300000
Cl      16.62540000      11.52470000      16.40440000
O       16.86270000      11.80330000      11.27710000
O       18.27360000      11.84940000      13.24050000
O       15.88350000      11.22920000      13.53950000
O       17.51190000       9.69431000      12.44960000
S       17.03740000      11.20380000      12.61590000
Zr      19.08320000       9.48354000      11.38400000
Zr      15.98450000      11.88460000       9.47651000
Zr      19.01350000      13.56930000      13.16230000
Cl       8.89001000      15.36440000       8.85570000
Cl      11.35500000      13.16860000       9.07179000
Cl       9.60571000      15.88560000      12.57790000
Cl      14.37710000      13.51270000      10.14730000
O        6.21587000      12.37120000      10.43050000
O        8.34816000      13.56540000      11.15120000
O        8.01369000      11.08740000      11.38920000
O        8.33516000      12.25850000       9.16705000
S        7.63997000      12.32240000      10.56200000
Zr       9.92508000      14.36410000      10.69270000
Cl       1.84518000       2.50683000      12.85640000
Cl      19.71220000       3.56256000      10.96410000
Cl      19.19300000       1.35016000      14.50910000
Cl      17.65260000       4.46750000      13.47500000
O       19.57390000       6.36885000      15.29340000
O        0.51411700       5.47327000      13.23240000
O        1.93675000       6.31224000      14.85060000
O        0.48060300       4.15151000      15.13040000
S        0.62010100       5.63309000      14.73130000
Zr      19.89280000       3.39580000      13.49570000
Li       9.00389000       5.99322000      11.26970000
Li       8.27746000      13.06090000       4.71679000
Li      17.64070000      15.66970000      10.41840000
Li       5.94955000       6.43475000       9.04889000
Li       0.38054500       5.93396000      10.67200000
Li       9.18566000      20.04450000       6.67761000
Li       9.44174000      15.17760000      19.63690000
Li       6.70593000       9.53443000       3.37396000
Li       2.83757000       3.34802000      18.40930000
Li       7.20243000       6.23163000       6.36629000
Li      11.78030000       4.33713000      19.14690000
Li       6.17303000      12.36720000       1.36078000
Li       1.68025000      14.81420000      12.63710000
Li       3.63894000       2.73506000       1.65322000
Li      13.63590000       1.31165000      10.97430000
Li       7.34566000      16.95810000      11.56720000
Li      11.73410000      12.69800000      19.08510000
Li      12.46400000       3.74131000      16.02200000
Li       4.60275000      16.92710000      12.98360000
Li      17.97310000       7.01624000      14.06010000
Li       5.76862000      19.50990000       3.56675000
Li       8.95298000       1.40440000      13.73560000
Li      15.02660000       5.10695000      13.78980000
Li      12.62100000      11.84760000      10.69600000
Li      12.14420000      19.05010000      19.79850000
Li       8.33328000      17.47850000       8.35190000
Li      19.58620000       6.65697000      17.33450000
Li       5.21478000       8.77789000       6.49287000
Li       7.65864000      18.44740000       0.04737170
Li       2.77008000       9.71807000       2.99107000
Li      17.52160000       9.06390000      18.65930000
Li       9.53148000       3.10816000       6.26672000
