480
Lattice="22.755933290545215 0.0 0.0 -11.377966645272616 19.7072163164362 0.0 0.0 0.0 24.557962622937733" Properties=species:S:1:pos:R:3:masses:R:1:momenta:R:3:id:I:1:type:I:1 comment="LAMMPS data file via write_data, version 10 Sep 2025, timestep = 1362, units = metal" pbc="T T T"
Cl      -3.88826905       8.56125811       4.57484736      35.45000001      -0.00466496       0.00238452      -0.00973003       13        3
Cl      -3.88826905       8.56125811      10.71433801      35.45000001      -0.00466496       0.00238452      -0.00973003       43        3
Li       3.73478565       0.15600217      -0.16885881       6.94000000      -0.00079506      -0.00436274      -0.00126041        1        1
Li      -1.84949097       3.38008578       0.00021750       6.94000000      -0.00338071      -0.00286992       0.00126041        3        1
Li       3.56281619       6.30630954      -0.08432066       6.94000000      -0.00109699      -0.00190004       0.00000000        5        1
Y       -0.11686596      -0.06708689      -0.08432066      88.90584002       0.01783682       0.03089427       0.00000000       10        2
Y        0.02398304       6.31578721       3.07380067      88.90584002       0.00585495      -0.01918788      -0.05498832       11        2
Cl      -0.39230862       2.10773504       4.65515300      35.45000001      -0.01326597       0.00818932      -0.00167465       15        3
Cl       3.50801925       8.65798918       4.74951358      35.45000001       0.01370841       0.00590281      -0.00815596       17        3
Cl       1.90430641       0.78178373       1.31569634      35.45000001       0.01372515      -0.00739401       0.00167465       18        3
Cl      -2.09188844       7.48633069       1.69891243      35.45000001       0.00502434      -0.00438547      -0.02462402       19        3
Cl      -0.31951527       4.16187710       1.66472754      35.45000001      -0.00630496      -0.01413945      -0.00829132       21        3
Cl       1.71942801       7.69560263       1.57079156      35.45000001       0.00791440      -0.00663628      -0.01647570       23        3
Cl       3.64684894       1.87189565       4.30612180      35.45000001      -0.00909264      -0.01252998       0.00829132       24        3
Cl       1.74554687       5.44352399       4.67779757      35.45000001       0.00939127      -0.00289636      -0.02472769       25        3
Cl       3.72425664       4.30111537       1.29305177      35.45000001      -0.00720396       0.00668490       0.02472769       26        3
Cl      -0.17778455       8.71760300       4.46028750      35.45000001       0.01035126      -0.01169068      -0.01290201       27        3
Cl      -2.12074929       5.32538275       4.54474140      35.45000001      -0.00454525       0.00720439      -0.01412212       29        3
Li       3.73478565       0.15600217       5.97063185       6.94000000      -0.00079506      -0.00436274      -0.00126041       31        1
Li      -1.84949097       3.38008578       6.13970815       6.94000000      -0.00338071      -0.00286992       0.00126041       33        1
Li       3.56281619       6.30630954       6.05517000       6.94000000      -0.00109699      -0.00190004      -0.00000000       35        1
Y       -0.11686595      -0.06708689       6.05517000      88.90584002       0.01783682       0.03089427      -0.00000000       40        2
Y        0.02398304       6.31578721       9.21329132      88.90584002       0.00585495      -0.01918788      -0.05498832       41        2
Cl      -0.39230862       2.10773504      10.79464366      35.45000001      -0.01326597       0.00818932      -0.00167465       45        3
Cl       3.50801925       8.65798918      10.88900423      35.45000001       0.01370841       0.00590281      -0.00815596       47        3
Cl       1.90430641       0.78178373       7.45518700      35.45000001       0.01372515      -0.00739401       0.00167465       48        3
Cl      -2.09188844       7.48633069       7.83840309      35.45000001       0.00502434      -0.00438547      -0.02462402       49        3
Cl      -0.31951527       4.16187710       7.80421820      35.45000001      -0.00630496      -0.01413945      -0.00829132       51        3
Cl       1.71942801       7.69560263       7.71028222      35.45000001       0.00791440      -0.00663628      -0.01647570       53        3
Cl       3.64684894       1.87189565      10.44561246      35.45000001      -0.00909264      -0.01252998       0.00829132       54        3
Cl       1.74554687       5.44352399      10.81728823      35.45000001       0.00939127      -0.00289636      -0.02472769       55        3
Cl       3.72425664       4.30111537       7.43254242      35.45000001      -0.00720396       0.00668490       0.02472769       56        3
Cl      -0.17778455       8.71760300      10.59977816      35.45000001       0.01035126      -0.01169068      -0.01290201       57        3
Cl      -2.12074929       5.32538275      10.68423206      35.45000001      -0.00454525       0.00720439      -0.01412212       59        3
Li      -2.11492989       9.68550505       2.92119647       6.94000000       0.00899043      -0.00030923      -0.00323152       66        1
Li       1.85309393       9.67135046       3.05220546       6.94000000       0.00067462      -0.00161239       0.00128630       67        1
Li      -2.11492989       9.68550505       9.06068712       6.94000000       0.00899043      -0.00030923      -0.00323152       96        1
Li       1.85309393       9.67135046       9.19169611       6.94000000       0.00067462      -0.00161239       0.00128630       97        1
Y        5.34044067       3.24632897       2.89704868      88.90584002      -0.01954467      -0.00452340       0.05498832       12        2
Y        5.34044067       3.24632897       9.03653934      88.90584002      -0.01954467      -0.00452340       0.05498832       42        2
Li       1.65630717       9.66502580      -0.03072334       6.94000000       0.00608336      -0.00013862       0.00127230       62        1
Li       1.65630717       9.66502580       6.10876731       6.94000000       0.00608336      -0.00013862       0.00127230       92        1
Cl       9.24120155       0.98095472       1.39600199      35.45000001       0.00439753      -0.00284772       0.00973003       14        3
Cl       5.62682897       7.43469382       1.22133577      35.45000001      -0.00174222       0.01482324       0.00815596       16        3
Cl       7.41209679       1.99920225       4.27193691      35.45000001      -0.00631010       0.00215847       0.02462402       20        3
Cl       5.68767339       5.40453509       4.40005778      35.45000001      -0.00970438       0.00353593       0.01647570       22        3
Cl       5.55509141       0.89373405       1.42610794      35.45000001       0.00851181      -0.00033410       0.01412212       28        3
Cl       7.52135795       4.27250100       1.51056184      35.45000001      -0.01530006       0.00311911       0.01290201       30        3
Cl       9.24120155       0.98095472       7.53549264      35.45000001       0.00439753      -0.00284772       0.00973003       44        3
Cl       5.62682897       7.43469382       7.36082642      35.45000001      -0.00174222       0.01482324       0.00815596       46        3
Cl       7.41209680       1.99920225      10.41142757      35.45000001      -0.00631010       0.00215847       0.02462402       50        3
Cl       5.68767339       5.40453509      10.53954844      35.45000001      -0.00970438       0.00353593       0.01647570       52        3
Cl       5.55509141       0.89373405       7.56559860      35.45000001       0.00851181      -0.00033410       0.01412212       58        3
Cl       7.52135795       4.27250100       7.65005250      35.45000001      -0.01530006       0.00311911       0.01290201       60        3
Li       9.52847567       3.38008578       0.00021750       6.94000000      -0.00338071      -0.00286992       0.00126041      123        1
Li       7.42480431       6.33458243      -0.13791797       6.94000000      -0.00316173       0.00519903      -0.00127230      124        1
Li       9.32815839       3.07883495       3.04965288       6.94000000      -0.00476301       0.00763133       0.00323152      128        1
Li       7.33188823       6.50816709       2.91864389       6.94000000      -0.00173368      -0.00022195      -0.00128630      129        1
Y       11.26110069      -0.06708689      -0.08432065      88.90584002       0.01783682       0.03089427       0.00000000      130        2
Y       11.40194968       6.31578722       3.07380066      88.90584002       0.00585495      -0.01918788      -0.05498832      131        2
Cl       7.48969759       8.56125811       4.57484736      35.45000001      -0.00466496       0.00238452      -0.00973003      133        3
Cl      10.98565802       2.10773504       4.65515300      35.45000001      -0.01326597       0.00818932      -0.00167465      135        3
Cl      13.28227306       0.78178373       1.31569634      35.45000001       0.01372515      -0.00739401       0.00167465      138        3
Cl       9.28607820       7.48633069       1.69891243      35.45000001       0.00502434      -0.00438547      -0.02462402      139        3
Cl      11.05845138       4.16187710       1.66472754      35.45000001      -0.00630496      -0.01413945      -0.00829132      141        3
Cl      13.09739465       7.69560263       1.57079156      35.45000001       0.00791440      -0.00663628      -0.01647570      143        3
Cl      13.12351352       5.44352399       4.67779758      35.45000001       0.00939127      -0.00289636      -0.02472769      145        3
Cl      11.20018209       8.71760300       4.46028750      35.45000001       0.01035126      -0.01169068      -0.01290201      147        3
Cl       9.25721735       5.32538275       4.54474140      35.45000001      -0.00454525       0.00720439      -0.01412212      149        3
Li       9.52847567       3.38008578       6.13970815       6.94000000      -0.00338071      -0.00286992       0.00126041      153        1
Li       7.42480431       6.33458243       6.00157269       6.94000000      -0.00316173       0.00519903      -0.00127230      154        1
Li       9.32815839       3.07883495       9.18914353       6.94000000      -0.00476301       0.00763133       0.00323152      158        1
Li       7.33188823       6.50816709       9.05813454       6.94000000      -0.00173368      -0.00022195      -0.00128630      159        1
Y       11.26110069      -0.06708689       6.05517000      88.90584002       0.01783682       0.03089427       0.00000000      160        2
Y       11.40194968       6.31578722       9.21329132      88.90584002       0.00585495      -0.01918788      -0.05498832      161        2
Cl       7.48969759       8.56125811      10.71433801      35.45000001      -0.00466496       0.00238452      -0.00973003      163        3
Cl      10.98565802       2.10773504      10.79464366      35.45000001      -0.01326597       0.00818932      -0.00167465      165        3
Cl      13.28227306       0.78178373       7.45518700      35.45000001       0.01372515      -0.00739401       0.00167465      168        3
Cl       9.28607820       7.48633069       7.83840309      35.45000001       0.00502434      -0.00438547      -0.02462402      169        3
Cl      11.05845138       4.16187710       7.80421819      35.45000001      -0.00630496      -0.01413945      -0.00829132      171        3
Cl      13.09739465       7.69560263       7.71028222      35.45000001       0.00791440      -0.00663628      -0.01647570      173        3
Cl      13.12351352       5.44352399      10.81728823      35.45000001       0.00939127      -0.00289636      -0.02472769      175        3
Cl      11.20018209       8.71760300      10.59977816      35.45000001       0.01035126      -0.01169068      -0.01290201      177        3
Cl       9.25721735       5.32538275      10.68423206      35.45000001      -0.00454525       0.00720439      -0.01412212      179        3
Li       9.26303675       9.68550505       2.92119647       6.94000000       0.00899043      -0.00030923      -0.00323152      186        1
Li      13.23106058       9.67135046       3.05220546       6.94000000       0.00067462      -0.00161239       0.00128630      187        1
Li       9.26303675       9.68550505       9.06068712       6.94000000       0.00899043      -0.00030923      -0.00323152      216        1
Li      13.23106058       9.67135046       9.19169611       6.94000000       0.00067462      -0.00161239       0.00128630      217        1
Li      13.03427381       9.66502580      -0.03072334       6.94000000       0.00608336      -0.00013862       0.00127230      182        1
Li      13.03427381       9.66502580       6.10876731       6.94000000       0.00608336      -0.00013862       0.00127230      212        1
Li      -3.95316234       6.33458243      -0.13791797       6.94000000      -0.00316173       0.00519903      -0.00127230        4        1
Li      -3.95316234       6.33458243       6.00157269       6.94000000      -0.00316173       0.00519903      -0.00127230       34        1
Li      -4.04607841       6.50816709       2.91864389       6.94000000      -0.00173368      -0.00022195      -0.00128630        9        1
Li      -4.04607841       6.50816709       9.05813454       6.94000000      -0.00173368      -0.00022195      -0.00128630       39        1
Li      -2.04980826       3.07883495       3.04965288       6.94000000      -0.00476301       0.00763133       0.00323152        8        1
Li      -2.04980826       3.07883495       9.18914353       6.94000000      -0.00476301       0.00763133       0.00323152       38        1
Li      14.94078283       6.30630954      -0.08432066       6.94000000      -0.00109699      -0.00190004       0.00000000      125        1
Y       16.71840732       3.24632897       2.89704868      88.90584002      -0.01954467      -0.00452340       0.05498832      132        2
Cl      20.61916820       0.98095472       1.39600199      35.45000001       0.00439753      -0.00284772       0.00973003      134        3
Cl      17.00479561       7.43469382       1.22133577      35.45000001      -0.00174222       0.01482324       0.00815596      136        3
Cl      14.88598589       8.65798918       4.74951358      35.45000001       0.01370841       0.00590281      -0.00815596      137        3
Cl      18.79006344       1.99920225       4.27193691      35.45000001      -0.00631010       0.00215847       0.02462402      140        3
Cl      17.06564003       5.40453509       4.40005778      35.45000001      -0.00970438       0.00353593       0.01647570      142        3
Cl      15.02481559       1.87189565       4.30612181      35.45000001      -0.00909264      -0.01252998       0.00829132      144        3
Cl      15.10222328       4.30111537       1.29305177      35.45000001      -0.00720396       0.00668490       0.02472769      146        3
Cl      16.93305806       0.89373405       1.42610794      35.45000001       0.00851181      -0.00033410       0.01412212      148        3
Cl      18.89932460       4.27250100       1.51056184      35.45000001      -0.01530006       0.00311911       0.01290201      150        3
Li      14.94078283       6.30630954       6.05517000       6.94000000      -0.00109699      -0.00190004      -0.00000000      155        1
Y       16.71840732       3.24632897       9.03653934      88.90584002      -0.01954467      -0.00452340       0.05498832      162        2
Cl      20.61916820       0.98095472       7.53549264      35.45000001       0.00439753      -0.00284772       0.00973003      164        3
Cl      17.00479561       7.43469382       7.36082642      35.45000001      -0.00174222       0.01482324       0.00815596      166        3
Cl      14.88598589       8.65798918      10.88900423      35.45000001       0.01370841       0.00590281      -0.00815596      167        3
Cl      18.79006344       1.99920225      10.41142757      35.45000001      -0.00631010       0.00215847       0.02462402      170        3
Cl      17.06564003       5.40453509      10.53954844      35.45000001      -0.00970438       0.00353593       0.01647570      172        3
Cl      15.02481559       1.87189565      10.44561246      35.45000001      -0.00909264      -0.01252998       0.00829132      174        3
Cl      15.10222328       4.30111537       7.43254242      35.45000001      -0.00720396       0.00668490       0.02472769      176        3
Cl      16.93305806       0.89373405       7.56559860      35.45000001       0.00851181      -0.00033410       0.01412212      178        3
Cl      18.89932460       4.27250100       7.65005250      35.45000001      -0.01530006       0.00311911       0.01290201      180        3
Li      15.11275230       0.15600217      -0.16885881       6.94000000      -0.00079506      -0.00436274      -0.00126041      121        1
Li      15.11275230       0.15600217       5.97063185       6.94000000      -0.00079506      -0.00436274      -0.00126041      151        1
Li       7.34529049      -0.18858236      -0.03072334       6.94000000       0.00608336      -0.00013862       0.00127230        2        1
Li       7.34529049      -0.18858236       6.10876731       6.94000000       0.00608336      -0.00013862       0.00127230       32        1
Y       -5.80584928       9.78652126      -0.08432065      88.90584002       0.01783682       0.03089427      -0.00000000       70        2
Y       -5.80584928       9.78652126       6.05517000      88.90584002       0.01783682       0.03089427      -0.00000000      100        2
Li       3.57405343      -0.16810311       2.92119647       6.94000000       0.00899043      -0.00030923      -0.00323152        6        1
Li       3.57405343      -0.16810311       9.06068712       6.94000000       0.00899043      -0.00030923      -0.00323152       36        1
Li       7.54207726      -0.18225770       3.05220546       6.94000000       0.00067462      -0.00161239       0.00128630        7        1
Li       7.54207726      -0.18225770       9.19169611       6.94000000       0.00067462      -0.00161239       0.00128630       37        1
Li      -7.53847430      13.23369394       0.00021750       6.94000000      -0.00338071      -0.00286992       0.00126041       63        1
Y       -5.66500029      16.16939537       3.07380066      88.90584002       0.00585495      -0.01918788      -0.05498832       71        2
Cl      -9.57725238      18.41486627       4.57484736      35.45000001      -0.00466496       0.00238452      -0.00973003       73        3
Cl      -6.08129195      11.96134320       4.65515300      35.45000001      -0.01326597       0.00818932      -0.00167465       75        3
Cl      -3.78467691      10.63539189       1.31569634      35.45000001       0.01372515      -0.00739401       0.00167465       78        3
Cl      -7.78087177      17.33993885       1.69891243      35.45000001       0.00502434      -0.00438547      -0.02462402       79        3
Cl      -6.00849859      14.01548526       1.66472754      35.45000001      -0.00630496      -0.01413945      -0.00829132       81        3
Cl      -3.96955531      17.54921079       1.57079156      35.45000001       0.00791440      -0.00663628      -0.01647570       83        3
Cl      -3.94343645      15.29713215       4.67779757      35.45000001       0.00939127      -0.00289636      -0.02472769       85        3
Cl      -5.86676788      18.57121116       4.46028750      35.45000001       0.01035126      -0.01169068      -0.01290201       87        3
Cl      -7.80973262      15.17899091       4.54474140      35.45000001      -0.00454525       0.00720439      -0.01412212       89        3
Li      -7.53847430      13.23369394       6.13970815       6.94000000      -0.00338071      -0.00286992       0.00126041       93        1
Y       -5.66500029      16.16939537       9.21329132      88.90584002       0.00585495      -0.01918788      -0.05498832      101        2
Cl      -9.57725238      18.41486627      10.71433801      35.45000001      -0.00466496       0.00238452      -0.00973003      103        3
Cl      -6.08129195      11.96134320      10.79464366      35.45000001      -0.01326597       0.00818932      -0.00167465      105        3
Cl      -3.78467691      10.63539189       7.45518700      35.45000001       0.01372515      -0.00739401       0.00167465      108        3
Cl      -7.78087177      17.33993885       7.83840309      35.45000001       0.00502434      -0.00438547      -0.02462402      109        3
Cl      -6.00849859      14.01548526       7.80421820      35.45000001      -0.00630496      -0.01413945      -0.00829132      111        3
Cl      -3.96955531      17.54921079       7.71028222      35.45000001       0.00791440      -0.00663628      -0.01647570      113        3
Cl      -3.94343645      15.29713215      10.81728823      35.45000001       0.00939127      -0.00289636      -0.02472769      115        3
Cl      -5.86676788      18.57121116      10.59977816      35.45000001       0.01035126      -0.01169068      -0.01290201      117        3
Cl      -7.80973262      15.17899091      10.68423206      35.45000001      -0.00454525       0.00720439      -0.01412212      119        3
Li      -1.95419767      10.00961032      -0.16885881       6.94000000      -0.00079506      -0.00436274      -0.00126041       61        1
Li      -1.95419767      10.00961032       5.97063185       6.94000000      -0.00079506      -0.00436274      -0.00126041       91        1
Li      -2.12616713      16.15991770      -0.08432066       6.94000000      -0.00109699      -0.00190004      -0.00000000       65        1
Y       -0.34854265      13.09993713       2.89704868      88.90584002      -0.01954467      -0.00452340       0.05498832       72        2
Cl       3.55221823      10.83456288       1.39600199      35.45000001       0.00439753      -0.00284772       0.00973003       74        3
Cl      -0.06215435      17.28830198       1.22133577      35.45000001      -0.00174222       0.01482324       0.00815596       76        3
Cl      -2.18096408      18.51159734       4.74951358      35.45000001       0.01370841       0.00590281      -0.00815596       77        3
Cl       1.72311347      11.85281041       4.27193691      35.45000001      -0.00631010       0.00215847       0.02462402       80        3
Cl      -0.00130993      15.25814325       4.40005778      35.45000001      -0.00970438       0.00353593       0.01647570       82        3
Cl      -2.04213438      11.72550381       4.30612180      35.45000001      -0.00909264      -0.01252998       0.00829132       84        3
Cl      -1.96472668      14.15472353       1.29305177      35.45000001      -0.00720396       0.00668490       0.02472769       86        3
Cl      -0.13389191      10.74734221       1.42610794      35.45000001       0.00851181      -0.00033410       0.01412212       88        3
Cl       1.83237463      14.12610916       1.51056184      35.45000001      -0.01530006       0.00311911       0.01290201       90        3
Li      -2.12616713      16.15991770       6.05517000       6.94000000      -0.00109699      -0.00190004      -0.00000000       95        1
Y       -0.34854265      13.09993713       9.03653934      88.90584002      -0.01954467      -0.00452340       0.05498832      102        2
Cl       3.55221823      10.83456288       7.53549264      35.45000001       0.00439753      -0.00284772       0.00973003      104        3
Cl      -0.06215435      17.28830198       7.36082642      35.45000001      -0.00174222       0.01482324       0.00815596      106        3
Cl      -2.18096408      18.51159734      10.88900423      35.45000001       0.01370841       0.00590281      -0.00815596      107        3
Cl       1.72311347      11.85281041      10.41142757      35.45000001      -0.00631010       0.00215847       0.02462402      110        3
Cl      -0.00130994      15.25814325      10.53954844      35.45000001      -0.00970438       0.00353593       0.01647570      112        3
Cl      -2.04213438      11.72550381      10.44561246      35.45000001      -0.00909264      -0.01252998       0.00829132      114        3
Cl      -1.96472668      14.15472353       7.43254242      35.45000001      -0.00720396       0.00668490       0.02472769      116        3
Cl      -0.13389191      10.74734221       7.56559860      35.45000001       0.00851181      -0.00033410       0.01412212      118        3
Cl       1.83237463      14.12610916       7.65005250      35.45000001      -0.01530006       0.00311911       0.01290201      120        3
Li      14.95202007      -0.16810311       2.92119647       6.94000000       0.00899043      -0.00030923      -0.00323152      126        1
Li      14.95202007      -0.16810311       9.06068712       6.94000000       0.00899043      -0.00030923      -0.00323152      156        1
Li       3.83949235      13.23369394       0.00021750       6.94000000      -0.00338071      -0.00286992       0.00126041      183        1
Li       1.73582098      16.18819059      -0.13791797       6.94000000      -0.00316173       0.00519903      -0.00127230      184        1
Li       3.63917506      12.93244311       3.04965288       6.94000000      -0.00476301       0.00763133       0.00323152      188        1
Li       1.64290491      16.36177525       2.91864389       6.94000000      -0.00173368      -0.00022195      -0.00128630      189        1
Cl       1.80071427      18.41486627       4.57484736      35.45000001      -0.00466496       0.00238452      -0.00973003      193        3
Cl       3.59709488      17.33993885       1.69891243      35.45000001       0.00502434      -0.00438547      -0.02462402      199        3
Cl       3.56823403      15.17899091       4.54474140      35.45000001      -0.00454525       0.00720439      -0.01412212      209        3
Li       3.83949235      13.23369394       6.13970815       6.94000000      -0.00338071      -0.00286992       0.00126041      213        1
Li       1.73582098      16.18819059       6.00157269       6.94000000      -0.00316173       0.00519903      -0.00127230      214        1
Li       3.63917506      12.93244311       9.18914353       6.94000000      -0.00476301       0.00763133       0.00323152      218        1
Li       1.64290491      16.36177525       9.05813454       6.94000000      -0.00173368      -0.00022195      -0.00128630      219        1
Cl       1.80071427      18.41486627      10.71433801      35.45000001      -0.00466496       0.00238452      -0.00973003      223        3
Cl       3.59709488      17.33993885       7.83840309      35.45000001       0.00502434      -0.00438547      -0.02462402      229        3
Cl       3.56823403      15.17899091      10.68423206      35.45000001      -0.00454525       0.00720439      -0.01412212      239        3
Cl       5.29667470      11.96134320       4.65515300      35.45000001      -0.01326597       0.00818932      -0.00167465      195        3
Cl       5.36946806      14.01548526       1.66472754      35.45000001      -0.00630496      -0.01413945      -0.00829132      201        3
Cl       5.29667470      11.96134320      10.79464366      35.45000001      -0.01326597       0.00818932      -0.00167465      225        3
Cl       5.36946806      14.01548526       7.80421820      35.45000001      -0.00630496      -0.01413945      -0.00829132      231        3
Cl       5.51119877      18.57121116       4.46028750      35.45000001       0.01035126      -0.01169068      -0.01290201      207        3
Cl       5.51119877      18.57121116      10.59977816      35.45000001       0.01035126      -0.01169068      -0.01290201      237        3
Li      18.72325714      -0.18858236      -0.03072334       6.94000000       0.00608336      -0.00013862       0.00127230      122        1
Li      18.72325714      -0.18858236       6.10876731       6.94000000       0.00608336      -0.00013862       0.00127230      152        1
Li      -9.64214566      16.18819059      -0.13791797       6.94000000      -0.00316173       0.00519903      -0.00127230       64        1
Li      -9.64214566      16.18819059       6.00157269       6.94000000      -0.00316173       0.00519903      -0.00127230       94        1
Li       9.42376898      10.00961032      -0.16885881       6.94000000      -0.00079506      -0.00436274      -0.00126041      181        1
Y        5.57211737       9.78652127      -0.08432066      88.90584002       0.01783682       0.03089427       0.00000000      190        2
Li       9.42376898      10.00961032       5.97063185       6.94000000      -0.00079506      -0.00436274      -0.00126041      211        1
Y        5.57211737       9.78652127       6.05517000      88.90584002       0.01783682       0.03089427       0.00000000      220        2
Y        5.71296636      16.16939537       3.07380066      88.90584002       0.00585495      -0.01918788      -0.05498832      191        2
Y        5.71296636      16.16939537       9.21329132      88.90584002       0.00585495      -0.01918788      -0.05498832      221        2
Li      -9.73506173      16.36177525       2.91864389       6.94000000      -0.00173368      -0.00022195      -0.00128630       69        1
Li      -9.73506173      16.36177525       9.05813454       6.94000000      -0.00173368      -0.00022195      -0.00128630       99        1
Li      18.92004390      -0.18225770       3.05220546       6.94000000       0.00067462      -0.00161239       0.00128630      127        1
Li      18.92004390      -0.18225770       9.19169611       6.94000000       0.00067462      -0.00161239       0.00128630      157        1
Li       9.25179951      16.15991770      -0.08432066       6.94000000      -0.00109699      -0.00190004       0.00000000      185        1
Y       11.02942400      13.09993713       2.89704868      88.90584002      -0.01954467      -0.00452340       0.05498832      192        2
Cl      11.31581229      17.28830198       1.22133577      35.45000001      -0.00174222       0.01482324       0.00815596      196        3
Cl       9.19700257      18.51159734       4.74951358      35.45000001       0.01370841       0.00590281      -0.00815596      197        3
Cl       7.59328974      10.63539189       1.31569634      35.45000001       0.01372515      -0.00739401       0.00167465      198        3
Cl      13.10108012      11.85281041       4.27193691      35.45000001      -0.00631010       0.00215847       0.02462402      200        3
Cl      11.37665671      15.25814325       4.40005778      35.45000001      -0.00970438       0.00353593       0.01647570      202        3
Cl       7.40841133      17.54921079       1.57079156      35.45000001       0.00791440      -0.00663628      -0.01647570      203        3
Cl       9.33583227      11.72550381       4.30612181      35.45000001      -0.00909264      -0.01252998       0.00829132      204        3
Cl       7.43453020      15.29713215       4.67779757      35.45000001       0.00939127      -0.00289636      -0.02472769      205        3
Cl       9.41323996      14.15472353       1.29305177      35.45000001      -0.00720396       0.00668490       0.02472769      206        3
Cl      11.24407473      10.74734221       1.42610794      35.45000001       0.00851181      -0.00033410       0.01412212      208        3
Cl      13.21034127      14.12610916       1.51056184      35.45000001      -0.01530006       0.00311911       0.01290201      210        3
Li       9.25179951      16.15991770       6.05517000       6.94000000      -0.00109699      -0.00190004      -0.00000000      215        1
Y       11.02942400      13.09993713       9.03653934      88.90584002      -0.01954467      -0.00452340       0.05498832      222        2
Cl      11.31581229      17.28830198       7.36082642      35.45000001      -0.00174222       0.01482324       0.00815596      226        3
Cl       9.19700257      18.51159734      10.88900423      35.45000001       0.01370841       0.00590281      -0.00815596      227        3
Cl       7.59328974      10.63539189       7.45518700      35.45000001       0.01372515      -0.00739401       0.00167465      228        3
Cl      13.10108012      11.85281041      10.41142757      35.45000001      -0.00631010       0.00215847       0.02462402      230        3
Cl      11.37665671      15.25814325      10.53954844      35.45000001      -0.00970438       0.00353593       0.01647570      232        3
Cl       7.40841133      17.54921079       7.71028222      35.45000001       0.00791440      -0.00663628      -0.01647570      233        3
Cl       9.33583227      11.72550381      10.44561246      35.45000001      -0.00909264      -0.01252998       0.00829132      234        3
Cl       7.43453020      15.29713215      10.81728823      35.45000001       0.00939127      -0.00289636      -0.02472769      235        3
Cl       9.41323996      14.15472353       7.43254242      35.45000001      -0.00720396       0.00668490       0.02472769      236        3
Cl      11.24407473      10.74734221       7.56559860      35.45000001       0.00851181      -0.00033410       0.01412212      238        3
Cl      13.21034127      14.12610916       7.65005250      35.45000001      -0.01530006       0.00311911       0.01290201      240        3
Li      -7.73879158      12.93244311       3.04965288       6.94000000      -0.00476301       0.00763133       0.00323152       68        1
Li      -7.73879158      12.93244311       9.18914353       6.94000000      -0.00476301       0.00763133       0.00323152       98        1
Cl      14.93018488      10.83456288       1.39600199      35.45000001       0.00439753      -0.00284772       0.00973003      194        3
Cl      14.93018488      10.83456288       7.53549264      35.45000001       0.00439753      -0.00284772       0.00973003      224        3
Cl      -3.88826905       8.56125811      16.85382867      35.45000001      -0.00466496       0.00238452      -0.00973003       13        3
Cl      -3.88826905       8.56125811      22.99331932      35.45000001      -0.00466496       0.00238452      -0.00973003       43        3
Li       3.73478565       0.15600217      12.11012250       6.94000000      -0.00079506      -0.00436274      -0.00126041        1        1
Li      -1.84949097       3.38008578      12.27919881       6.94000000      -0.00338071      -0.00286992       0.00126041        3        1
Li       3.56281619       6.30630954      12.19466065       6.94000000      -0.00109699      -0.00190004       0.00000000        5        1
Y       -0.11686596      -0.06708689      12.19466065      88.90584002       0.01783682       0.03089427       0.00000000       10        2
Y        0.02398304       6.31578721      15.35278198      88.90584002       0.00585495      -0.01918788      -0.05498832       11        2
Cl      -0.39230862       2.10773504      16.93413431      35.45000001      -0.01326597       0.00818932      -0.00167465       15        3
Cl       3.50801925       8.65798918      17.02849489      35.45000001       0.01370841       0.00590281      -0.00815596       17        3
Cl       1.90430641       0.78178373      13.59467765      35.45000001       0.01372515      -0.00739401       0.00167465       18        3
Cl      -2.09188844       7.48633069      13.97789374      35.45000001       0.00502434      -0.00438547      -0.02462402       19        3
Cl      -0.31951527       4.16187710      13.94370885      35.45000001      -0.00630496      -0.01413945      -0.00829132       21        3
Cl       1.71942801       7.69560263      13.84977287      35.45000001       0.00791440      -0.00663628      -0.01647570       23        3
Cl       3.64684894       1.87189565      16.58510311      35.45000001      -0.00909264      -0.01252998       0.00829132       24        3
Cl       1.74554687       5.44352399      16.95677888      35.45000001       0.00939127      -0.00289636      -0.02472769       25        3
Cl       3.72425664       4.30111537      13.57203308      35.45000001      -0.00720396       0.00668490       0.02472769       26        3
Cl      -0.17778455       8.71760300      16.73926881      35.45000001       0.01035126      -0.01169068      -0.01290201       27        3
Cl      -2.12074929       5.32538275      16.82372271      35.45000001      -0.00454525       0.00720439      -0.01412212       29        3
Li       3.73478565       0.15600217      18.24961316       6.94000000      -0.00079506      -0.00436274      -0.00126041       31        1
Li      -1.84949097       3.38008578      18.41868946       6.94000000      -0.00338071      -0.00286992       0.00126041       33        1
Li       3.56281619       6.30630954      18.33415131       6.94000000      -0.00109699      -0.00190004      -0.00000000       35        1
Y       -0.11686595      -0.06708689      18.33415131      88.90584002       0.01783682       0.03089427      -0.00000000       40        2
Y        0.02398304       6.31578721      21.49227263      88.90584002       0.00585495      -0.01918788      -0.05498832       41        2
Cl      -0.39230862       2.10773504      23.07362497      35.45000001      -0.01326597       0.00818932      -0.00167465       45        3
Cl       3.50801925       8.65798918      23.16798554      35.45000001       0.01370841       0.00590281      -0.00815596       47        3
Cl       1.90430641       0.78178373      19.73416831      35.45000001       0.01372515      -0.00739401       0.00167465       48        3
Cl      -2.09188844       7.48633069      20.11738440      35.45000001       0.00502434      -0.00438547      -0.02462402       49        3
Cl      -0.31951527       4.16187710      20.08319951      35.45000001      -0.00630496      -0.01413945      -0.00829132       51        3
Cl       1.71942801       7.69560263      19.98926353      35.45000001       0.00791440      -0.00663628      -0.01647570       53        3
Cl       3.64684894       1.87189565      22.72459377      35.45000001      -0.00909264      -0.01252998       0.00829132       54        3
Cl       1.74554687       5.44352399      23.09626954      35.45000001       0.00939127      -0.00289636      -0.02472769       55        3
Cl       3.72425664       4.30111537      19.71152373      35.45000001      -0.00720396       0.00668490       0.02472769       56        3
Cl      -0.17778455       8.71760300      22.87875947      35.45000001       0.01035126      -0.01169068      -0.01290201       57        3
Cl      -2.12074929       5.32538275      22.96321337      35.45000001      -0.00454525       0.00720439      -0.01412212       59        3
Li      -2.11492989       9.68550505      15.20017778       6.94000000       0.00899043      -0.00030923      -0.00323152       66        1
Li       1.85309393       9.67135046      15.33118677       6.94000000       0.00067462      -0.00161239       0.00128630       67        1
Li      -2.11492989       9.68550505      21.33966843       6.94000000       0.00899043      -0.00030923      -0.00323152       96        1
Li       1.85309393       9.67135046      21.47067742       6.94000000       0.00067462      -0.00161239       0.00128630       97        1
Y        5.34044067       3.24632897      15.17602999      88.90584002      -0.01954467      -0.00452340       0.05498832       12        2
Y        5.34044067       3.24632897      21.31552065      88.90584002      -0.01954467      -0.00452340       0.05498832       42        2
Li       1.65630717       9.66502580      12.24825797       6.94000000       0.00608336      -0.00013862       0.00127230       62        1
Li       1.65630717       9.66502580      18.38774862       6.94000000       0.00608336      -0.00013862       0.00127230       92        1
Cl       9.24120155       0.98095472      13.67498330      35.45000001       0.00439753      -0.00284772       0.00973003       14        3
Cl       5.62682897       7.43469382      13.50031708      35.45000001      -0.00174222       0.01482324       0.00815596       16        3
Cl       7.41209679       1.99920225      16.55091822      35.45000001      -0.00631010       0.00215847       0.02462402       20        3
Cl       5.68767339       5.40453509      16.67903909      35.45000001      -0.00970438       0.00353593       0.01647570       22        3
Cl       5.55509141       0.89373405      13.70508925      35.45000001       0.00851181      -0.00033410       0.01412212       28        3
Cl       7.52135795       4.27250100      13.78954315      35.45000001      -0.01530006       0.00311911       0.01290201       30        3
Cl       9.24120155       0.98095472      19.81447395      35.45000001       0.00439753      -0.00284772       0.00973003       44        3
Cl       5.62682897       7.43469382      19.63980773      35.45000001      -0.00174222       0.01482324       0.00815596       46        3
Cl       7.41209680       1.99920225      22.69040888      35.45000001      -0.00631010       0.00215847       0.02462402       50        3
Cl       5.68767339       5.40453509      22.81852975      35.45000001      -0.00970438       0.00353593       0.01647570       52        3
Cl       5.55509141       0.89373405      19.84457991      35.45000001       0.00851181      -0.00033410       0.01412212       58        3
Cl       7.52135795       4.27250100      19.92903381      35.45000001      -0.01530006       0.00311911       0.01290201       60        3
Li       9.52847567       3.38008578      12.27919881       6.94000000      -0.00338071      -0.00286992       0.00126041      123        1
Li       7.42480431       6.33458243      12.14106334       6.94000000      -0.00316173       0.00519903      -0.00127230      124        1
Li       9.32815839       3.07883495      15.32863419       6.94000000      -0.00476301       0.00763133       0.00323152      128        1
Li       7.33188823       6.50816709      15.19762520       6.94000000      -0.00173368      -0.00022195      -0.00128630      129        1
Y       11.26110069      -0.06708689      12.19466066      88.90584002       0.01783682       0.03089427       0.00000000      130        2
Y       11.40194968       6.31578722      15.35278197      88.90584002       0.00585495      -0.01918788      -0.05498832      131        2
Cl       7.48969759       8.56125811      16.85382867      35.45000001      -0.00466496       0.00238452      -0.00973003      133        3
Cl      10.98565802       2.10773504      16.93413431      35.45000001      -0.01326597       0.00818932      -0.00167465      135        3
Cl      13.28227306       0.78178373      13.59467765      35.45000001       0.01372515      -0.00739401       0.00167465      138        3
Cl       9.28607820       7.48633069      13.97789374      35.45000001       0.00502434      -0.00438547      -0.02462402      139        3
Cl      11.05845138       4.16187710      13.94370885      35.45000001      -0.00630496      -0.01413945      -0.00829132      141        3
Cl      13.09739465       7.69560263      13.84977287      35.45000001       0.00791440      -0.00663628      -0.01647570      143        3
Cl      13.12351352       5.44352399      16.95677889      35.45000001       0.00939127      -0.00289636      -0.02472769      145        3
Cl      11.20018209       8.71760300      16.73926881      35.45000001       0.01035126      -0.01169068      -0.01290201      147        3
Cl       9.25721735       5.32538275      16.82372271      35.45000001      -0.00454525       0.00720439      -0.01412212      149        3
Li       9.52847567       3.38008578      18.41868946       6.94000000      -0.00338071      -0.00286992       0.00126041      153        1
Li       7.42480431       6.33458243      18.28055400       6.94000000      -0.00316173       0.00519903      -0.00127230      154        1
Li       9.32815839       3.07883495      21.46812484       6.94000000      -0.00476301       0.00763133       0.00323152      158        1
Li       7.33188823       6.50816709      21.33711585       6.94000000      -0.00173368      -0.00022195      -0.00128630      159        1
Y       11.26110069      -0.06708689      18.33415131      88.90584002       0.01783682       0.03089427       0.00000000      160        2
Y       11.40194968       6.31578722      21.49227263      88.90584002       0.00585495      -0.01918788      -0.05498832      161        2
Cl       7.48969759       8.56125811      22.99331932      35.45000001      -0.00466496       0.00238452      -0.00973003      163        3
Cl      10.98565802       2.10773504      23.07362497      35.45000001      -0.01326597       0.00818932      -0.00167465      165        3
Cl      13.28227306       0.78178373      19.73416831      35.45000001       0.01372515      -0.00739401       0.00167465      168        3
Cl       9.28607820       7.48633069      20.11738440      35.45000001       0.00502434      -0.00438547      -0.02462402      169        3
Cl      11.05845138       4.16187710      20.08319950      35.45000001      -0.00630496      -0.01413945      -0.00829132      171        3
Cl      13.09739465       7.69560263      19.98926353      35.45000001       0.00791440      -0.00663628      -0.01647570      173        3
Cl      13.12351352       5.44352399      23.09626954      35.45000001       0.00939127      -0.00289636      -0.02472769      175        3
Cl      11.20018209       8.71760300      22.87875947      35.45000001       0.01035126      -0.01169068      -0.01290201      177        3
Cl       9.25721735       5.32538275      22.96321337      35.45000001      -0.00454525       0.00720439      -0.01412212      179        3
Li       9.26303675       9.68550505      15.20017778       6.94000000       0.00899043      -0.00030923      -0.00323152      186        1
Li      13.23106058       9.67135046      15.33118677       6.94000000       0.00067462      -0.00161239       0.00128630      187        1
Li       9.26303675       9.68550505      21.33966843       6.94000000       0.00899043      -0.00030923      -0.00323152      216        1
Li      13.23106058       9.67135046      21.47067742       6.94000000       0.00067462      -0.00161239       0.00128630      217        1
Li      13.03427381       9.66502580      12.24825797       6.94000000       0.00608336      -0.00013862       0.00127230      182        1
Li      13.03427381       9.66502580      18.38774862       6.94000000       0.00608336      -0.00013862       0.00127230      212        1
Li      -3.95316234       6.33458243      12.14106334       6.94000000      -0.00316173       0.00519903      -0.00127230        4        1
Li      -3.95316234       6.33458243      18.28055400       6.94000000      -0.00316173       0.00519903      -0.00127230       34        1
Li      -4.04607841       6.50816709      15.19762520       6.94000000      -0.00173368      -0.00022195      -0.00128630        9        1
Li      -4.04607841       6.50816709      21.33711585       6.94000000      -0.00173368      -0.00022195      -0.00128630       39        1
Li      -2.04980826       3.07883495      15.32863419       6.94000000      -0.00476301       0.00763133       0.00323152        8        1
Li      -2.04980826       3.07883495      21.46812484       6.94000000      -0.00476301       0.00763133       0.00323152       38        1
Li      14.94078283       6.30630954      12.19466065       6.94000000      -0.00109699      -0.00190004       0.00000000      125        1
Y       16.71840732       3.24632897      15.17602999      88.90584002      -0.01954467      -0.00452340       0.05498832      132        2
Cl      20.61916820       0.98095472      13.67498330      35.45000001       0.00439753      -0.00284772       0.00973003      134        3
Cl      17.00479561       7.43469382      13.50031708      35.45000001      -0.00174222       0.01482324       0.00815596      136        3
Cl      14.88598589       8.65798918      17.02849489      35.45000001       0.01370841       0.00590281      -0.00815596      137        3
Cl      18.79006344       1.99920225      16.55091822      35.45000001      -0.00631010       0.00215847       0.02462402      140        3
Cl      17.06564003       5.40453509      16.67903909      35.45000001      -0.00970438       0.00353593       0.01647570      142        3
Cl      15.02481559       1.87189565      16.58510312      35.45000001      -0.00909264      -0.01252998       0.00829132      144        3
Cl      15.10222328       4.30111537      13.57203308      35.45000001      -0.00720396       0.00668490       0.02472769      146        3
Cl      16.93305806       0.89373405      13.70508925      35.45000001       0.00851181      -0.00033410       0.01412212      148        3
Cl      18.89932460       4.27250100      13.78954315      35.45000001      -0.01530006       0.00311911       0.01290201      150        3
Li      14.94078283       6.30630954      18.33415131       6.94000000      -0.00109699      -0.00190004      -0.00000000      155        1
Y       16.71840732       3.24632897      21.31552065      88.90584002      -0.01954467      -0.00452340       0.05498832      162        2
Cl      20.61916820       0.98095472      19.81447395      35.45000001       0.00439753      -0.00284772       0.00973003      164        3
Cl      17.00479561       7.43469382      19.63980773      35.45000001      -0.00174222       0.01482324       0.00815596      166        3
Cl      14.88598589       8.65798918      23.16798554      35.45000001       0.01370841       0.00590281      -0.00815596      167        3
Cl      18.79006344       1.99920225      22.69040888      35.45000001      -0.00631010       0.00215847       0.02462402      170        3
Cl      17.06564003       5.40453509      22.81852975      35.45000001      -0.00970438       0.00353593       0.01647570      172        3
Cl      15.02481559       1.87189565      22.72459377      35.45000001      -0.00909264      -0.01252998       0.00829132      174        3
Cl      15.10222328       4.30111537      19.71152373      35.45000001      -0.00720396       0.00668490       0.02472769      176        3
Cl      16.93305806       0.89373405      19.84457991      35.45000001       0.00851181      -0.00033410       0.01412212      178        3
Cl      18.89932460       4.27250100      19.92903381      35.45000001      -0.01530006       0.00311911       0.01290201      180        3
Li      15.11275230       0.15600217      12.11012250       6.94000000      -0.00079506      -0.00436274      -0.00126041      121        1
Li      15.11275230       0.15600217      18.24961316       6.94000000      -0.00079506      -0.00436274      -0.00126041      151        1
Li       7.34529049      -0.18858236      12.24825797       6.94000000       0.00608336      -0.00013862       0.00127230        2        1
Li       7.34529049      -0.18858236      18.38774862       6.94000000       0.00608336      -0.00013862       0.00127230       32        1
Y       -5.80584928       9.78652126      12.19466066      88.90584002       0.01783682       0.03089427      -0.00000000       70        2
Y       -5.80584928       9.78652126      18.33415131      88.90584002       0.01783682       0.03089427      -0.00000000      100        2
Li       3.57405343      -0.16810311      15.20017778       6.94000000       0.00899043      -0.00030923      -0.00323152        6        1
Li       3.57405343      -0.16810311      21.33966843       6.94000000       0.00899043      -0.00030923      -0.00323152       36        1
Li       7.54207726      -0.18225770      15.33118677       6.94000000       0.00067462      -0.00161239       0.00128630        7        1
Li       7.54207726      -0.18225770      21.47067742       6.94000000       0.00067462      -0.00161239       0.00128630       37        1
Li      -7.53847430      13.23369394      12.27919881       6.94000000      -0.00338071      -0.00286992       0.00126041       63        1
Y       -5.66500029      16.16939537      15.35278197      88.90584002       0.00585495      -0.01918788      -0.05498832       71        2
Cl      -9.57725238      18.41486627      16.85382867      35.45000001      -0.00466496       0.00238452      -0.00973003       73        3
Cl      -6.08129195      11.96134320      16.93413431      35.45000001      -0.01326597       0.00818932      -0.00167465       75        3
Cl      -3.78467691      10.63539189      13.59467765      35.45000001       0.01372515      -0.00739401       0.00167465       78        3
Cl      -7.78087177      17.33993885      13.97789374      35.45000001       0.00502434      -0.00438547      -0.02462402       79        3
Cl      -6.00849859      14.01548526      13.94370885      35.45000001      -0.00630496      -0.01413945      -0.00829132       81        3
Cl      -3.96955531      17.54921079      13.84977287      35.45000001       0.00791440      -0.00663628      -0.01647570       83        3
Cl      -3.94343645      15.29713215      16.95677888      35.45000001       0.00939127      -0.00289636      -0.02472769       85        3
Cl      -5.86676788      18.57121116      16.73926881      35.45000001       0.01035126      -0.01169068      -0.01290201       87        3
Cl      -7.80973262      15.17899091      16.82372271      35.45000001      -0.00454525       0.00720439      -0.01412212       89        3
Li      -7.53847430      13.23369394      18.41868946       6.94000000      -0.00338071      -0.00286992       0.00126041       93        1
Y       -5.66500029      16.16939537      21.49227263      88.90584002       0.00585495      -0.01918788      -0.05498832      101        2
Cl      -9.57725238      18.41486627      22.99331932      35.45000001      -0.00466496       0.00238452      -0.00973003      103        3
Cl      -6.08129195      11.96134320      23.07362497      35.45000001      -0.01326597       0.00818932      -0.00167465      105        3
Cl      -3.78467691      10.63539189      19.73416831      35.45000001       0.01372515      -0.00739401       0.00167465      108        3
Cl      -7.78087177      17.33993885      20.11738440      35.45000001       0.00502434      -0.00438547      -0.02462402      109        3
Cl      -6.00849859      14.01548526      20.08319951      35.45000001      -0.00630496      -0.01413945      -0.00829132      111        3
Cl      -3.96955531      17.54921079      19.98926353      35.45000001       0.00791440      -0.00663628      -0.01647570      113        3
Cl      -3.94343645      15.29713215      23.09626954      35.45000001       0.00939127      -0.00289636      -0.02472769      115        3
Cl      -5.86676788      18.57121116      22.87875947      35.45000001       0.01035126      -0.01169068      -0.01290201      117        3
Cl      -7.80973262      15.17899091      22.96321337      35.45000001      -0.00454525       0.00720439      -0.01412212      119        3
Li      -1.95419767      10.00961032      12.11012250       6.94000000      -0.00079506      -0.00436274      -0.00126041       61        1
Li      -1.95419767      10.00961032      18.24961316       6.94000000      -0.00079506      -0.00436274      -0.00126041       91        1
Li      -2.12616713      16.15991770      12.19466065       6.94000000      -0.00109699      -0.00190004      -0.00000000       65        1
Y       -0.34854265      13.09993713      15.17602999      88.90584002      -0.01954467      -0.00452340       0.05498832       72        2
Cl       3.55221823      10.83456288      13.67498330      35.45000001       0.00439753      -0.00284772       0.00973003       74        3
Cl      -0.06215435      17.28830198      13.50031708      35.45000001      -0.00174222       0.01482324       0.00815596       76        3
Cl      -2.18096408      18.51159734      17.02849489      35.45000001       0.01370841       0.00590281      -0.00815596       77        3
Cl       1.72311347      11.85281041      16.55091822      35.45000001      -0.00631010       0.00215847       0.02462402       80        3
Cl      -0.00130993      15.25814325      16.67903909      35.45000001      -0.00970438       0.00353593       0.01647570       82        3
Cl      -2.04213438      11.72550381      16.58510311      35.45000001      -0.00909264      -0.01252998       0.00829132       84        3
Cl      -1.96472668      14.15472353      13.57203308      35.45000001      -0.00720396       0.00668490       0.02472769       86        3
Cl      -0.13389191      10.74734221      13.70508925      35.45000001       0.00851181      -0.00033410       0.01412212       88        3
Cl       1.83237463      14.12610916      13.78954315      35.45000001      -0.01530006       0.00311911       0.01290201       90        3
Li      -2.12616713      16.15991770      18.33415131       6.94000000      -0.00109699      -0.00190004      -0.00000000       95        1
Y       -0.34854265      13.09993713      21.31552065      88.90584002      -0.01954467      -0.00452340       0.05498832      102        2
Cl       3.55221823      10.83456288      19.81447395      35.45000001       0.00439753      -0.00284772       0.00973003      104        3
Cl      -0.06215435      17.28830198      19.63980773      35.45000001      -0.00174222       0.01482324       0.00815596      106        3
Cl      -2.18096408      18.51159734      23.16798554      35.45000001       0.01370841       0.00590281      -0.00815596      107        3
Cl       1.72311347      11.85281041      22.69040888      35.45000001      -0.00631010       0.00215847       0.02462402      110        3
Cl      -0.00130994      15.25814325      22.81852975      35.45000001      -0.00970438       0.00353593       0.01647570      112        3
Cl      -2.04213438      11.72550381      22.72459377      35.45000001      -0.00909264      -0.01252998       0.00829132      114        3
Cl      -1.96472668      14.15472353      19.71152373      35.45000001      -0.00720396       0.00668490       0.02472769      116        3
Cl      -0.13389191      10.74734221      19.84457991      35.45000001       0.00851181      -0.00033410       0.01412212      118        3
Cl       1.83237463      14.12610916      19.92903381      35.45000001      -0.01530006       0.00311911       0.01290201      120        3
Li      14.95202007      -0.16810311      15.20017778       6.94000000       0.00899043      -0.00030923      -0.00323152      126        1
Li      14.95202007      -0.16810311      21.33966843       6.94000000       0.00899043      -0.00030923      -0.00323152      156        1
Li       3.83949235      13.23369394      12.27919881       6.94000000      -0.00338071      -0.00286992       0.00126041      183        1
Li       1.73582098      16.18819059      12.14106334       6.94000000      -0.00316173       0.00519903      -0.00127230      184        1
Li       3.63917506      12.93244311      15.32863419       6.94000000      -0.00476301       0.00763133       0.00323152      188        1
Li       1.64290491      16.36177525      15.19762520       6.94000000      -0.00173368      -0.00022195      -0.00128630      189        1
Cl       1.80071427      18.41486627      16.85382867      35.45000001      -0.00466496       0.00238452      -0.00973003      193        3
Cl       3.59709488      17.33993885      13.97789374      35.45000001       0.00502434      -0.00438547      -0.02462402      199        3
Cl       3.56823403      15.17899091      16.82372271      35.45000001      -0.00454525       0.00720439      -0.01412212      209        3
Li       3.83949235      13.23369394      18.41868946       6.94000000      -0.00338071      -0.00286992       0.00126041      213        1
Li       1.73582098      16.18819059      18.28055400       6.94000000      -0.00316173       0.00519903      -0.00127230      214        1
Li       3.63917506      12.93244311      21.46812484       6.94000000      -0.00476301       0.00763133       0.00323152      218        1
Li       1.64290491      16.36177525      21.33711585       6.94000000      -0.00173368      -0.00022195      -0.00128630      219        1
Cl       1.80071427      18.41486627      22.99331932      35.45000001      -0.00466496       0.00238452      -0.00973003      223        3
Cl       3.59709488      17.33993885      20.11738440      35.45000001       0.00502434      -0.00438547      -0.02462402      229        3
Cl       3.56823403      15.17899091      22.96321337      35.45000001      -0.00454525       0.00720439      -0.01412212      239        3
Cl       5.29667470      11.96134320      16.93413431      35.45000001      -0.01326597       0.00818932      -0.00167465      195        3
Cl       5.36946806      14.01548526      13.94370885      35.45000001      -0.00630496      -0.01413945      -0.00829132      201        3
Cl       5.29667470      11.96134320      23.07362497      35.45000001      -0.01326597       0.00818932      -0.00167465      225        3
Cl       5.36946806      14.01548526      20.08319951      35.45000001      -0.00630496      -0.01413945      -0.00829132      231        3
Cl       5.51119877      18.57121116      16.73926881      35.45000001       0.01035126      -0.01169068      -0.01290201      207        3
Cl       5.51119877      18.57121116      22.87875947      35.45000001       0.01035126      -0.01169068      -0.01290201      237        3
Li      18.72325714      -0.18858236      12.24825797       6.94000000       0.00608336      -0.00013862       0.00127230      122        1
Li      18.72325714      -0.18858236      18.38774862       6.94000000       0.00608336      -0.00013862       0.00127230      152        1
Li      -9.64214566      16.18819059      12.14106334       6.94000000      -0.00316173       0.00519903      -0.00127230       64        1
Li      -9.64214566      16.18819059      18.28055400       6.94000000      -0.00316173       0.00519903      -0.00127230       94        1
Li       9.42376898      10.00961032      12.11012250       6.94000000      -0.00079506      -0.00436274      -0.00126041      181        1
Y        5.57211737       9.78652127      12.19466065      88.90584002       0.01783682       0.03089427       0.00000000      190        2
Li       9.42376898      10.00961032      18.24961316       6.94000000      -0.00079506      -0.00436274      -0.00126041      211        1
Y        5.57211737       9.78652127      18.33415131      88.90584002       0.01783682       0.03089427       0.00000000      220        2
Y        5.71296636      16.16939537      15.35278197      88.90584002       0.00585495      -0.01918788      -0.05498832      191        2
Y        5.71296636      16.16939537      21.49227263      88.90584002       0.00585495      -0.01918788      -0.05498832      221        2
Li      -9.73506173      16.36177525      15.19762520       6.94000000      -0.00173368      -0.00022195      -0.00128630       69        1
Li      -9.73506173      16.36177525      21.33711585       6.94000000      -0.00173368      -0.00022195      -0.00128630       99        1
Li      18.92004390      -0.18225770      15.33118677       6.94000000       0.00067462      -0.00161239       0.00128630      127        1
Li      18.92004390      -0.18225770      21.47067742       6.94000000       0.00067462      -0.00161239       0.00128630      157        1
Li       9.25179951      16.15991770      12.19466065       6.94000000      -0.00109699      -0.00190004       0.00000000      185        1
Y       11.02942400      13.09993713      15.17602999      88.90584002      -0.01954467      -0.00452340       0.05498832      192        2
Cl      11.31581229      17.28830198      13.50031708      35.45000001      -0.00174222       0.01482324       0.00815596      196        3
Cl       9.19700257      18.51159734      17.02849489      35.45000001       0.01370841       0.00590281      -0.00815596      197        3
Cl       7.59328974      10.63539189      13.59467765      35.45000001       0.01372515      -0.00739401       0.00167465      198        3
Cl      13.10108012      11.85281041      16.55091822      35.45000001      -0.00631010       0.00215847       0.02462402      200        3
Cl      11.37665671      15.25814325      16.67903909      35.45000001      -0.00970438       0.00353593       0.01647570      202        3
Cl       7.40841133      17.54921079      13.84977287      35.45000001       0.00791440      -0.00663628      -0.01647570      203        3
Cl       9.33583227      11.72550381      16.58510312      35.45000001      -0.00909264      -0.01252998       0.00829132      204        3
Cl       7.43453020      15.29713215      16.95677888      35.45000001       0.00939127      -0.00289636      -0.02472769      205        3
Cl       9.41323996      14.15472353      13.57203308      35.45000001      -0.00720396       0.00668490       0.02472769      206        3
Cl      11.24407473      10.74734221      13.70508925      35.45000001       0.00851181      -0.00033410       0.01412212      208        3
Cl      13.21034127      14.12610916      13.78954315      35.45000001      -0.01530006       0.00311911       0.01290201      210        3
Li       9.25179951      16.15991770      18.33415131       6.94000000      -0.00109699      -0.00190004      -0.00000000      215        1
Y       11.02942400      13.09993713      21.31552065      88.90584002      -0.01954467      -0.00452340       0.05498832      222        2
Cl      11.31581229      17.28830198      19.63980773      35.45000001      -0.00174222       0.01482324       0.00815596      226        3
Cl       9.19700257      18.51159734      23.16798554      35.45000001       0.01370841       0.00590281      -0.00815596      227        3
Cl       7.59328974      10.63539189      19.73416831      35.45000001       0.01372515      -0.00739401       0.00167465      228        3
Cl      13.10108012      11.85281041      22.69040888      35.45000001      -0.00631010       0.00215847       0.02462402      230        3
Cl      11.37665671      15.25814325      22.81852975      35.45000001      -0.00970438       0.00353593       0.01647570      232        3
Cl       7.40841133      17.54921079      19.98926353      35.45000001       0.00791440      -0.00663628      -0.01647570      233        3
Cl       9.33583227      11.72550381      22.72459377      35.45000001      -0.00909264      -0.01252998       0.00829132      234        3
Cl       7.43453020      15.29713215      23.09626954      35.45000001       0.00939127      -0.00289636      -0.02472769      235        3
Cl       9.41323996      14.15472353      19.71152373      35.45000001      -0.00720396       0.00668490       0.02472769      236        3
Cl      11.24407473      10.74734221      19.84457991      35.45000001       0.00851181      -0.00033410       0.01412212      238        3
Cl      13.21034127      14.12610916      19.92903381      35.45000001      -0.01530006       0.00311911       0.01290201      240        3
Li      -7.73879158      12.93244311      15.32863419       6.94000000      -0.00476301       0.00763133       0.00323152       68        1
Li      -7.73879158      12.93244311      21.46812484       6.94000000      -0.00476301       0.00763133       0.00323152       98        1
Cl      14.93018488      10.83456288      13.67498330      35.45000001       0.00439753      -0.00284772       0.00973003      194        3
Cl      14.93018488      10.83456288      19.81447395      35.45000001       0.00439753      -0.00284772       0.00973003      224        3
