LAMMPS data file via write_data, version 10 Sep 2025, timestep = 90000, units = metal

192 atoms
4 atom types

0 24.909354 xlo xhi
0 21.815299402435457 ylo yhi
0 9.619301915937136 zlo zhi
0.40926158522763945 0.019207506470194195 5.704494503559394 xy xz yz

Masses

1 6.939999998214724
2 91.22399997653315
3 15.99899999588435
4 35.44999999088069

Atoms # atomic/kk

94 4 1.5959559077550518 3.3241536871887467 4.105793723426697 0 1 1
64 2 7.651435024946865 2.323338005257738 3.376978548936227 0 1 0
81 4 6.8106812565789525 3.649266237522723 1.472449853752783 0 1 0
116 4 8.769688443323647 4.069512674261195 4.776228621747643 1 0 -1
115 4 13.135129704338157 1.5557974225794247 2.379462112176155 0 0 0
137 4 15.901437333567213 1.5229141938980237 0.3224331559276755 0 0 1
113 4 15.951920183709774 3.709112059168466 3.5924273285512083 0 0 1
110 2 24.240622966377607 2.9734792998182997 3.5984454387413263 0 0 0
28 4 24.89201133687362 2.6977974162906544 0.4958220982250789 -1 0 0
122 4 21.700486334125223 3.174929459413518 2.387880550940992 0 0 0
21 4 2.950894353057436 6.076051320716204 1.6392939376052087 0 0 0
13 2 2.460403672989317 8.31682862917822 1.5138436457025777 0 0 1
83 4 0.49704842964765167 8.333080915968322 2.9353241503235674 0 1 0
84 4 7.205308053364455 7.814444876172058 4.446807780693167 0 1 0
35 4 4.835393148179684 8.89804159703489 0.8558409551271895 0 0 1
67 4 8.222433808964922 13.697013049976372 9.455261766925295 0 0 0
57 1 9.183062853612503 6.921619089700129 4.3171643087774445 0 1 0
25 4 10.791014082031879 6.627883871951956 2.2687255257081147 0 0 0
62 2 10.413678620505888 8.56559320791504 0.6816144536597025 0 0 1
166 4 12.761486608838215 4.971912082258982 4.18245033709025 0 1 1
72 4 14.784100545430068 5.487547722429011 0.9809142276074874 0 0 0
91 4 12.671781991222394 9.609084732361422 1.3931207945323862 0 0 1
48 3 16.78821000566726 7.787525023295845 1.1807510686935996 0 0 0
111 2 17.3882137032688 8.220524363038088 2.981087234129175 0 0 0
138 4 18.873846295891386 6.266823554475098 3.3970076083941456 0 0 0
56 1 20.213559831937022 8.028127035930307 2.239700281280565 0 1 -1
112 2 22.926616136826944 4.281696800556575 0.29281686294363024 0 0 1
161 4 21.361734154174542 6.283485929343381 0.4411029882556019 0 0 1
51 1 23.528923096628233 7.516968745690366 4.867618142206137 -1 0 0
130 4 24.078704225628403 5.3343038631954345 2.5089141140908855 0 0 1
37 4 2.545921881707905 10.778316835023405 2.3775072237555417 0 0 1
142 1 1.7479157447718157 12.360391512322705 3.9894289401014844 1 0 0
178 4 1.2729435958197353 13.70954984291418 0.26869897631628176 1 0 0
106 1 4.847353831623236 10.331389786015272 2.754546202842838 1 0 0
75 4 6.438697257398961 11.81091402070969 3.6525699034775805 0 0 0
150 1 11.38697078495796 10.846496393450783 3.362971590597247 0 0 -1
34 4 9.388113283480735 9.797188592236674 2.525007503233473 0 0 0
27 4 9.62244299434414 14.207899059025433 4.877527366802048 0 0 0
47 4 11.961066659804588 12.962631076998932 2.3036059475285344 0 0 0
143 1 15.068186308687649 9.731745970555522 0.819489159442309 0 -1 0
123 4 15.921942068920762 10.211803553416123 3.1999443590134726 0 0 0
173 4 17.56916375315888 14.013304035867902 0.37184352147258254 0 0 2
139 3 19.01109282009134 9.326435913683742 2.639177019966449 0 0 0
129 4 18.338979769611974 12.381895065689813 3.8125313145980653 0 0 0
107 2 19.849082927918722 10.60047659311811 3.8923317610534984 0 0 1
23 4 21.113072088526323 12.009656724220434 2.0384242269535853 -1 0 1
128 4 21.945877829373313 9.1147067836245 3.4892417096137796 0 0 1
90 4 23.760681864303116 11.48439448697402 0.2024142012862581 -1 0 0
55 1 23.34791869386537 11.240284014524368 2.44279227363787 0 0 1
46 4 24.346137889061843 12.09749425238158 4.381180259680133 -1 0 1
30 4 2.987192764403249 14.199659457099578 3.3765748076642086 0 0 -1
26 4 1.3457907926515649 17.399653104476663 1.9508743932898434 0 -1 0
22 4 7.782233546943743 13.954752640168067 0.23701226357890084 0 -1 0
78 4 4.465160175583491 16.02879378939823 0.34316632253837936 0 0 1
86 4 6.489067012273684 15.479260802619004 3.8543809968242466 0 0 0
152 1 8.36994565790861 14.127368557010332 2.5605405211851893 1 0 -2
79 4 10.557686059195591 15.979428005573714 2.0910169558137923 0 0 0
17 2 11.806236293250334 14.928785683446657 4.005042911467062 0 0 0
104 1 9.908968208777345 21.146009400663484 9.495719329171354 0 -1 0
147 1 15.567636851812294 16.71054178997096 4.134697426783098 0 1 -1
135 4 13.987117193382328 15.39171543239052 3.0111154243168192 0 0 0
145 1 14.805378848051129 15.831103692605513 0.7623963055748048 1 0 1
185 4 16.780016220863107 17.270051687490433 1.7923481158744574 0 0 0
11 1 20.03835931009316 13.950849501369904 3.02537836769412 -1 -1 -1
133 4 19.86013164908567 17.991438193227932 4.526461168210472 0 0 0
175 4 20.68600446010103 14.925169377285378 5.177901775614589 0 0 0
73 4 16.775951048399897 14.94048341459351 5.059167598477792 -1 0 1
52 1 18.896659016718722 17.727926685788503 1.2732684069121463 -1 1 1
171 4 20.401430247364598 16.06741484514842 1.8570402814582443 0 0 0
156 2 21.88374202278067 16.861440297523906 3.8006814083386167 0 0 0
92 4 23.704939430614974 15.335103201389067 2.9614365146505457 0 0 0
54 1 25.135408265893012 15.556674164930914 1.0983938835183569 -1 0 1
19 4 1.9845162762572124 20.735111242529523 0.9616420045734685 0 -1 1
10 1 24.696968433926408 18.404664021482876 4.294057913271404 -1 -1 1
38 4 6.809262430572969 22.08921500208812 2.5947795045619446 0 -1 0
76 4 6.25456419484807 19.201251766014046 4.642647857977552 0 0 0
80 4 11.639004869602681 20.930669800620038 0.5386163755139696 0 0 0
89 4 10.000982402260156 22.873844682359984 3.1155948673555227 0 0 -1
74 4 12.313296284088132 20.284117443256978 4.616604816950861 0 0 0
60 1 13.191497327767726 20.962687695469995 2.692789471266103 -1 1 -2
5 1 15.692685763246358 19.021904961446815 0.6214272506488902 -1 -1 1
163 4 15.541340576992425 20.589657788652474 2.4522788680897363 0 0 0
108 2 16.07584752318018 23.15633917663947 2.8223906902822637 0 -1 1
177 4 20.099670409473912 19.60227130533386 0.7896715545875127 0 0 1
125 4 18.352160970885368 22.4808654677362 2.96324814865862 0 -1 0
119 4 22.89190477193422 18.740923169430705 2.661924863649003 0 0 -1
1 1 24.157993687082516 0.7073177157414007 0.8650783921424244 -1 1 -1
126 4 24.59265205100872 22.28095316074208 3.1503189287801954 0 -1 0
102 1 14.52013072461206 24.886159059651114 5.421102138173212 1 -1 0
189 4 18.81345897233528 3.6893594674669377 5.612418429508262 0 1 0
141 3 24.1854392904607 24.966922326403882 5.405893684846399 0 -1 0
70 4 3.448864164226746 6.613825899730338 7.568471185142862 0 1 -1
132 4 0.19811694974193947 6.233947214386284 6.127597959402003 1 0 0
180 4 4.031992568424657 8.834428253086797 4.582507354091773 1 0 1
41 4 4.946283334992296 5.286355684720373 4.583433667296506 0 0 0
88 4 6.922124936413988 6.1393672070976155 7.8023240601564945 0 1 0
66 2 5.272149167418098 7.213443237866379 5.948099388790316 0 1 0
58 1 7.60205551937543 8.064129987551004 8.550411896395309 0 1 0
33 4 5.871920893698642 9.309903658734779 7.347183382624805 0 0 0
50 3 10.47017822090288 7.070378397508365 5.784606669991203 0 0 0
61 2 11.261356524729287 8.545597315248834 6.978235268888721 0 1 0
15 2 11.59511865816816 5.480345707113198 6.334008502945772 0 0 0
131 4 9.969572148743943 7.860222187701164 8.920009388931684 0 0 0
95 3 12.495898271764284 6.939278569491265 7.36059588223098 0 1 -1
6 1 13.56788089434192 7.264818727735534 8.972592290854735 -1 0 0
114 4 15.812054612715267 7.159692149373053 4.652948921807958 0 0 0
187 4 19.238766789826087 6.290236085789344 7.973869852446307 0 1 0
100 1 19.482594673105314 6.510901513716701 5.618818379161732 0 1 -2
14 2 23.496538634510216 4.477764764675166 6.970457492374375 -1 0 0
32 4 21.839614538206533 6.165969384619441 5.668882395326251 -1 0 0
69 4 22.620209862186734 5.684330849696987 8.877786965573835 -1 1 -1
42 4 21.343888640042803 8.93292380147617 8.501889163771006 -1 0 0
43 4 3.456648778194653 11.858225060576023 5.5961978219578254 0 0 -1
151 1 7.116190628250629 10.678643294886333 6.058053933293854 0 0 0
87 4 6.375571190722622 12.954541143228873 6.72637120698038 0 0 0
16 2 4.901347685742859 13.689423163029467 4.929736773102984 0 0 -1
120 4 9.486797968720621 10.301614077010598 6.328462994620604 0 0 0
29 4 11.480326502001958 12.915419710477995 8.5911085664851 0 0 0
45 4 12.814689991556566 9.819841760300127 8.589938798404095 0 0 -1
59 1 12.470863428594855 5.905733565985937 0.6882159973205948 0 0 0
18 4 12.660212716007807 9.619051632299914 5.176215237343731 0 0 0
148 1 15.084052430322906 9.546150341859203 5.377655808531834 0 1 -1
68 4 16.147421391367974 11.133716701509359 6.69964980852401 0 0 0
127 4 12.875896473901998 13.386072031125575 5.538865009799913 0 0 0
144 1 15.221751374094277 13.691534413810107 6.029998866060098 0 0 2
182 4 18.759987381169992 9.222531252354086 5.679003246297688 0 0 -1
12 2 16.46815125099354 12.199154275315708 9.227088731457316 0 0 0
53 1 20.11895270157607 11.098033539464424 8.123263249435059 0 0 0
160 4 18.15177022304056 4.737864423913723 0.09544908353391113 0 0 1
121 4 18.54431912486457 13.35654175551605 8.246018163306253 0 0 -1
118 4 21.02074273475007 11.57775017321947 5.964973421853323 0 0 1
153 1 22.98325522847028 12.89976396005333 6.084212611350688 0 0 1
136 4 24.157896715300843 11.343030745320785 8.31432085503741 0 0 0
31 4 1.3203153413771431 14.147273552496516 9.155356098269944 0 0 -1
170 4 0.8822413917897374 16.962500455267488 7.2021820776267615 1 0 0
172 4 4.1427562559870665 15.01716007352906 6.769189886911942 1 0 -1
149 1 7.159712740724673 17.18244756799186 5.467059076668166 1 0 1
4 1 6.322911663934334 15.037935252260295 7.968607698974716 0 0 -2
71 4 7.220377263360767 17.21416061281323 7.65272214123702 0 0 -1
40 4 11.552322766164178 17.062096032812775 5.087952286735545 0 0 0
24 4 10.401996791585818 16.29559606206619 8.910934476116536 0 0 0
124 4 15.018554851967933 14.207847657652044 8.275930958281082 0 0 0
184 4 14.968385581415806 11.924024803870394 0.2728959070562807 0 0 1
2 1 18.605240443069807 15.115861716043794 6.603276582573009 0 0 0
179 4 17.75275847313593 16.866679933617903 7.861654734510992 0 0 0
164 4 21.292796690270066 18.59670443990072 7.805646425548066 0 0 -1
181 4 22.975746609676577 14.94779352709368 7.5057291145525795 0 0 -1
155 2 23.379126282577673 17.37504005312342 7.3528699360136756 0 0 0
191 3 23.12125115915927 17.352289384292604 5.356282353494532 0 0 0
44 4 4.036184179720056 18.538136287366996 7.801641710620653 0 -1 -1
77 4 1.8417017040295978 19.457801353530588 5.028688900293144 0 0 -1
192 3 2.407655449463088 21.447260094995254 7.562781747188249 1 0 -1
65 2 1.935765771642747 19.529448785128686 7.502563686424714 0 0 -1
157 2 4.022037119880004 22.617274366894076 7.591955289058744 1 0 -1
63 2 6.390661300377235 21.67421228241826 5.2628795044162064 0 0 -1
146 1 5.747338501768103 20.34598596249423 8.88916218667932 0 0 1
96 3 5.74751670755415 21.667065097742952 7.064143357120963 0 0 -1
82 4 8.792739437398405 21.12404448811368 6.319975628887192 0 0 0
101 1 9.192050272914939 18.324262771267378 8.519565266508485 0 -1 1
9 1 12.410173823019525 12.069228349118118 0.06809586310256893 -1 -1 1
105 1 10.903510487776035 21.905786257641196 5.346179391237136 1 0 -1
183 4 11.412758535444363 19.36112804362166 8.431922907745601 0 0 1
169 4 14.675345220866033 17.798091382243484 6.380939555250854 0 0 0
99 1 12.922782096285838 19.22645333278346 6.572559433385611 0 0 -2
117 4 14.884332432940838 20.796718319564224 8.176203434305018 0 0 0
158 2 16.420571922201756 18.841676382189608 8.130801546874658 0 0 0
168 4 15.568106432858238 22.654458301828214 5.108775204850287 0 0 0
186 4 17.562507398889913 20.18192775665787 6.4316433959385275 0 0 0
7 1 19.923706122657485 19.87488335511827 6.276347326171117 -1 0 -1
20 4 21.291022670171323 21.735935270173506 5.654629847010693 -1 -1 1
3 1 23.231465951760168 22.065559275238762 6.665081380428495 -2 -1 -1
93 4 24.202752952234995 19.90172092381924 7.045710551297232 -1 0 -1
188 4 24.40931168099909 22.80047813810423 8.859885407778565 0 0 -2
39 4 4.138730592449354 22.921805347725588 5.1004925425997705 0 0 -1
8 1 3.8154922861331144 25.985243764846185 8.194012550287677 0 -1 -1
154 2 1.3467242238912422 24.444970410974292 9.367963391502844 1 0 0
190 3 2.891078426254396 24.1152666074272 8.35850947722658 1 0 -1
103 1 7.251512590376089 24.836452495558483 6.5596088286613465 0 0 0
97 3 7.236647770765987 23.556475159859666 5.07269674422124 0 0 0
176 4 5.805420839643007 24.67777233925955 8.161130982898912 1 0 -1
140 3 10.984544477088805 25.914552699019257 7.259121642690104 0 -1 0
162 4 12.117084882042459 22.747564405930337 7.144577709671876 0 0 0
85 4 9.385478354205256 23.722723132841395 8.938445576100627 0 0 -1
109 2 11.579373156395889 24.66602455116642 8.630363082998741 0 -1 0
134 4 13.506898529910139 17.941750288873358 0.6678665189471391 0 -1 1
36 4 13.977972303919383 25.73021518421322 7.3875357790943905 0 -1 1
167 4 17.107423227400844 25.891315111455675 8.521786342215668 0 0 0
98 1 19.233277070756277 22.981125048997463 5.24333071193829 0 0 -1
165 4 19.08156360362866 23.105855465723902 8.01803125341046 0 0 -1
159 2 19.469545359464863 25.588751143517808 8.02296362386415 0 0 0
49 3 25.283801790417254 25.529987008668364 8.047245943884656 -1 -1 0
174 4 21.873179798562447 24.749543451564108 7.529063648181823 0 0 -1

Velocities

94 2.087448529513409 3.25440130462293 -1.12065135615625
64 1.9514701154669316 2.8374931450284038 -1.177236742902343
81 0.5897291279130746 1.6382059607271413 -2.0037358168461226
116 -0.078820080879103 2.9916552364514923 -1.2472962377200703
115 0.06727359976207743 -0.20344514556762294 -0.27870591718228116
137 -2.6323168572763103 -4.3391651187882125 -1.6399213248182338
113 6.81946474172819 -1.0701088950494126 -4.680394444417334
110 -0.15503102740111283 -1.858296173921779 -1.2611935891635433
28 -0.4443310787798298 -0.7688891241048061 -3.9176399867941787
122 1.9171930592745323 1.346571638561318 -0.04729731563116049
21 0.4920004307717463 -4.133757316301523 -1.6151802574839005
13 0.6295346120894546 -1.9562226119488362 -1.1105150882377801
83 -0.6116233057732103 1.1248494871832044 -0.855555904963787
84 -6.81761031352394 -0.62724219296424 -5.778839739872354
35 0.14803456606555748 0.5466072277778877 -1.5797766907632753
67 -2.4720189214359 2.3732397300750265 1.9000494972786437
57 0.0868229362231822 0.6563048766439149 -7.170845211510413
25 -4.378104025333626 2.052168349491715 2.653243135986526
62 -0.27911894875096493 -0.3321402167134023 0.14272041757628
166 -1.2142322110947394 -0.7499162298124664 0.968269779576335
72 4.574810210045654 -0.03573378097360146 0.03996641384063244
91 -2.2495183845287445 0.05143289735181562 1.6965217435384057
48 5.740238672997667 2.5003271376339664 3.368946578182834
111 -0.8577519392275259 -1.0002208156410002 -2.7254834907299728
138 4.222337571705995 4.378589971255074 3.821334166583533
56 -6.441140508072922 3.7016351503879927 6.12078869354844
112 -2.4179102293778008 0.052716111180629105 0.5891703167218019
161 4.9630874508715985 1.8466686847036446 -0.4963536314997204
51 -1.168999006294542 -4.272871871937812 4.616791611190608
130 2.3450844218710305 1.6619040093236865 2.753709242437728
37 -0.32605871557889043 -2.916461084159705 1.8685204182266546
142 -11.160886167602055 4.601856569474613 -3.8607679648328537
178 0.23551528265232824 -0.9688770370992053 -0.8456095504277868
106 -4.745924907583885 8.597777132534677 -3.504271518515903
75 2.7454014523324797 0.8372260058142141 1.270144018252372
150 7.81342813942737 -11.015082506105777 -5.888832580190463
34 2.613597511092066 1.4360397675476342 -4.8172104953699035
27 1.35671897590706 3.969272487828782 6.487119004847677
47 -2.1920095097994903 1.8712813840990297 2.452111431077365
143 -1.5396123619171187 1.6232448743421755 -8.75864776283083
123 -4.882409893448372 7.49988016968464 -3.4281608421473933
173 4.850707654803305 -1.2403611095368987 1.1284665649811685
139 4.48812844370481 -1.9293614972173614 0.23694694217973777
129 -0.7190777712517641 -0.5683900640843442 1.1206398090023202
107 -1.7559083487578833 -0.6827168530987215 -0.8478507493217616
23 -6.810776574172097 1.0632309106044364 3.819564978885915
128 1.2883976165406417 -1.5014439598801796 -0.9149880196775529
90 -1.4773715597900474 1.5063733303707016 2.541272638684479
55 11.375767077517654 -8.90137389585047 8.449629485965689
46 1.3090516130417487 -3.079188600047833 -2.8015638607492392
30 3.416669762017343 -3.7109736441538055 -2.739357203945207
26 -5.250167526954814 -1.3240878817390969 2.04980488140821
22 -1.5394127027248876 -0.7383649957557077 -3.1872592824440793
78 2.6069560311101885 1.8624169458625142 -2.306581420697152
86 -2.6715404893964005 -0.8094962448992692 0.45771514503848043
152 -4.239436757160547 0.05305128821455026 4.774901472604367
79 -1.3882984685863955 0.12338450845501371 -5.479437878379916
17 -0.18743719265925898 -0.34632334910367585 -0.29397936562112975
104 0.7375652782752954 0.6281158626958215 -8.000222613340757
147 -6.796941076508785 -0.24662403298336147 8.49577338771353
135 2.4878937092862348 -2.8036739148424905 5.922639363340729
145 3.5134027522803923 -7.911929993333881 -1.7204331709649603
185 -1.2949375587060121 -2.727907360795818 2.227388602956923
11 -3.504793527344548 -4.722895610458701 11.521641062747644
133 0.5452904961244632 0.24067849123512058 2.869925824741037
175 2.2566106650023556 5.021886441051714 -5.774278850839611
73 0.28906183461766144 0.6290800390233645 -1.4543279388339472
52 -7.76736243617538 11.924765851458256 -5.604266293335974
171 5.72549823911356 1.4527407405781367 2.445170301399922
156 4.025733942040288 2.499319444010783 0.6847992713872592
92 2.750857334239381 -3.5331744566479952 5.809865650764141
54 -8.57483778386581 1.1749297018039622 -9.88798669668655
19 0.6312395515668124 1.292633617724454 1.9680947164779399
10 -2.915414188649261 -2.3319027202578884 -2.287850357391308
38 1.9186638014988153 1.669567081425668 -5.272196668213128
76 -3.677190752022362 3.6626336044692076 -4.403816706725793
80 -0.8108279712651694 -0.9335989229076317 1.2798415459205152
89 0.9455769422255589 -1.1342652193960423 2.3427820694088157
74 -2.878939852007951 -0.3042795168123373 1.2429596211294553
60 1.94743696176226 -5.812202923082802 -0.1584984659219045
5 -5.736078093480781 7.763880524325709 -3.677193589255182
163 1.1601735775971187 -1.3778712901936288 2.832316155804679
108 1.5390834312273438 0.45693735328252083 0.019838891908962743
177 0.8037276713802396 -4.279137786996558 4.938450722808882
125 1.7185965344846046 2.491041481229786 -1.6858394119929285
119 0.6868590726319053 1.2964385249739812 6.460617384460441
1 1.8157225281688236 6.775008665023263 4.8935142918422185
126 -1.052843292222794 -0.23565539181682518 0.9680618741818485
102 -3.306701042921958 -0.5489251680300337 -1.9923602065886417
189 3.247309195447441 -4.877193641897397 1.7852981756100457
141 -1.7585646988298624 6.509871815281829 -0.6786668456027827
70 -3.112693600936887 0.950425311633176 -1.0748842685673772
132 -0.42262771938377147 5.579135465177336 -2.31300710163834
180 0.6323882530775613 -0.7186521565680932 -1.6642669877435061
41 1.1289902080594874 3.5370297652891853 -1.8486595282616543
88 -1.996402529722052 -4.119769632150281 -2.7546794892707087
66 -2.424550536111238 0.8254801501632604 1.269721592590719
58 3.5952416039385424 11.933553484391101 -5.990019849301415
33 -1.8974161517521526 2.456856200925829 -0.11960180064433226
50 -5.690316936984024 0.9956779438405253 4.259792567399795
61 0.8622407315460123 0.9750327796368661 -1.0064596039358737
15 0.1961829642834466 -1.7023472796331331 2.965283345313827
131 -1.7336976381193854 -2.824217787941932 2.6156938480070875
95 -2.8440198270140975 -1.0657832962634877 2.8598384401382426
6 -7.0209575607239145 15.389607549019507 8.02004687144448
114 -3.236992993021542 -1.778739848836205 3.5542359510305985
187 -4.193482250705284 4.354860792989532 3.8099168928458385
100 2.197172881522628 3.0454010426223075 2.5897600192740993
14 0.5270299471587988 -1.277871249476962 0.8271561681255664
32 2.4990267223779896 0.10387470408322522 -2.2426394722107665
69 -4.564853174653185 -2.858719819701759 -3.4802281410724465
42 -0.9636593072785475 0.5754705240866469 0.7942931103942319
43 -1.8896299261661222 -0.8234780591200234 0.16332611605806355
151 -7.575616155356035 13.325065253275763 -9.612228045536344
87 -1.348753377057885 -0.806840225441463 -0.585691405435326
16 1.7906820396030727 1.567419978213048 -1.7100434240038982
120 2.4668719641510917 -0.9577865576335519 3.644389324375648
29 2.086345054284805 -2.199175314793254 1.2910403610474863
45 -5.411571756520055 -3.4524934026758003 0.24106445847084979
59 2.9270551320976255 -7.32301622531628 0.8180271336148717
18 -0.5258553315223576 -0.9770974626745308 0.16488104335835121
148 -1.3581935046779448 2.2032670883462124 -2.0756046379253994
68 1.548434400012801 4.338477900467583 1.9170448702893141
127 -3.083402096956527 -1.2546228488668894 -1.7413547556524598
144 10.498448415072652 2.6536392391439234 3.2258970902241955
182 -0.68805185192985 0.576540397796127 1.069097850541565
12 -0.7748537122069276 0.3222834347581241 0.0069721086506425905
53 6.887608091748008 5.64446189010307 11.146240557754496
160 -0.23313774207454235 3.676127936736324 -0.13957184535880632
121 -3.2184733732778907 5.119927905082449 -1.5340828349313251
118 4.215901274349902 0.0754910030458519 -0.4662407113895834
153 13.767212823459953 6.704595539154434 4.399517017141928
136 0.21416693712121698 0.5786684908293499 1.5019777562577372
31 0.09596537111094397 -3.7585050536701474 -0.0919834299550655
170 3.4535122491695303 3.36363251192673 3.713519785911872
172 -4.525004093321358 3.4071444138642573 -1.1307859125116682
149 -12.234580554327007 2.654575506655998 2.57534209744698
4 8.282435732377976 -1.3234174734063697 4.80571986930284
71 -0.4969506029630251 1.7118465609355258 -0.051162091743370545
40 -0.2495803134754047 1.8564885501961799 0.46942280216750676
24 0.8036024016798234 -1.5537030786757806 -1.4421031803712798
124 -0.9728442505807858 -4.246982385262575 4.779010642149443
184 -0.4385658905883787 5.670707670594246 -1.6117693484612037
2 -12.25041739203979 13.749275472833052 9.968415731282292
179 2.2282523117002757 -2.7201094284830547 -1.9935564033464541
164 3.0619410104701155 0.8504710952648814 -3.0274235045228264
181 2.5175087465151567 3.647730053186678 -1.7772681048419552
155 0.9057848054599325 -0.8964105247645343 2.1854039412886763
191 0.9954576054217997 -2.678024243232466 -6.66728865757704
44 0.641400311428931 -2.0774447715768143 -1.316288910042754
77 2.769957518741962 3.3456848752278674 -0.3526150456281683
192 -3.7831144220054775 -0.5096978257370077 0.6371146045128291
65 0.7565427391338398 -0.8724634550589886 -0.3297737910213978
157 -3.376003429571659 -0.28231816966620366 3.31974123166852
63 0.9264741642666441 -1.5854917366953722 -3.1759807994484324
146 11.843543833878556 1.8381495145312505 -3.8206177886594674
96 -5.950857315719601 -1.2956571734536708 -0.0015259626097122953
82 -4.117660874424129 2.0335904750719784 4.677532705225969
101 1.9880188334925708 0.10822841801224499 8.147801067481973
9 9.548110423666996 -7.660361441476307 -10.922379945136226
105 4.024465934819911 2.3602072006754162 2.426974353540422
183 3.5623351789138114 -3.5773162657288515 2.332644833067103
169 2.0161528072893895 -4.71933126170337 1.8440196820975054
99 -8.766709607415232 -10.680193360219599 -0.5461220841713967
117 1.925191593972695 -1.1535157869397998 0.7260999313985678
158 -0.06650549332862175 -3.8354911903728635 -1.260603857198359
168 2.8529727697444245 2.0426733489005158 -1.9559815752676448
186 -0.048595197182605576 -3.5941309602323184 -2.2692700590177886
7 -4.05857030173853 0.6808675776674945 -6.977502384760643
20 -1.6606097825473989 0.8391356223054638 0.9027863237227848
3 1.8272634592038348 -1.552324949038656 -0.3346617036467536
93 0.3442856783606633 -2.5098566584300896 1.275044452592866
188 0.5314545243880737 -3.2077498958787287 1.4736768139770888
39 -1.8969553113178728 3.9599679848513265 -0.18912063997629466
8 -6.804967983601309 7.442922429971012 -5.303082922869148
154 0.44589647684984063 -0.9112595289468333 -2.3657594515621523
190 -4.885871315567994 1.176636459446504 -2.4401663128502635
103 -6.494163674824437 -8.18276350829089 7.793781133690398
97 2.8473102758605378 3.0135617319028465 -3.416175463555364
176 2.379995582370806 -3.64279012826968 -0.008680906585671406
140 6.340286689964619 -3.2685484597453196 0.14972306628381063
162 -2.5125191137893017 0.4452162791047773 -1.0343386087444706
85 -3.6320940954398355 2.369672293540808 -2.7632759156421556
109 1.4527443625513874 1.128616621287428 -2.4642750099739525
134 -3.201731554875504 -5.418148427128704 6.093302425878422
36 -1.1244062118404667 -1.7487602528810682 -0.6227474236526018
167 3.3689020771390603 2.503682004809743 0.01389834570450448
98 -7.928134791094544 -7.035507906308919 -1.0776656929654453
165 0.37832814565415596 -2.353992637978687 1.891495027833764
159 1.1703230605003903 -0.16500434261742855 0.2914044979765629
49 -2.855175380510202 -3.420486554264011 -1.299707036263468
174 -2.1385741459630765 -2.3553424497162565 0.2558592134383176
