LAMMPS data file via write_data, version 10 Sep 2025, timestep = 398, units = metal

192 atoms
4 atom types

0 24.909354 xlo xhi
0 21.815299402435457 ylo yhi
0 9.619301915937136 zlo zhi
0.40926158522763945 0.019207506470194195 5.704494503559394 xy xz yz

Masses

1 6.939999998214724
2 91.22399997653315
3 15.99899999588435
4 35.44999999088069

Atoms # atomic/kk

11 1 2.442294506971829 1.6838989631478454 2.422634657959027 0 0 0
32 4 1.99797797638978 3.883245591061943 1.7346521927425882 0 0 0
7 1 7.011721140024312 4.123786858828447 0.01472967438318211 0 0 0
21 4 3.050731514694187 7.021829432820921 8.746688107548147 0 0 -1
44 4 4.857499665710659 1.7534065349334405 2.0248160384667115 0 0 0
6 1 12.75903542904825 3.1020621090594096 0.47999167763409756 0 0 0
22 4 10.951895722032717 1.5917095754247754 0.5766929117967831 0 0 0
45 4 11.58746370131841 3.8853260432679626 3.5956800270848306 0 0 0
115 4 18.627400875997502 7.991324240235163 9.231600842379805 0 0 -1
125 4 14.644085143199106 3.722743998529151 1.7494897574532442 0 0 0
137 4 17.66510234203483 3.849113375247028 3.4457708087540633 0 0 0
116 4 24.13100645285872 6.86463230723835 8.799666509275662 0 0 -1
1 1 3.1541406955301023 9.044264175686246 1.8666573356380682 0 0 0
5 1 1.0320712889622883 7.202471587975942 3.4882633659328723 0 0 0
14 2 3.4983736550831295 5.634610065226559 2.617278457888724 0 0 0
49 3 2.622440592972192 7.240308218053822 2.3186093135150605 0 0 0
4 1 7.5333485786071455 4.434050078863047 4.296701983285055 0 0 0
8 1 6.962843808423768 6.425740715600254 2.0171878912091676 0 0 0
25 4 5.576553541898923 8.990652411109082 0.8966915908747509 0 0 0
33 4 8.229828401550359 4.3223160556656115 2.004165141427227 0 0 0
37 4 5.121851522201114 5.514329453428068 0.6929687301997708 0 0 0
41 4 5.599993554405358 6.006604407356967 3.9729046828428727 0 0 0
10 1 12.73532916151319 7.406511009931659 1.3493320371150779 0 0 0
15 2 10.447656101092768 5.839971182978834 2.704168697065762 0 0 0
34 4 8.905881826920275 7.668070161024069 1.5724900704206706 0 0 0
38 4 11.47256169697208 5.446986022014871 0.4192108461334355 0 0 0
48 3 11.927728830632399 8.915864331869866 0.1988790236465264 0 0 0
50 3 11.707995724848839 7.211596233955977 3.108631836761652 0 0 0
98 1 15.627194574126367 8.454140871048297 1.149384529208718 0 0 0
103 1 13.542409405683841 7.11675368779242 3.737832365081661 0 0 0
109 2 15.933308124821323 5.5864511042330705 2.589219927540853 0 0 0
140 3 14.674126663614151 7.03360817402309 2.143022193760015 0 0 0
102 1 18.7120265562813 5.28142723787971 4.894278701174429 0 0 0
105 1 18.8061817501371 7.406025888744988 1.7196843091781266 0 0 0
119 4 17.8753642927916 9.460728092504075 1.022185203248969 0 0 0
126 4 21.109140474933984 7.115151687974171 0.9958874720082249 0 0 0
131 4 17.27882331056128 6.030825154236101 0.5510284295145103 0 0 0
134 4 17.66901482541982 7.199439741695952 3.774176953341879 0 0 0
106 1 24.126450721849928 9.142912570719982 2.242198284650897 0 0 0
110 2 22.650657985876315 6.152778107440335 2.6169101073051095 0 0 0
132 4 23.52930530147792 4.311967111610226 1.334495663754833 0 0 0
139 3 24.05960972960222 9.326936290899281 0.3702341930405714 0 0 0
141 3 24.048002490775975 7.334554344806685 2.9509720239413584 0 0 0
20 4 1.256284979981903 10.645505079544261 2.1950186620315213 0 0 0
30 4 3.985410107278926 10.031114125550562 4.025719913651971 0 0 0
71 4 4.76807955404822 12.253623181235074 0.7936320740101889 0 0 0
9 1 10.218082334616584 13.896530953666533 9.222721453340924 0 0 -1
31 4 10.425303188430986 10.89473515643822 3.820228712807233 0 0 0
56 1 13.290915073181141 12.69692453566202 2.502601729083851 0 0 0
72 4 11.811473584800261 12.539971527748381 0.5370730527953069 0 0 0
114 4 14.319778275789425 10.574356422766437 1.8359677688107563 0 0 0
123 4 16.820744952625382 11.955405194070664 4.9271534795297915 0 0 0
164 4 17.844978362054533 12.843182291808127 1.2834345513697147 0 0 0
124 4 23.23177825233639 11.06528299236267 4.135592235909734 0 0 0
148 1 0.28950617886660485 12.910057544260297 2.8490516831949146 1 0 0
165 4 23.91387963865089 12.700869626631649 0.7709561463932303 0 0 0
63 2 3.4355605471611343 16.355435787362335 2.7870223022468386 0 0 0
79 4 1.9943290513288046 14.359544308398192 2.0383722655957475 0 0 0
96 3 2.236716583255954 17.65592285505491 2.268878810114153 0 0 0
55 1 6.83489455847051 16.14830110363266 4.261738824563366 0 0 0
58 1 5.9990102291836696 14.096107236397552 1.8794441375247892 0 0 0
59 1 6.685628722011826 17.34634344518637 1.3770738329367311 0 0 0
80 4 7.995175485595489 15.486525966347838 2.182817008552341 0 0 0
85 4 4.829081149987346 15.926977215973103 0.6625701380702451 0 0 0
89 4 5.3541119076324195 17.86656664041328 3.4616835196188336 0 0 0
91 4 5.127849321722666 14.484761393596234 4.028061426058396 0 0 0
64 2 10.099788056910224 17.094284939121987 2.8619132774595037 0 0 0
86 4 11.115089236105414 16.642654805605257 0.5857285486295368 0 0 0
92 4 11.423017765902244 15.068106869064472 3.5660105059252327 0 0 0
97 3 11.315268132624903 18.529508295455308 3.1853624661341846 0 0 0
156 2 15.9056129818398 16.459217944292753 2.4331023682817823 0 0 0
175 4 14.65046012534338 14.446479758747907 1.778583202434821 0 0 0
191 3 14.863935601481348 17.92482853477997 1.9700207341413742 0 0 0
150 1 21.907903882706165 20.58560876742818 9.268430559593083 0 0 -1
151 1 19.326402268055475 16.747600436291016 1.7840130568905972 0 0 0
176 4 20.85864312745831 14.941556963623855 1.8774017613484137 0 0 0
181 4 17.38918319219824 16.452617296596916 0.4284205671973405 0 0 0
185 4 17.913404398053046 17.189913159314873 3.6923056986740335 0 0 0
157 2 22.590536181350334 16.605695038327212 3.118996629576536 0 0 0
182 4 23.895424901101173 16.326727421602463 0.8646361679672251 0 0 0
188 4 23.89497357438646 14.54888473321283 4.006882919817943 0 0 0
192 3 23.772921714549113 17.91421738516555 3.800725421662894 0 0 0
69 4 1.7698381415038211 21.392860384898785 2.06131125197975 0 0 0
77 4 5.016371091696218 23.71370706980524 7.184792730877427 0 0 0
70 4 5.510198944710104 20.319589464924572 0.9475876217491568 0 0 0
60 1 10.666383672555305 20.066185331430813 1.9467998290215145 0 0 0
78 4 10.268197229996442 21.584731319929556 3.9245510953097185 0 0 0
82 4 8.52414049045458 18.835832587141212 1.847789650590215 0 0 0
95 3 11.250578902486117 20.144243671858934 0.11856710753180548 0 0 0
142 1 15.248511200805439 19.358385106470546 0.7002936028418726 0 0 0
147 1 13.23004783130933 18.707995154985085 2.688668436743227 0 0 0
162 4 13.817219229907014 21.01696378199976 1.798817862161063 0 0 0
173 4 14.877407379072519 22.688471096116913 5.128744589511557 0 0 0
163 4 20.628293312951957 21.932102175002168 1.7280760918073632 0 0 0
168 4 17.57443800456626 20.466314306932667 0.7445357212751298 0 0 0
152 1 22.644714181120698 20.481878423724464 1.991960924777231 0 0 0
153 1 0.6552485059533131 17.995636514967256 3.193040841262612 1 0 0
174 4 23.704326256137232 21.735107997171074 3.969588872915684 0 0 0
178 4 21.20307223659506 18.389181671396827 1.8841237407074358 0 0 0
190 3 23.94220663579127 19.95514046201984 0.5469575219692557 0 0 0
104 1 12.805040943534987 4.000593732904422 5.79968713224293 0 0 0
3 1 3.095002238268144 5.271523457734081 6.991190932196731 0 0 0
26 4 1.9574766821161782 25.536847345609647 7.985419551761555 0 -1 0
28 4 2.218060513820445 5.40155670818823 4.824793402039328 0 0 0
42 4 1.093951957931384 8.687806712544562 5.512282663923575 0 0 0
13 2 5.238837495484652 6.274325554280835 9.484503702811056 0 0 0
18 4 5.477631859777276 5.222939724357592 7.2652608860263035 0 0 0
27 4 7.2748324309241035 7.497761052580941 9.076295555136229 0 0 0
35 4 4.572540129450087 10.017063197318388 7.266490580099523 0 0 0
2 1 11.092121692406863 8.612482058845263 4.355438496158205 0 0 0
19 4 11.423462806407283 5.608038839498999 6.859982396278345 0 0 0
29 4 8.989769439832115 6.253185114983803 4.698307355762823 0 0 0
101 1 15.52140428467572 6.6861441899607 6.9354189556687915 0 0 0
120 4 14.062672702305116 7.235361086427737 8.680733356946384 0 0 0
121 4 14.694573263037599 5.51041916479864 4.964780849331298 0 0 0
135 4 13.412733573533572 9.088075637271055 5.175058099171271 0 0 0
108 2 18.909547989156287 5.670532404368298 9.317974340314372 0 0 0
113 4 17.629015599198734 5.428482585733686 7.100641911482573 0 0 0
129 4 16.520974536433325 8.986719584968867 6.569126152758031 0 0 0
122 4 21.374770224608053 5.761086548840103 4.60952240359808 0 0 0
16 2 2.6256955629117082 10.48468470685394 6.014697298096206 0 0 0
39 4 1.336709722516252 10.8462805507965 8.112150751851319 0 0 0
46 4 1.9840950250449674 12.714218360222729 5.30264154766619 0 0 0
40 4 7.967359003945374 11.36446804866185 8.116569984714127 0 0 0
43 4 7.22597827770612 11.656626800215209 4.769239191386983 0 0 0
47 4 10.53901303941357 13.070753541395998 6.701744193655571 0 0 0
17 2 9.206148101944347 11.215876372926921 5.963700905065935 0 0 0
36 4 9.878889765476526 8.995998676056283 6.5670136074660075 0 0 0
111 2 15.043526660678818 10.79078779516836 5.9384263696670905 0 0 0
138 4 13.477151771143996 12.510448063144361 4.90313098496663 0 0 0
127 4 14.489862815626099 11.495126035187344 8.091284989216946 0 0 0
133 4 20.11773414206798 13.047798156760171 6.08947392604725 0 0 0
136 4 20.04465160966236 9.818142976231627 4.691640170025386 0 0 0
100 1 23.90196472207092 10.533670898352828 8.540735561752857 0 0 0
112 2 21.560733958530623 11.204568566908213 5.882185728327742 0 0 0
128 4 23.250272869435623 12.593184443247663 7.350586738662624 0 0 0
130 4 21.859467508571715 9.573979180949618 7.644244825638024 0 0 0
23 4 2.2939489023924913 15.038011799170551 8.682638571085606 0 0 0
54 1 3.1456232467024785 16.89503383196124 7.27956092144756 0 0 0
57 1 0.5429009562228845 14.87756725835872 5.774089685228922 0 0 0
75 4 2.246825151176502 16.415220796921336 5.136770107284578 0 0 0
24 4 8.253335245225145 15.26609464138441 8.199167411511 0 0 0
62 2 6.54118182588574 16.571717823282402 9.345832687895758 0 0 0
67 4 5.55771025370665 17.11404040641488 7.184368166566305 0 0 0
12 2 12.935617358225924 16.103935102466092 9.323753256944821 0 0 0
68 4 12.049094142847183 16.45366118427817 7.041646281838609 0 0 0
76 4 8.918661233072141 17.204537712114124 5.045680578604329 0 0 0
117 4 14.943697242905984 14.93934239059032 8.374263986420894 0 0 0
146 1 15.88549221820521 16.64538612746512 6.857503537561881 0 0 0
149 1 12.914983844299071 14.921819077091731 5.385335827825057 0 0 0
171 4 14.956947765182926 16.002951501413783 4.806439492605388 0 0 0
118 4 21.07484468149372 10.437430636121338 0.6404874836232228 0 0 1
155 2 19.052241344349845 17.132752653761337 9.477741765343751 0 0 0
160 4 18.1846620092693 16.29330298437278 7.385009269266039 0 0 0
99 1 22.714760214878883 14.542587843063266 8.769499308983452 0 0 0
107 2 0.2970195101431052 16.418278746369147 9.403242143490651 1 0 0
161 4 24.043876115561126 16.23345634318352 7.188339158839762 0 0 0
172 4 21.21073870102176 16.69311491160067 5.113468188963092 0 0 0
65 2 3.1208783438914596 22.49055389807428 6.644040614394078 0 0 0
73 4 1.7414391954437642 18.424556323029595 8.329056306566903 0 0 0
87 4 1.7542191514062555 22.09643547878065 8.514143460845501 0 0 0
74 4 8.131184110297866 12.231778400901621 0.801404401607645 0 0 1
83 4 3.7684734758117617 20.423143095563415 5.8255000377263775 0 0 0
88 4 8.351004366666887 23.1172939211731 8.26516019726805 0 0 0
90 4 7.357750960427449 20.677674190399486 5.953892063005751 0 0 0
51 1 11.121793418879966 19.527370834535972 4.884387195825775 0 0 0
66 2 9.146849350615557 22.256986022532537 6.091347991335563 0 0 0
84 4 10.538359744085392 20.297488295376304 7.113032368522158 0 0 0
53 1 11.898142955087367 20.427082768721792 9.08377053793024 0 0 0
158 2 15.073757230358465 20.76807538584286 6.519740525111569 0 0 0
169 4 15.141232623195982 18.60406273658553 7.936303176360133 0 0 0
183 4 13.963118289900317 21.774017055299936 8.375681414683566 0 0 0
186 4 13.65925665795509 19.40626278684686 5.073292560917158 0 0 0
170 4 20.256213123687022 18.861393479680846 8.319526154058424 0 0 0
179 4 17.41237960268612 20.697017049217393 6.415593222351919 0 0 0
184 4 21.088046686413108 22.556272501157473 8.207889665258884 0 0 0
187 4 20.85124706799678 20.353502859864737 5.1930994132149175 0 0 0
143 1 22.826849903452892 18.74382795248163 5.389814139200396 0 0 0
145 1 0.5663373343378693 14.488625903914505 0.024290641740938177 1 0 1
159 2 22.24140152632065 22.22353577050187 5.945657831081639 0 0 0
180 4 23.506306765569015 20.237437929010422 7.2533998254071745 0 0 0
93 4 2.13101796879923 23.619373105340355 4.803571722025408 0 0 0
94 4 7.8843814383336435 23.966296701318843 4.849744016999762 0 0 0
52 1 10.552081105161045 24.356794282838987 8.79242294602808 0 0 0
61 2 12.550541920205925 27.13873931639091 9.216118565837704 0 0 0
81 4 11.154614316284253 23.74423744072023 6.546119716179601 0 0 0
166 4 14.304337779219964 25.49765615298112 8.16056176429564 0 0 0
167 4 21.141256775390804 26.517147120162143 8.122434812343428 0 0 0
189 4 20.967877479761214 23.948238437360583 4.947317224587944 0 0 0
144 1 22.98969917670315 24.07967587586681 9.275465334811088 0 0 0
154 2 0.5085388348626422 20.95316200633354 0.03432052225878411 1 0 1
177 4 23.961711118285336 23.74820155442725 6.932224039321306 0 0 0

Velocities

11 0 0 0
32 0 0 0
7 0 0 0
21 0 0 0
44 0 0 0
6 0 0 0
22 0 0 0
45 0 0 0
115 0 0 0
125 0 0 0
137 0 0 0
116 0 0 0
1 0 0 0
5 0 0 0
14 0 0 0
49 0 0 0
4 0 0 0
8 0 0 0
25 0 0 0
33 0 0 0
37 0 0 0
41 0 0 0
10 0 0 0
15 0 0 0
34 0 0 0
38 0 0 0
48 0 0 0
50 0 0 0
98 0 0 0
103 0 0 0
109 0 0 0
140 0 0 0
102 0 0 0
105 0 0 0
119 0 0 0
126 0 0 0
131 0 0 0
134 0 0 0
106 0 0 0
110 0 0 0
132 0 0 0
139 0 0 0
141 0 0 0
20 0 0 0
30 0 0 0
71 0 0 0
9 0 0 0
31 0 0 0
56 0 0 0
72 0 0 0
114 0 0 0
123 0 0 0
164 0 0 0
124 0 0 0
148 0 0 0
165 0 0 0
63 0 0 0
79 0 0 0
96 0 0 0
55 0 0 0
58 0 0 0
59 0 0 0
80 0 0 0
85 0 0 0
89 0 0 0
91 0 0 0
64 0 0 0
86 0 0 0
92 0 0 0
97 0 0 0
156 0 0 0
175 0 0 0
191 0 0 0
150 0 0 0
151 0 0 0
176 0 0 0
181 0 0 0
185 0 0 0
157 0 0 0
182 0 0 0
188 0 0 0
192 0 0 0
69 0 0 0
77 0 0 0
70 0 0 0
60 0 0 0
78 0 0 0
82 0 0 0
95 0 0 0
142 0 0 0
147 0 0 0
162 0 0 0
173 0 0 0
163 0 0 0
168 0 0 0
152 0 0 0
153 0 0 0
174 0 0 0
178 0 0 0
190 0 0 0
104 0 0 0
3 0 0 0
26 0 0 0
28 0 0 0
42 0 0 0
13 0 0 0
18 0 0 0
27 0 0 0
35 0 0 0
2 0 0 0
19 0 0 0
29 0 0 0
101 0 0 0
120 0 0 0
121 0 0 0
135 0 0 0
108 0 0 0
113 0 0 0
129 0 0 0
122 0 0 0
16 0 0 0
39 0 0 0
46 0 0 0
40 0 0 0
43 0 0 0
47 0 0 0
17 0 0 0
36 0 0 0
111 0 0 0
138 0 0 0
127 0 0 0
133 0 0 0
136 0 0 0
100 0 0 0
112 0 0 0
128 0 0 0
130 0 0 0
23 0 0 0
54 0 0 0
57 0 0 0
75 0 0 0
24 0 0 0
62 0 0 0
67 0 0 0
12 0 0 0
68 0 0 0
76 0 0 0
117 0 0 0
146 0 0 0
149 0 0 0
171 0 0 0
118 0 0 0
155 0 0 0
160 0 0 0
99 0 0 0
107 0 0 0
161 0 0 0
172 0 0 0
65 0 0 0
73 0 0 0
87 0 0 0
74 0 0 0
83 0 0 0
88 0 0 0
90 0 0 0
51 0 0 0
66 0 0 0
84 0 0 0
53 0 0 0
158 0 0 0
169 0 0 0
183 0 0 0
186 0 0 0
170 0 0 0
179 0 0 0
184 0 0 0
187 0 0 0
143 0 0 0
145 0 0 0
159 0 0 0
180 0 0 0
93 0 0 0
94 0 0 0
52 0 0 0
61 0 0 0
81 0 0 0
166 0 0 0
167 0 0 0
189 0 0 0
144 0 0 0
154 0 0 0
177 0 0 0
