LAMMPS data file via write_data, version 10 Sep 2025, timestep = 110000, units = metal

192 atoms
4 atom types

-0.46426546791675527 25.37361946791714 xlo xhi
-0.4065978662000198 22.221897268636152 ylo yhi
-0.17928645219118433 9.798588368128229 zlo zhi
0.42451738201514844 0.01992349308140057 5.917137497827613 xy xz yz

Masses

1 6.939999998214724
2 91.22399997653315
3 15.99899999588435
4 35.44999999088069

Atoms # atomic/kk

94 4 1.0216921928426912 2.9108746170082767 3.3298930028834444 0 1 1
81 4 6.536766558261067 3.198778590918302 1.7284697940309417 0 1 0
131 4 9.321995483919046 7.199233542724713 9.757252214716845 0 0 0
115 4 12.781312497871456 1.1147760654039993 2.3824964073558226 0 0 0
102 1 12.707816505344441 2.7905295327000172 4.2054347811659865 1 0 0
6 1 13.068303776212552 8.050483966420014 9.750810759364914 -1 0 0
137 4 15.25526803362002 1.6689026014356694 0.11931409545005078 0 0 1
113 4 15.142008811463922 3.4433607056851794 3.109895447476306 0 0 1
110 2 24.409249480720348 2.7097552409678167 3.189157252075151 0 0 0
28 4 24.973658253032646 2.495205906597023 0.2597659346843426 -1 0 0
122 4 22.131046954389966 2.8184251343063904 1.8965903826109685 0 0 0
21 4 2.4711200827489863 5.790447707179372 1.969735280456261 0 0 0
51 1 0.4590618500243714 5.737889801626976 3.530435184422154 0 0 0
116 4 8.255053119941952 4.172381280434843 4.635833027157355 1 0 -1
166 4 12.397031446302172 5.251884573328416 4.87632903661801 0 1 1
25 4 10.648642540746245 6.85934247457059 2.0053847542464402 0 0 0
72 4 14.4114522864961 10.92080296674637 9.537615127171858 0 0 -1
114 4 15.854058567142717 7.15675578153089 4.466629695969236 0 0 0
48 3 16.920890184351308 6.5817220168104615 0.9240676794335658 0 0 0
138 4 19.007204095591497 5.943552935402291 3.3829802467176426 0 0 0
56 1 21.489604797839583 6.583114331104164 2.8787167813253474 0 1 -1
161 4 21.7587520653355 6.141623519754127 0.611372348736722 0 0 1
112 2 23.237715148158728 4.275138528888982 -0.01615029575276496 0 0 1
130 4 24.583601787448444 5.167163826712798 2.0130626686375113 0 0 1
83 4 0.163725862228423 8.001182826250838 2.678559218471654 0 1 0
13 2 2.2896854265169058 8.16974161176315 1.6336341953395956 0 0 1
37 4 2.040754635212179 10.68035132804672 2.4808749557122844 0 0 1
75 4 6.077966265942641 11.519434126920867 4.7788248247586775 0 0 0
35 4 4.657330318112821 8.789331535824877 1.8805469801826882 0 0 1
62 2 10.209655803259313 9.037999279652087 0.9309786606225953 0 0 1
150 1 10.854953632137278 11.144116955669526 3.904695777235612 0 0 -1
34 4 8.47289606185637 9.679375008796727 2.2963175791796613 0 0 0
91 4 12.193879620271389 10.148170244818209 2.218764564913399 0 0 1
123 4 15.948289310418415 9.537463332084656 1.879299257666397 0 0 0
143 1 14.242928803642895 9.479932497411232 -0.0230785778957531 0 -1 0
111 2 17.348109167166747 7.56188385280766 2.503421240824007 0 0 0
139 3 18.855498621306438 8.951103703559188 2.285703592753986 0 0 0
107 2 19.748046152700375 10.267462047767333 3.373082850481555 0 0 1
129 4 17.81185732711922 11.599263441624084 3.3432174365215594 0 0 0
23 4 20.792558484562058 11.689224404762488 1.626559783814023 -1 0 1
128 4 21.98292581875704 9.216513424316908 3.3758878430349566 0 0 1
55 1 23.035356301855494 11.177537174392002 2.2605066533571248 0 0 1
43 4 2.797329353962817 12.854873165162612 5.5671188658232555 0 0 -1
178 4 0.7799890360360087 14.003709284544211 0.2686693261995998 1 0 0
142 1 0.303985533859105 11.950936156797066 1.5580705031436495 1 0 0
106 1 4.509291227273482 11.087009804483792 2.804396880427367 1 0 0
30 4 4.228811956228056 13.678133234679416 2.813665210435479 0 0 -1
146 1 6.4255886418648505 21.10468380124959 8.773877292044986 0 0 1
22 4 8.089787236395034 14.441617160194811 0.5732788619155597 0 -1 0
152 1 9.004328086973242 15.020158584401717 2.9185956765587484 1 0 -2
27 4 10.455782004985268 13.323792981550035 3.2900842783606987 0 0 0
17 2 12.337951251495776 15.047918103362026 3.4457035352039957 0 0 0
47 4 12.407655412356624 14.560605988301825 0.7332888242733553 0 0 0
145 1 14.327655604029731 15.832753344608747 -0.06143062821446502 1 0 1
127 4 13.772898057566206 13.01257258198541 4.056297501518502 0 0 0
173 4 16.982686292264113 13.838358536426288 0.4221619549378959 0 0 2
90 4 24.252094967289672 11.260236370144787 0.13515880107956268 -1 0 0
92 4 24.826087425479898 15.967039415939922 3.620887826532284 0 0 0
153 1 22.84298349253487 13.067774318383071 4.566820007886485 0 0 1
46 4 24.70389790187042 12.265309615034402 3.456621567866638 -1 0 1
26 4 1.436321274897953 17.69129609442841 1.4799730994476237 0 -1 0
172 4 4.222613409136288 16.1567001246188 5.131761067776912 1 0 -1
78 4 4.578888401922476 16.199519995209773 0.3684812345396403 0 0 1
79 4 10.69196091328209 16.78100666397612 2.5595110678763326 0 0 0
147 1 16.527030680257283 17.040149089780332 3.801694100741122 0 1 -1
135 4 14.387242967621628 16.319100727181883 2.721546665677434 0 0 0
5 1 16.51465324712754 19.304785180170803 0.6027931413596624 -1 -1 1
52 1 19.997620269374046 18.609398419084012 2.042365884591862 -1 1 1
185 4 17.727484009033567 17.82056991001292 1.9472866882857005 0 0 0
171 4 21.87380814557524 17.238114350831214 1.3915842868602177 0 0 0
156 2 22.746047480849228 17.409916485479418 3.836344200331644 0 0 0
119 4 24.061520481662683 19.488066978820484 2.985287920555901 0 0 -1
54 1 25.273523046840374 16.224391356960016 1.2862638350793059 -1 0 1
19 4 0.8632668677925157 21.095452728484634 0.40087790963079545 0 -1 1
38 4 7.032213780217246 22.27608333631736 2.8576791848126577 0 -1 0
89 4 10.299680794436208 23.7200886871807 3.726063082178987 0 0 -1
74 4 12.557529204595042 21.174014905077247 4.688248588619084 0 0 0
80 4 11.39178382456531 20.15882943906102 0.791270565640203 0 0 0
60 1 12.901056502726437 21.12568595138886 2.4547472522541276 -1 1 -2
163 4 15.655433580801985 21.196531020170365 1.8056370365400944 0 0 0
108 2 15.841787176730884 23.611849357646246 2.4983749973597607 0 -1 1
177 4 20.308401971173275 20.27224527497051 0.6055884085524126 0 0 1
125 4 18.313765277277653 23.6933142031764 2.4522808510353507 0 -1 0
126 4 24.899421337604423 22.86038962903494 3.0995602937293687 0 -1 0
1 1 24.505645582703373 22.4159758758929 0.4217705235558881 -1 0 -1
64 2 7.641352075565708 1.9120818070778367 3.54629269952557 0 1 0
141 3 24.022057687886708 3.1076594078937276 4.959308447444816 0 0 0
132 4 -0.19434652787606327 5.745619906437276 5.744933295014916 1 0 0
70 4 3.0845913107692207 5.67912466957788 8.453525347662314 0 1 -1
41 4 4.131231285082525 4.532278370686174 5.39918490210267 0 0 0
88 4 6.759683788742941 5.554636295123366 7.742172686372953 0 1 0
66 2 4.655987874592401 6.500829703908497 6.84753275854917 0 1 0
57 1 8.292505268939856 6.477251070420869 5.975835499861106 0 1 0
50 3 10.032024334162887 7.098095008091347 6.584105058122728 0 0 0
15 2 11.595195423458588 5.842930253020727 7.116144807060002 0 0 0
95 3 12.138388623745149 7.574796912108293 8.06593894533761 0 1 -1
36 4 13.595504555844553 4.928276645348349 8.68436021656311 0 0 1
187 4 19.09221051569606 5.336193262833638 7.939324199969158 0 1 0
100 1 19.994589535081147 5.347085675737865 5.708658403133375 0 1 -2
14 2 24.03752423576166 4.30606027195031 6.729988032312174 -1 0 0
32 4 22.07625879733731 5.524895252167946 4.9809733171592265 -1 0 0
69 4 22.909026735639443 5.844725596698178 8.349414144057071 -1 1 -1
180 4 3.3545967749701164 7.963571042882151 5.4155460438115455 1 0 1
84 4 6.470870161365033 7.734719155540809 5.297955864022272 0 1 0
58 1 7.332984733304892 8.212227371960783 9.36072119667743 0 1 0
33 4 5.123112919225179 8.533487952895252 8.39670223051372 0 0 0
151 1 6.387472756881079 9.676143527853936 6.610051949645115 0 0 0
120 4 8.162182137338178 9.950252972033866 7.8787685249144825 0 0 0
61 2 10.428534280777845 8.63818701517312 7.837845713567142 0 1 0
45 4 11.249363340799293 3.836474889864826 0.08792418801804891 0 0 0
18 4 11.308029760233298 10.461318456062882 6.232954775049606 0 0 0
68 4 16.132616816186335 11.103646538716648 6.420609519197434 0 0 0
148 1 16.57603505434328 8.926574695081685 5.7797912620408045 0 1 -1
182 4 19.004972732468673 8.955824720234268 5.487507338674931 0 0 -1
53 1 19.896239052811552 11.320520828700673 7.419127861385185 0 0 0
160 4 18.20603973966901 9.914549757388782 9.023017773041516 0 0 0
118 4 20.593494045060403 12.05410345165185 5.25245666249478 0 0 1
42 4 21.652484691465787 9.528859251105029 8.32211529935841 -1 0 0
136 4 24.64205644106898 11.533610631885416 8.549217906731947 0 0 0
31 4 1.9035621335344817 14.529136076508143 9.36536974293087 0 0 -1
87 4 5.55803946671835 13.815174276525775 7.575322650449835 0 0 0
16 2 4.947480413521519 13.859329917219327 5.136141044498295 0 0 -1
86 4 7.444971371753616 14.816554370102299 4.800712282916713 0 0 0
4 1 7.204043230048914 15.526474560362782 7.3489743872481395 0 0 -2
59 1 12.168413039101486 5.892091699079864 0.21310773706131733 0 0 0
67 4 8.427881051138316 14.552068745318266 9.192528448633853 0 0 0
29 4 12.114597899297271 14.216535092250368 9.285851587903254 0 0 0
40 4 12.112272033978575 15.792481959872408 5.613790403370101 0 0 0
144 1 16.044313388577365 12.704162261860631 4.469217808970313 0 0 2
124 4 15.407921297656925 14.049307491071973 8.280086489763459 0 0 0
73 4 17.39258446463043 14.721987578221116 4.851738546874595 -1 0 1
2 1 17.31880359954024 14.984228033711874 7.133496482482653 0 0 0
12 2 16.61742640583551 11.746908490694835 9.1015632004436 0 0 0
121 4 18.572071497512056 13.170929031037726 8.145564883853812 0 0 -1
11 1 19.546894765575274 13.853181380332769 4.170015992225203 -1 -1 -1
175 4 21.77323859418962 15.040031370784302 4.072052252214985 0 0 0
181 4 23.35543132001066 14.997462788626498 7.408734464618222 0 0 -1
170 4 0.3818210672603317 17.297427975012354 7.270824767527962 1 0 0
44 4 3.4392215910317825 18.28228976971974 8.067412125497098 0 -1 -1
65 2 1.4886927009542181 19.74936147635897 7.819909676561201 0 0 -1
149 1 5.026317571349755 18.299741171107783 6.095392058780509 1 0 1
71 4 7.1299655190095725 17.893686951803822 7.264516743831142 0 0 -1
24 4 10.488835638435994 17.162290686109454 9.563808080754175 0 0 0
101 1 8.96898730810797 18.617915035815773 8.361514317746561 0 -1 1
9 1 12.245976242218278 18.744646173838085 8.916083856917401 -1 -1 0
169 4 15.720399359113307 18.11580876458949 5.833418658564622 0 0 0
184 4 14.513473508263653 17.884287959793227 9.060719644609135 0 0 0
158 2 16.63480138747955 18.9028778425356 8.1412009791207 0 0 0
133 4 20.58474170512344 18.46028358996953 4.453670379994224 0 0 0
179 4 17.84719866188943 16.755730969115152 8.425207378100993 0 0 0
7 1 20.842049740669196 19.94415337891024 6.421151129972946 -1 0 -1
164 4 21.746741506750205 18.42123061539382 8.377125178097327 0 0 -1
10 1 25.34822427070351 20.312510602269892 4.793087153939157 -1 -1 1
155 2 23.793846652732192 17.38353318135969 7.626445128419173 0 0 0
191 3 23.233467368308105 17.67996149491723 5.73560693558383 0 0 0
77 4 1.6921041664011551 20.149210501082738 5.372744470939084 0 0 -1
192 3 2.470067677102763 21.437576740422823 7.853537523526989 1 0 -1
157 2 3.8906773073877785 22.842211270983896 8.153060847429915 1 0 -1
39 4 3.727905826125329 23.520618694689343 5.511529237292085 0 0 -1
76 4 5.03794216495241 20.101749982014745 4.584302752280134 0 0 0
63 2 6.094828936089342 22.26266266453328 5.439674750854292 0 0 -1
96 3 5.522528369560746 21.946876768264705 7.306984622238405 0 0 -1
82 4 8.397682829141658 21.66185955714548 5.9597563275571686 0 0 0
104 1 10.359020834278162 15.571024751768176 -0.058316942247250494 0 -1 1
105 1 10.964252980216555 22.068465043155896 6.16171929155903 1 0 -1
183 4 10.680079547527658 20.287465089922396 7.862686099435861 0 0 1
85 4 10.522469835311592 23.72217202241751 8.727915722460494 0 0 -1
134 4 14.360160766705445 24.11121798500321 9.626829444225674 0 -1 0
168 4 15.871261904800816 22.826079267747883 4.6971756585178905 0 0 0
99 1 14.021691033378074 21.872904866738132 6.014229945826397 0 0 -2
117 4 14.892998747438131 20.86666623471707 7.8375642590442345 0 0 0
98 1 19.956845044393567 23.484538773029286 4.704511345873087 0 0 -1
186 4 18.2981896669555 20.268270301898465 7.1460923665718346 0 0 0
165 4 20.22057005861629 23.292306597198134 8.721361067564363 0 0 -1
20 4 21.488436157670854 22.1492503453191 5.704558455210377 -1 -1 1
93 4 24.638993582210595 20.22419353640121 7.101892994942657 -1 0 -1
3 1 22.318438062416263 23.26821922637159 7.67515851459413 -2 -1 -1
188 4 24.744469586024927 23.256791796394293 9.307351214182894 0 0 -2
8 1 3.3818537666397637 25.90210341147054 7.341591220432741 0 -1 -1
154 2 0.8836510952403949 24.84949372064215 9.347095725094501 1 0 0
190 3 2.5110934597993317 24.53150902094505 8.335364558324798 1 0 -1
97 3 6.805909133268784 24.27989997972369 4.96654149398411 0 0 0
103 1 6.374235928212319 25.925522947108767 6.1410817202347765 0 0 0
176 4 5.582586197561095 24.98696044916391 8.396341218606404 1 0 -1
140 3 11.138119584332232 26.857564751274236 7.798730184988256 0 -1 0
109 2 12.260082635965299 25.508695424244372 8.61500171591597 0 -1 0
162 4 12.757392491429448 24.266317219853306 6.3220326648984235 0 0 0
189 4 19.73085625168656 25.48560721009003 5.693688498978459 0 0 0
167 4 17.327196667663905 25.27547804652977 8.225549988019045 0 0 0
159 2 19.74637906067676 25.58306268481374 8.232362552670402 0 0 0
49 3 25.635249490116728 25.98164468715958 7.918508153105361 -1 -1 0
174 4 22.400806795663698 25.48570939088367 7.577051041090136 0 0 -1

Velocities

94 -0.654214379867426 -5.0977272293286005 1.0572474323316048
81 1.6494114595245053 -3.891854923952154 -3.844583367654561
131 -2.350395693494129 -0.9842629778059374 1.1865697839560194
115 1.1283580442337444 3.3546565170033125 3.137462002949338
102 -9.930185496521581 4.229238018634194 -6.614160045168195
6 -3.5715619113405572 10.056415049310875 2.1816394455298793
137 -5.644353445584595 -2.9743058528268946 -1.8755686410148904
113 3.882762941391411 4.0410790337879625 3.1924060136947205
110 -3.064805198958774 1.4247323587132714 -0.27198782436899427
28 -3.794509474266315 -2.7534588621855955 -1.8173661792418558
122 -1.1174724020236515 -0.06299320159962314 -1.5924467889032425
21 -3.3524953219717015 0.9400625526069454 -0.33352185399339185
51 0.9993337469163915 7.80124604416855 -4.665781019727459
116 1.662847841560347 -4.164899169794487 -3.7083099468579346
166 2.360028821348448 -2.9365247356315205 5.551242169409871
25 -0.0895741207489426 1.664974212045768 1.7947976357575284
72 2.5772444525415166 -2.456183519513018 -1.9978249844723444
114 -1.7358585235313544 -0.5348266580007536 0.7181125507146806
48 1.972334317230922 4.560903298600657 2.528352116124069
138 -0.6613105529302444 1.4498677184157394 2.2471562768248217
56 5.949423826149365 -6.025281634387977 2.7269139764566543
161 -3.3516517233682253 2.8089854946165955 -2.918741540510523
112 -1.3937554271767356 2.2874206328702695 -0.42203882729973347
130 0.5409061650830984 3.408463948546152 2.73410335703658
83 2.2711221443271734 -4.817262849124482 0.15702328579630684
13 2.4655992470336923 0.9428776874358809 0.31865753210198255
37 -0.7072469318629655 -2.7956370175154612 2.258737761681404
75 2.464667976101149 0.9011318750506994 -1.3839226745545112
35 -0.7572702402744464 2.351673476836628 -0.1183226011002948
62 -0.5542201788107317 3.4175747722053598 -0.0914655591892573
150 -6.367504705291222 5.643111612528778 3.1808344913188353
34 -4.029934762653067 1.0291546788079131 2.522528994932875
91 -0.9429937013171785 -1.1494555516929967 1.8431506832452675
123 1.0599144658534982 -0.5503954112184268 -3.311267147348275
143 -4.400650538496633 -2.9250363505447106 2.7972298668882876
111 -1.5641726691223914 -1.8855589975528215 -2.5624689400144134
139 4.046685591637424 -3.9443300915297392 0.42215304897025846
107 2.2501143070595107 1.0856276947715455 1.2840374578744365
129 4.702961229233554 -2.2403944492801453 -0.7808831405255905
23 1.3346919182958528 3.5903181522481784 1.353574502560444
128 -0.06330729146868987 -1.1148135641458932 -2.1736294382219183
55 10.218088051394487 -2.4260927043135476 -12.88870998043006
43 -1.3122552267380627 -0.7920423056447218 -0.9916307983564813
178 -2.132389453383 -1.8030805765587479 -1.3936000122773955
142 -3.4976727138686092 -3.2963420287471012 -3.8126853309230864
106 -1.0495219163149594 2.505887180711477 -8.639443297689331
30 -0.6147890062768523 1.5320180240484573 -0.9820824113862153
146 7.562903065280423 -9.00025442620413 -7.801113118789008
22 4.485936348331286 -0.9175180740579965 0.9727336884854033
152 -0.32588221192539735 -4.2211386822335415 4.044533576032336
27 -0.9913611401024216 -2.614627816958176 -0.870809437833518
17 -1.2765699051938528 2.232491296124499 2.153500614753289
47 -0.058801639009312914 1.417931837731933 -2.0365602313673765
145 1.023788730196029 -4.059004785682884 6.620731332757305
127 0.4915481018687762 3.39231371668679 2.1634199927882816
173 -1.2547918368168693 2.473892486817999 -0.13755405645526686
90 0.6983350840132533 0.27740217940714457 0.75168349789191
92 -1.3363598461150803 0.5046706906074403 -0.25916794104625646
153 -6.1614121928728025 -8.956925969150328 2.9849649700533902
46 2.956382995800412 -0.7321085457730162 0.2869392144281742
26 1.974367259405468 0.7331821606157201 -0.5054380071541282
172 -2.772393859219236 5.3584568621409545 4.087335687235068
78 -0.9955621112074803 -0.5582576765946269 1.2146509012287394
79 -1.9518569979206977 -0.720674817914001 1.2991571713392953
147 0.26831022287106127 -0.10946882638847945 1.9771210718984402
135 2.4459912263751327 -0.3489002498764352 -2.4956976350119158
5 -7.534029692745161 -0.9174259132965624 -2.4045101778064306
52 -6.43893919550007 5.501064765068655 7.006713171043501
185 -2.3830112562473262 -0.4872224815845243 2.837111878365493
171 0.05430831999977757 2.934385615051396 -5.723001628476587
156 1.6523558186494056 -0.020733613764059897 -1.6992958782307772
119 -1.1454542820173679 0.8542734622674785 0.40125861292342974
54 -7.57219382944491 4.820805907866155 -8.80959775835171
19 2.8512177535931333 -1.4760164555921798 -0.7404321362416414
38 -0.04829374009192884 0.6604773502418296 -5.90492002009262
89 -0.8368219923168151 1.5381574837906227 2.5530275656410346
74 -0.28152325916496457 -2.0496702605952737 1.061872493398196
80 -1.4709138339087178 -0.13552837084951547 2.735664294050666
60 2.8661360476866835 3.333524280637811 -13.148281555831765
163 1.6313088839124867 2.487272590314733 0.9481637627096907
108 1.6102191963637082 0.7350195291896761 -1.136187540207926
177 -0.8169278924320843 -1.6595837251649368 0.23439126330110252
125 0.8454178540154269 -1.488064461999634 -1.1599568744742672
126 0.3203844777230874 3.1286894783743877 -2.6881295726986796
1 -6.733932751227605 9.116302466676894 4.870466448917222
64 1.6268562568870049 1.1994015208098046 -0.8119338463611185
141 6.1375381423000785 -2.555619645523609 0.23045428314363417
132 -1.8285050993367067 3.8111583877449657 0.4524569810087125
70 -2.0460817707614734 0.09006641259448618 -1.1712313674444566
41 1.0782250857002487 0.9018710695912759 2.662888205746347
88 -0.7456976041433034 -2.9722914701197536 -5.656396304434061
66 0.3155859145872554 -3.4170647652437003 1.6029508986751675
57 0.966350379920118 -1.7766901274954137 0.6869752679269787
50 -1.729730900108168 3.5011267878310144 3.8386928670540432
15 2.3831067182522077 -0.03846572240979123 0.349823672586377
95 6.563046063758028 1.0716203209855644 -0.920631965687066
36 -0.6525120463549888 -3.3851148128639736 3.2100397897490143
187 -4.8551271357576775 -3.3497222133626674 2.3814880868548056
100 -5.827204844955408 -4.11435779886612 7.274514149414133
14 -0.13821214134244242 2.2380599521302926 -2.703743674868495
32 2.5610788462548797 -1.278591240451286 -4.025792058181974
69 6.173125565415311 4.0423956795353675 -2.901694103402028
180 -3.3511405165570127 -1.8732181663806409 3.6773973278313417
84 0.41537641698718764 -0.25723961311451793 -1.3375395330653812
58 1.1066818958429325 3.629647829513159 -4.2067419879259305
33 2.2358016068498845 -0.19753589140314035 -0.13575831765397903
151 -7.286592077151351 3.7392577528278226 1.2868013086286267
120 -3.5598105759838305 -1.6397134373617306 -2.031652544004251
61 -0.5641824919167305 -1.1281721500452722 0.8641832201058058
45 3.02291972779292 1.139368721763059 2.3711758331715216
18 -6.396025879171774 1.1866378696285051 2.3144292885049187
68 -1.3320337407429907 -0.6814538589769364 -5.973574958033882
148 -5.351212293350456 4.314021665089639 3.4459587050664933
182 0.44761760042476156 6.834475555579561 4.716066509429783
53 4.351446310672935 0.16360453749499798 10.347523067978257
160 2.211930771980191 -1.8028014676615913 -4.106699559271431
118 -0.29550453348488603 1.0082800829562388 -0.7759379604557253
42 -0.6671290775308628 -0.7145966218684043 -0.5551896560038367
136 0.7897088785116997 -0.13513921561151523 -0.4890383330586651
31 0.03351914979189865 4.1884011649648905 -1.381592986630354
87 -0.046410164400039734 1.6983066108007108 -2.2909783913081734
16 0.45785195551008645 -0.14636952456998878 -0.20465060859215548
86 -1.5705359141380253 3.237600158334409 -4.630528033575189
4 4.476066955644286 5.806887445765274 3.685704487462559
59 -4.905526024648773 -1.6988201728867396 -6.867646196368314
67 -4.6527006764459085 3.022606258632365 1.19411485210402
29 -1.1679155661924445 -0.006719575892412246 2.4668918401405984
40 -1.3665436664219532 3.4993331026161956 0.6671035896548038
144 -6.868864908142811 -2.620330581813487 1.704720337811033
124 -0.04392607026515848 -4.647419431369698 3.9408924758644166
73 2.2717219079427475 1.2926773578392505 -2.6500023976965026
2 -7.391814540044762 -9.861057469201256 -0.021542757681314702
12 -0.6495431422303795 -0.10153115617907997 3.65826287001512
121 1.9456783877628863 2.3503674605202094 5.533156572956975
11 4.654436166597673 -5.3954374514944385 -4.340744359288752
175 -3.557059417670814 0.36950601466222666 -0.7548314751339261
181 -0.1989520780190972 -0.38709018131100265 0.3955929492167743
170 2.269552265663054 -1.73836524800471 -2.0323639720336133
44 0.25143404569160294 -0.7152451308890682 -0.05007835482414778
65 1.265655825534155 -0.8581981012969823 -3.2121465506269185
149 9.571357715169796 -6.796341766766494 -1.448267312000828
71 4.549463411184937 -0.5276482292034429 -2.2378019760359398
24 -4.4442375375646295 -2.7734369150342344 -0.30451858505744894
101 -12.549804777142532 1.5077649254685714 0.255926844597682
9 -8.645017654265821 2.277942585947624 2.4771241148767116
169 -0.2508461620501063 -4.132666946723245 1.8909126878605904
184 -5.9771602896399445 -0.9287761764735118 2.829818082857008
158 1.9452766675894497 -1.1222735971484212 -0.06974483706090513
133 3.695508245680268 -1.84280705031033 -1.5920287129159463
179 0.9620971471213068 -5.249652598625284 -3.5993555107390227
7 -2.345558285171846 2.842176191763348 -4.674666246800703
164 -0.7208662270190959 -2.8956755033676767 -4.197538293073303
10 14.151749687951993 -4.896503984837557 0.301465716368114
155 1.279063244496693 1.0172758112134315 -0.7514413999123851
191 8.848901864470433 8.485856957642909 -1.525928314171189
77 -1.0053479400994465 -2.5824896996180624 -1.4093333739773206
192 -1.9617266461008018 0.09217804252775316 -2.2189382555304364
157 1.9083782471219595 -1.5046755039387953 2.7833675542353067
39 -0.4682439287224666 2.336279485552943 -0.3347932425458975
76 -0.8985466757957307 0.7016865465785043 1.0224174667530024
63 -1.8673230066443278 -2.2121987969800503 1.7982521632413027
96 2.8137806364116926 0.14846953190341408 -8.165380357766173
82 3.80327545062449 -1.8129135445176774 3.0518375224421086
104 -0.2817488222425902 -2.5044918333857193 -2.11798147882541
105 -1.2445954068926697 1.0783860910399876 6.102687414223209
183 -0.030483720710888368 -0.6625569289232258 0.8285617149988641
85 2.514713569182389 0.6488660928649342 4.520947869774379
134 -2.074176417597686 2.0789414483187225 -0.7133969375119487
168 0.7940180513849899 -0.1706886941777505 3.2984497198803786
99 -11.595115485088389 14.907353812923416 8.28575762946784
117 1.559533100978335 -2.291509571631685 -0.31786279176277865
98 -10.181720843222015 14.031027666947764 -5.01460357454933
186 0.5973166590842789 0.8407093588187213 -3.138572720134367
165 -0.7480219030626735 -2.2684367852867133 1.5134154264387436
20 0.5600332844502859 1.9874861288532102 -5.16585863483765
93 4.404931130773258 -1.2474211078621935 2.926387912115463
3 1.9827129342906158 -2.2048343855457997 5.713119770441634
188 2.3742567594321304 0.15703992173933695 -0.2642837156944478
8 1.5285479573741763 -6.768190466338982 -6.478011071674792
154 -0.30668118953221724 -3.1123354298743497 1.3440550155389626
190 -4.331927915399674 3.5081420130104464 4.396393062539195
97 12.530068999883868 1.3732563123730845 -9.93416890097463
103 4.206851642728832 -7.920909029376732 -4.279317373520123
176 -0.3301036120783164 2.2238792376964267 0.5830830291236709
140 0.4854254235541283 3.165807043311763 -7.668221321175441
109 -4.678866455718675 -0.01407904847690327 2.5202764981769468
162 -0.809788095910107 -1.8705830690898395 -0.8613404716298266
189 0.8023222007350146 -1.2333873992257791 -0.3122668304764545
167 -2.8795423434038736 1.8276174125752698 5.323896385702357
159 -2.2233982918244632 -3.6294925934850317 0.6035354119701062
49 10.11771500049732 -0.780085346368953 4.5686765947071
174 3.2498719238044655 4.858624803873932 0.4173344131519575
