LAMMPS (10 Sep 2025)
KOKKOS mode with Kokkos version 4.6.2 is enabled
  using double precision
  using view layout = legacy
  will use up to 1 GPU(s) per node
  using 1 OpenMP thread(s) per MPI task
Reading data file ...
  triclinic box = (0 0 0) to (24.909354 21.815299 9.6193019) with tilt (0.40926159 0.019207506 5.7044945)
WARNING: Triclinic box skew is large. LAMMPS will run inefficiently. (src/domain.cpp:221)
  1 by 1 by 1 MPI processor grid
  reading atoms ...
  192 atoms
  read_data CPU = 0.017 seconds
Neighbor list info ...
  update: every = 1 steps, delay = 0 steps, check = yes
  max neighbors/atom: 2000, page size: 100000
  master list distance cutoff = 8
  ghost atom cutoff = 8
  binsize = 8, bins = 4 4 2
  1 neighbor lists, perpetual/occasional/extra = 1 0 0
  (1) pair mliap/kk, perpetual
      attributes: full, newton on, kokkos_device
      pair build: full/bin/kk/device
      stencil: full/bin/3d
      bin: kk/device
Setting up cg/kk style minimization ...
  Unit style    : metal
  Current step  : 0
WARNING: Fix MINIMIZE/kk not compatible with sending data in Kokkos communication (src/KOKKOS/comm_kokkos.cpp:741)
WARNING: Fix with atom-based arrays not compatible with sending data in Kokkos communication, switching to legacy exchange/border communication (src/KOKKOS/comm_kokkos.cpp:754)
WARNING: Fix MINIMIZE/kk not compatible with Kokkos sorting on device (src/KOKKOS/atom_kokkos.cpp:217)
WARNING: Fix with atom-based arrays not compatible with Kokkos sorting on device, switching to legacy host sorting (src/KOKKOS/atom_kokkos.cpp:223)
Per MPI rank memory allocation (min/avg/max) = 42.77 | 42.77 | 42.77 Mbytes
   Step          Temp          E_pair         E_mol          TotEng         Press     
         0   0             -875.01859      0             -875.01859     -2535.3551    
       398   0             -909.22912      0             -909.22912      4451.7091    
Loop time of 22.8779 on 1 procs for 398 steps with 192 atoms

99.0% CPU use with 1 MPI tasks x 1 OpenMP threads

Minimization stats:
  Stopping criterion = force tolerance
  Energy initial, next-to-last, final = 
     -875.018585197617  -909.229113337537  -909.229117321127
  Force two-norm initial, final = 18.35825 0.0093451166
  Force max component initial, final = 3.1788192 0.0021945091
  Final line search alpha, max atom move = 1 0.0021945091
  Iterations, force evaluations = 398 787

MPI task timing breakdown:
Section |  min time  |  avg time  |  max time  |%varavg| %total
---------------------------------------------------------------
Pair    | 22.714     | 22.714     | 22.714     |   0.0 | 99.28
Neigh   | 0.0023716  | 0.0023716  | 0.0023716  |   0.0 |  0.01
Comm    | 0.024644   | 0.024644   | 0.024644   |   0.0 |  0.11
Output  | 0          | 0          | 0          |   0.0 |  0.00
Modify  | 0          | 0          | 0          |   0.0 |  0.00
Other   |            | 0.1372     |            |       |  0.60

Nlocal:            192 ave         192 max         192 min
Histogram: 1 0 0 0 0 0 0 0 0 0
Nghost:           1340 ave        1340 max        1340 min
Histogram: 1 0 0 0 0 0 0 0 0 0
Neighs:              0 ave           0 max           0 min
Histogram: 1 0 0 0 0 0 0 0 0 0
FullNghs:        15026 ave       15026 max       15026 min
Histogram: 1 0 0 0 0 0 0 0 0 0

Total # of neighbors = 15026
Ave neighs/atom = 78.260417
Neighbor list builds = 9
Dangerous builds = 0
System init for write_data ...
Setting up Verlet run ...
  Unit style    : metal
  Current step  : 0
  Time step     : 0.0005
Per MPI rank memory allocation (min/avg/max) = 47.19 | 47.19 | 47.19 Mbytes
   Step          Time         Atoms         Temp          PotEng         KinEng         TotEng         Press          Volume        Density           Lx             Ly             Lz            Fmax     
         0   0                    192   1500          -909.22912      37.033032     -872.19609      12019.013      5227.1769      2.1329099      24.909354      21.815299      9.6193019      0.0021945091 
       100   0.05                 192   791.97149     -890.42461      19.552737     -870.87188      7733.0736      5227.1769      2.1329099      24.909354      21.815299      9.6193019      2.777335     
       200   0.1                  192   799.47693     -887.72545      19.738036     -867.98741      18969.041      5227.1769      2.1329099      24.909354      21.815299      9.6193019      3.5839326    
       300   0.15                 192   859.11566     -885.90056      21.210438     -864.69012      10941.022      5227.1769      2.1329099      24.909354      21.815299      9.6193019      3.4955508    
       400   0.2                  192   956.69017     -884.31995      23.619425     -860.70052      16420.277      5227.1769      2.1329099      24.909354      21.815299      9.6193019      3.1835336    
       500   0.25                 192   1052.172      -882.06658      25.976746     -856.08983      15733.97       5227.1769      2.1329099      24.909354      21.815299      9.6193019      4.2806662    
       600   0.3                  192   1138.984      -879.43942      28.12002      -851.3194       18947.154      5227.1769      2.1329099      24.909354      21.815299      9.6193019      5.1169265    
       700   0.35                 192   1350.9141     -879.54498      33.352295     -846.19269      20255.192      5227.1769      2.1329099      24.909354      21.815299      9.6193019      3.7523445    
       800   0.4                  192   1264.0644     -872.84696      31.208091     -841.63887      22109.104      5227.1769      2.1329099      24.909354      21.815299      9.6193019      4.5619876    
       900   0.45                 192   1371.5867     -870.8171       33.862676     -836.95443      16137.778      5227.1769      2.1329099      24.909354      21.815299      9.6193019      4.2070119    
      1000   0.5                  192   1451.5229     -868.25348      35.836195     -832.41729      22860.826      5227.1769      2.1329099      24.909354      21.815299      9.6193019      4.1746722    
      1100   0.55                 192   1493.5135     -865.48706      36.872888     -828.61418      16357.458      5227.1769      2.1329099      24.909354      21.815299      9.6193019      4.4635625    
      1200   0.6                  192   1686.224      -867.27309      41.630659     -825.64244      25205.438      5227.1769      2.1329099      24.909354      21.815299      9.6193019      4.4083159    
      1300   0.65                 192   1705.9185     -867.03078      42.116889     -824.91389      17505.363      5227.1769      2.1329099      24.909354      21.815299      9.6193019      4.8077471    
      1400   0.7                  192   1517.3375     -864.09655      37.461071     -826.63548      24991.821      5227.1769      2.1329099      24.909354      21.815299      9.6193019      3.0765704    
      1500   0.75                 192   1530.8994     -866.62236      37.795897     -828.82646      25600.969      5227.1769      2.1329099      24.909354      21.815299      9.6193019      5.5179379    
      1600   0.8                  192   1464.4522     -867.12046      36.155402     -830.96506      22079.906      5227.1769      2.1329099      24.909354      21.815299      9.6193019      5.3930358    
      1700   0.85                 192   1513.1732     -870.03048      37.35826      -832.67222      21602.537      5227.1769      2.1329099      24.909354      21.815299      9.6193019      4.879283     
      1800   0.9                  192   1354.9988     -867.80923      33.453143     -834.35609      25430.188      5227.1769      2.1329099      24.909354      21.815299      9.6193019      4.4036798    
      1900   0.95                 192   1431.496      -870.50594      35.341757     -835.16418      18719.545      5227.1769      2.1329099      24.909354      21.815299      9.6193019      3.3645216    
      2000   1                    192   1391.1015     -869.36001      34.34447      -835.01554      15765.046      5227.1769      2.1329099      24.909354      21.815299      9.6193019      3.8167258    
      2100   1.05                 192   1584.4087     -872.74495      39.116971     -833.62798      17048.064      5227.1769      2.1329099      24.909354      21.815299      9.6193019      4.8484648    
      2200   1.1                  192   1520.1899     -870.41204      37.531494     -832.88055      17210.79       5227.1769      2.1329099      24.909354      21.815299      9.6193019      3.5143034    
      2300   1.15                 192   1552.8452     -870.50419      38.337709     -832.16648      22251.712      5227.1769      2.1329099      24.909354      21.815299      9.6193019      4.4769444    
      2400   1.2                  192   1445.3123     -867.38328      35.682864     -831.70042      20376.203      5227.1769      2.1329099      24.909354      21.815299      9.6193019      3.5357936    
      2500   1.25                 192   1528.1605     -868.9168       37.728276     -831.18853      17937.427      5227.1769      2.1329099      24.909354      21.815299      9.6193019      4.4147252    
      2600   1.3                  192   1476.8813     -867.11742      36.462261     -830.65516      14405.238      5227.1769      2.1329099      24.909354      21.815299      9.6193019      3.1220589    
      2700   1.35                 192   1480.5068     -866.38393      36.551769     -829.83216      24632.922      5227.1769      2.1329099      24.909354      21.815299      9.6193019      4.5301479    
      2800   1.4                  192   1603.0707     -868.43674      39.577713     -828.85903      17339.432      5227.1769      2.1329099      24.909354      21.815299      9.6193019      4.2993069    
      2900   1.45                 192   1517.6775     -865.89769      37.469466     -828.42822      20980.322      5227.1769      2.1329099      24.909354      21.815299      9.6193019      4.1413361    
      3000   1.5                  192   1529.9992     -866.29261      37.773672     -828.51894      16147.881      5227.1769      2.1329099      24.909354      21.815299      9.6193019      3.1660733    
      3100   1.55                 192   1527.2949     -866.93896      37.706908     -829.23205      24485.74       5227.1769      2.1329099      24.909354      21.815299      9.6193019      4.4280612    
      3200   1.6                  192   1449.1161     -866.38134      35.776776     -830.60456      15231.673      5227.1769      2.1329099      24.909354      21.815299      9.6193019      5.5818608    
      3300   1.65                 192   1467.2188     -868.05841      36.223708     -831.8347       27972.684      5227.1769      2.1329099      24.909354      21.815299      9.6193019      4.641761     
      3400   1.7                  192   1459.2766     -868.73326      36.027623     -832.70564      11511.096      5227.1769      2.1329099      24.909354      21.815299      9.6193019      3.5453117    
      3500   1.75                 192   1564.8022     -871.85569      38.632912     -833.22278      20840.219      5227.1769      2.1329099      24.909354      21.815299      9.6193019      4.2182146    
      3600   1.8                  192   1464.2434     -870.32869      36.150247     -834.17844      14098.17       5227.1769      2.1329099      24.909354      21.815299      9.6193019      4.2173466    
      3700   1.85                 192   1401.8847     -869.58254      34.610693     -834.97185      23337.773      5227.1769      2.1329099      24.909354      21.815299      9.6193019      3.8185987    
      3800   1.9                  192   1346.3422     -868.32023      33.239423     -835.08081      17999.804      5227.1769      2.1329099      24.909354      21.815299      9.6193019      4.3506183    
      3900   1.95                 192   1420.9645     -869.14964      35.081748     -834.06789      17618.369      5227.1769      2.1329099      24.909354      21.815299      9.6193019      3.6458437    
      4000   2                    192   1521.9552     -869.34861      37.575077     -831.77353      10847.21       5227.1769      2.1329099      24.909354      21.815299      9.6193019      3.9640525    
      4100   2.05                 192   1571.8834     -868.37461      38.807739     -829.56687      23777.626      5227.1769      2.1329099      24.909354      21.815299      9.6193019      4.6226972    
      4200   2.1                  192   1657.9992     -869.64233      40.933825     -828.7085       14204.084      5227.1769      2.1329099      24.909354      21.815299      9.6193019      3.075894     
      4300   2.15                 192   1495.8557     -866.3295       36.930714     -829.39879      13976.523      5227.1769      2.1329099      24.909354      21.815299      9.6193019      4.3469526    
      4400   2.2                  192   1460.6696     -866.94367      36.062016     -830.88165      23572.807      5227.1769      2.1329099      24.909354      21.815299      9.6193019      4.3674441    
      4500   2.25                 192   1336.2896     -866.24967      32.991237     -833.25844      18527.921      5227.1769      2.1329099      24.909354      21.815299      9.6193019      4.9177429    
      4600   2.3                  192   1423.6467     -870.11205      35.147969     -834.96408      22941.322      5227.1769      2.1329099      24.909354      21.815299      9.6193019      4.067221     
      4700   2.35                 192   1238.3278     -866.54323      30.572687     -835.97054      18697.746      5227.1769      2.1329099      24.909354      21.815299      9.6193019      5.4531115    
      4800   2.4                  192   1422.0391     -870.35725      35.10828      -835.24898      11334.981      5227.1769      2.1329099      24.909354      21.815299      9.6193019      3.298436     
      4900   2.45                 192   1453.5704     -868.30379      35.886747     -832.41705      17914.202      5227.1769      2.1329099      24.909354      21.815299      9.6193019      5.5099492    
      5000   2.5                  192   1644.1866     -868.5071       40.592811     -827.91429      16917.47       5227.1769      2.1329099      24.909354      21.815299      9.6193019      4.3313174    
      5100   2.55                 192   1654.3562     -868.04163      40.843883     -827.19775      17631.927      5227.1769      2.1329099      24.909354      21.815299      9.6193019      4.2725538    
      5200   2.6                  192   1625.6773     -868.0094       40.13584      -827.87356      21060.762      5227.1769      2.1329099      24.909354      21.815299      9.6193019      5.2084107    
      5300   2.65                 192   1544.7411     -867.35607      38.137631     -829.21844      11994.232      5227.1769      2.1329099      24.909354      21.815299      9.6193019      5.5119197    
      5400   2.7                  192   1575.5486     -869.90598      38.898226     -831.00776      20354.663      5227.1769      2.1329099      24.909354      21.815299      9.6193019      4.1575197    
      5500   2.75                 192   1476.8302     -869.76034      36.460999     -833.29934      15181.427      5227.1769      2.1329099      24.909354      21.815299      9.6193019      3.7102427    
      5600   2.8                  192   1508.3412     -872.21404      37.238965     -834.97508      24843.934      5227.1769      2.1329099      24.909354      21.815299      9.6193019      3.9011044    
      5700   2.85                 192   1396.0114     -870.5771       34.465688     -836.11141      15218.368      5227.1769      2.1329099      24.909354      21.815299      9.6193019      3.07395      
      5800   2.9                  192   1445.7304     -872.05316      35.693187     -836.35997      18585.759      5227.1769      2.1329099      24.909354      21.815299      9.6193019      3.7783911    
      5900   2.95                 192   1429.1197     -871.34245      35.283089     -836.05936      10353.507      5227.1769      2.1329099      24.909354      21.815299      9.6193019      2.9677656    
      6000   3                    192   1436.6176     -869.83273      35.468203     -834.36453      20387.141      5227.1769      2.1329099      24.909354      21.815299      9.6193019      3.4622033    
      6100   3.05                 192   1430.8839     -866.0841       35.326645     -830.75745      17076.356      5227.1769      2.1329099      24.909354      21.815299      9.6193019      4.3800785    
      6200   3.1                  192   1605.4054     -868.02666      39.635353     -828.39131      20369.848      5227.1769      2.1329099      24.909354      21.815299      9.6193019      4.5205937    
      6300   3.15                 192   1488.244      -864.61045      36.742792     -827.86766      19801.32       5227.1769      2.1329099      24.909354      21.815299      9.6193019      4.2613074    
      6400   3.2                  192   1577.6267     -866.9728       38.949532     -828.02326      20749.084      5227.1769      2.1329099      24.909354      21.815299      9.6193019      6.3814512    
      6500   3.25                 192   1447.1744     -864.80987      35.728836     -829.08104      18992.107      5227.1769      2.1329099      24.909354      21.815299      9.6193019      4.490414     
      6600   3.3                  192   1506.6141     -867.51669      37.196325     -830.32036      22933.723      5227.1769      2.1329099      24.909354      21.815299      9.6193019      4.5666146    
      6700   3.35                 192   1478.6027     -868.43805      36.504761     -831.93329      20343.939      5227.1769      2.1329099      24.909354      21.815299      9.6193019      3.9652562    
      6800   3.4                  192   1312.2523     -865.56056      32.397787     -833.16277      22341.419      5227.1769      2.1329099      24.909354      21.815299      9.6193019      3.6191845    
      6900   3.45                 192   1510.4991     -870.39783      37.292239     -833.10559      23355.472      5227.1769      2.1329099      24.909354      21.815299      9.6193019      3.5523472    
      7000   3.5                  192   1440.3545     -868.00205      35.560463     -832.44159      24419.226      5227.1769      2.1329099      24.909354      21.815299      9.6193019      5.6792677    
      7100   3.55                 192   1529.1295     -867.81134      37.7522       -830.05914      19185.841      5227.1769      2.1329099      24.909354      21.815299      9.6193019      5.0211498    
      7200   3.6                  192   1836.7765     -872.2794       45.347601     -826.9318       27441.049      5227.1769      2.1329099      24.909354      21.815299      9.6193019      4.4361971    
      7300   3.65                 192   1679.4914     -868.38958      41.46444      -826.92514      18886.827      5227.1769      2.1329099      24.909354      21.815299      9.6193019      4.2499614    
      7400   3.7                  192   1565.6453     -867.5696       38.653727     -828.91587      20296.557      5227.1769      2.1329099      24.909354      21.815299      9.6193019      4.4888916    
      7500   3.75                 192   1530.6724     -869.34608      37.790292     -831.55579      19680.889      5227.1769      2.1329099      24.909354      21.815299      9.6193019      4.0549531    
      7600   3.8                  192   1466.2952     -869.48845      36.200903     -833.28755      11177.119      5227.1769      2.1329099      24.909354      21.815299      9.6193019      3.3655909    
      7700   3.85                 192   1488.9558     -870.72515      36.760366     -833.96479      20320.939      5227.1769      2.1329099      24.909354      21.815299      9.6193019      3.3387729    
      7800   3.9                  192   1372.8634     -868.16202      33.894196     -834.26782      18911.817      5227.1769      2.1329099      24.909354      21.815299      9.6193019      4.4068378    
      7900   3.95                 192   1501.1308     -870.46901      37.060949     -833.40806      20473.27       5227.1769      2.1329099      24.909354      21.815299      9.6193019      4.1037412    
      8000   4                    192   1479.8362     -868.56347      36.535215     -832.02826      20135.105      5227.1769      2.1329099      24.909354      21.815299      9.6193019      4.313406     
      8100   4.05                 192   1522.2327     -867.77329      37.581929     -830.19137      16890.334      5227.1769      2.1329099      24.909354      21.815299      9.6193019      4.8904351    
      8200   4.1                  192   1493.1796     -865.51389      36.864644     -828.64924      19467.929      5227.1769      2.1329099      24.909354      21.815299      9.6193019      4.5941279    
      8300   4.15                 192   1576.5356     -866.08177      38.922594     -827.15918      15820.996      5227.1769      2.1329099      24.909354      21.815299      9.6193019      3.7985144    
      8400   4.2                  192   1597.8144     -865.848        39.447941     -826.40006      22226.744      5227.1769      2.1329099      24.909354      21.815299      9.6193019      4.1838576    
      8500   4.25                 192   1720.5069     -869.40791      42.477058     -826.93085      23557.34       5227.1769      2.1329099      24.909354      21.815299      9.6193019      5.6801757    
      8600   4.3                  192   1448.2858     -866.85624      35.756276     -831.09996      21347.465      5227.1769      2.1329099      24.909354      21.815299      9.6193019      4.6617413    
      8700   4.35                 192   1392.9698     -868.19349      34.390597     -833.80289      22261.475      5227.1769      2.1329099      24.909354      21.815299      9.6193019      4.5736338    
      8800   4.4                  192   1353.8797     -868.08554      33.425514     -834.66003      20282.149      5227.1769      2.1329099      24.909354      21.815299      9.6193019      2.9590752    
      8900   4.45                 192   1439.7212     -869.76623      35.544826     -834.2214       19590.089      5227.1769      2.1329099      24.909354      21.815299      9.6193019      5.9136524    
      9000   4.5                  192   1392.6075     -867.113        34.381653     -832.73135      16819.071      5227.1769      2.1329099      24.909354      21.815299      9.6193019      3.6748613    
      9100   4.55                 192   1453.8894     -866.30708      35.89462      -830.41246      15911.785      5227.1769      2.1329099      24.909354      21.815299      9.6193019      4.6913914    
      9200   4.6                  192   1562.7248     -866.89135      38.581625     -828.30973      22310.434      5227.1769      2.1329099      24.909354      21.815299      9.6193019      4.2769458    
      9300   4.65                 192   1519.7765     -864.83481      37.521286     -827.31353      18501.287      5227.1769      2.1329099      24.909354      21.815299      9.6193019      4.3553996    
      9400   4.7                  192   1517.2492     -864.96635      37.458893     -827.50746      14319.217      5227.1769      2.1329099      24.909354      21.815299      9.6193019      4.8827849    
      9500   4.75                 192   1598.5224     -868.22904      39.46542      -828.76362      20401.476      5227.1769      2.1329099      24.909354      21.815299      9.6193019      5.2748683    
      9600   4.8                  192   1532.3026     -869.04789      37.830541     -831.21735      18255.877      5227.1769      2.1329099      24.909354      21.815299      9.6193019      4.0287848    
      9700   4.85                 192   1446.9634     -869.14393      35.723627     -833.4203       17935.871      5227.1769      2.1329099      24.909354      21.815299      9.6193019      3.3506069    
      9800   4.9                  192   1445.919      -869.88285      35.697842     -834.185        19693.072      5227.1769      2.1329099      24.909354      21.815299      9.6193019      4.4073935    
      9900   4.95                 192   1479.6416     -870.46874      36.53041      -833.93833      17326.433      5227.1769      2.1329099      24.909354      21.815299      9.6193019      5.308346     
     10000   5                    192   1487.5772     -870.2448       36.726329     -833.51847      14762.618      5227.1769      2.1329099      24.909354      21.815299      9.6193019      3.7925581    
     10100   5.05                 192   1464.0381     -869.12793      36.14518      -832.98275      24565.872      5227.1769      2.1329099      24.909354      21.815299      9.6193019      4.0140974    
     10200   5.1                  192   1516.9133     -869.66095      37.4506       -832.21035      13488.761      5227.1769      2.1329099      24.909354      21.815299      9.6193019      3.2022753    
     10300   5.15                 192   1563.9875     -870.60773      38.6128       -831.99493      21251.635      5227.1769      2.1329099      24.909354      21.815299      9.6193019      4.3667397    
     10400   5.2                  192   1570.0221     -871.08886      38.761786     -832.32708      18641.718      5227.1769      2.1329099      24.909354      21.815299      9.6193019      4.9760876    
     10500   5.25                 192   1506.0003     -870.74741      37.181172     -833.56624      30229.783      5227.1769      2.1329099      24.909354      21.815299      9.6193019      6.0142353    
     10600   5.3                  192   1392.553      -870.65466      34.380307     -836.27435      22525.598      5227.1769      2.1329099      24.909354      21.815299      9.6193019      5.9862762    
     10700   5.35                 192   1324.9136     -870.93432      32.710379     -838.22395      12253.156      5227.1769      2.1329099      24.909354      21.815299      9.6193019      4.062969     
     10800   5.4                  192   1354.1234     -871.72552      33.431531     -838.29399      20324.223      5227.1769      2.1329099      24.909354      21.815299      9.6193019      4.2067414    
     10900   5.45                 192   1476.079      -873.40242      36.442453     -836.95997      18701.29       5227.1769      2.1329099      24.909354      21.815299      9.6193019      3.8122492    
     11000   5.5                  192   1438.8274     -870.17476      35.522761     -834.652        15186.025      5227.1769      2.1329099      24.909354      21.815299      9.6193019      3.9959562    
     11100   5.55                 192   1493.5051     -869.6131       36.872682     -832.74042      15745.663      5227.1769      2.1329099      24.909354      21.815299      9.6193019      5.184793     
     11200   5.6                  192   1481.7381     -868.49309      36.58217      -831.91092      18849.474      5227.1769      2.1329099      24.909354      21.815299      9.6193019      3.9303491    
     11300   5.65                 192   1510.0231     -868.95129      37.280488     -831.6708       20804.299      5227.1769      2.1329099      24.909354      21.815299      9.6193019      5.6585142    
     11400   5.7                  192   1492.2168     -868.6099       36.840875     -831.76903      20341.926      5227.1769      2.1329099      24.909354      21.815299      9.6193019      5.11911      
     11500   5.75                 192   1423.0477     -867.01985      35.133181     -831.88667      20205.546      5227.1769      2.1329099      24.909354      21.815299      9.6193019      6.3764604    
     11600   5.8                  192   1543.7963     -869.76061      38.114306     -831.64631      17807.219      5227.1769      2.1329099      24.909354      21.815299      9.6193019      3.1254734    
     11700   5.85                 192   1394.6911     -865.61796      34.433093     -831.18487      25423.257      5227.1769      2.1329099      24.909354      21.815299      9.6193019      6.8181303    
     11800   5.9                  192   1606.8014     -868.62675      39.669819     -828.95693      18051.43       5227.1769      2.1329099      24.909354      21.815299      9.6193019      5.6561526    
     11900   5.95                 192   1612.9627     -864.93639      39.821932     -825.11446      18159.397      5227.1769      2.1329099      24.909354      21.815299      9.6193019      5.6163621    
     12000   6                    192   1636.9782     -863.64657      40.414843     -823.23173      25512.836      5227.1769      2.1329099      24.909354      21.815299      9.6193019      3.940106     
     12100   6.05                 192   1596.2544     -863.38397      39.409426     -823.97454      17567.268      5227.1769      2.1329099      24.909354      21.815299      9.6193019      4.3085946    
     12200   6.1                  192   1632.6593     -865.27249      40.308216     -824.96427      22512.291      5227.1769      2.1329099      24.909354      21.815299      9.6193019      3.268044     
     12300   6.15                 192   1549.7275     -864.63097      38.260738     -826.37023      20858.85       5227.1769      2.1329099      24.909354      21.815299      9.6193019      3.1746594    
     12400   6.2                  192   1629.4192     -867.98867      40.228223     -827.76045      19703.875      5227.1769      2.1329099      24.909354      21.815299      9.6193019      4.4310581    
     12500   6.25                 192   1610.3231     -869.1471       39.756764     -829.39034      17863.93       5227.1769      2.1329099      24.909354      21.815299      9.6193019      4.0750466    
     12600   6.3                  192   1552.8091     -869.48119      38.336819     -831.14437      18738.092      5227.1769      2.1329099      24.909354      21.815299      9.6193019      4.1296901    
     12700   6.35                 192   1590.5286     -872.04966      39.268063     -832.7816       14925.284      5227.1769      2.1329099      24.909354      21.815299      9.6193019      3.7124706    
     12800   6.4                  192   1475.2155     -870.07727      36.421136     -833.65614      15684.284      5227.1769      2.1329099      24.909354      21.815299      9.6193019      5.4814856    
     12900   6.45                 192   1495.0893     -870.70854      36.911792     -833.79675      17163.505      5227.1769      2.1329099      24.909354      21.815299      9.6193019      3.9707354    
     13000   6.5                  192   1553.9447     -872.2313       38.364856     -833.86644      14054.727      5227.1769      2.1329099      24.909354      21.815299      9.6193019      5.2146851    
     13100   6.55                 192   1418.8116     -869.38628      35.028595     -834.35769      16479.833      5227.1769      2.1329099      24.909354      21.815299      9.6193019      3.8763523    
     13200   6.6                  192   1560.5898     -872.96965      38.528913     -834.44074      13599.599      5227.1769      2.1329099      24.909354      21.815299      9.6193019      3.3324806    
     13300   6.65                 192   1444.4849     -870.26457      35.662436     -834.60213      15039.819      5227.1769      2.1329099      24.909354      21.815299      9.6193019      3.7251578    
     13400   6.7                  192   1447.8788     -870.44891      35.746227     -834.70269      20539.267      5227.1769      2.1329099      24.909354      21.815299      9.6193019      3.9464373    
     13500   6.75                 192   1487.6466     -871.33606      36.728041     -834.60802      15093.25       5227.1769      2.1329099      24.909354      21.815299      9.6193019      5.1646628    
     13600   6.8                  192   1465.6094     -870.52071      36.183974     -834.33673      18906.434      5227.1769      2.1329099      24.909354      21.815299      9.6193019      3.6489552    
     13700   6.85                 192   1403.1546     -868.23213      34.642045     -833.59009      22682.308      5227.1769      2.1329099      24.909354      21.815299      9.6193019      6.4079219    
     13800   6.9                  192   1499.7945     -869.42749      37.027957     -832.39954      13830.614      5227.1769      2.1329099      24.909354      21.815299      9.6193019      4.2128262    
     13900   6.95                 192   1559.8146     -869.41299      38.509776     -830.90321      18952.146      5227.1769      2.1329099      24.909354      21.815299      9.6193019      3.9992692    
     14000   7                    192   1523.5325     -867.58569      37.614017     -829.97168      20382.484      5227.1769      2.1329099      24.909354      21.815299      9.6193019      3.4333625    
     14100   7.05                 192   1527.1726     -867.28331      37.703888     -829.57943      20402.526      5227.1769      2.1329099      24.909354      21.815299      9.6193019      4.5264454    
     14200   7.1                  192   1474.1737     -865.84833      36.395414     -829.45291      25807.197      5227.1769      2.1329099      24.909354      21.815299      9.6193019      4.2545211    
     14300   7.15                 192   1544.0506     -867.05619      38.120583     -828.93561      18685.687      5227.1769      2.1329099      24.909354      21.815299      9.6193019      3.9915577    
     14400   7.2                  192   1585.7067     -867.74832      39.149018     -828.5993       16495.837      5227.1769      2.1329099      24.909354      21.815299      9.6193019      3.6358205    
     14500   7.25                 192   1511.4291     -867.06025      37.315201     -829.74505      19154.839      5227.1769      2.1329099      24.909354      21.815299      9.6193019      5.0443055    
     14600   7.3                  192   1474.2033     -867.88976      36.396144     -831.49362      20772.467      5227.1769      2.1329099      24.909354      21.815299      9.6193019      3.8742313    
     14700   7.35                 192   1410.5523     -867.73134      34.824686     -832.90665      25774.878      5227.1769      2.1329099      24.909354      21.815299      9.6193019      4.8078429    
     14800   7.4                  192   1509.7642     -870.6932       37.274098     -833.4191       15716.482      5227.1769      2.1329099      24.909354      21.815299      9.6193019      5.3528187    
     14900   7.45                 192   1546.6162     -872.13775      38.183923     -833.95383      21605.195      5227.1769      2.1329099      24.909354      21.815299      9.6193019      3.6724071    
     15000   7.5                  192   1488.0339     -871.2027       36.737603     -834.4651       20723.961      5227.1769      2.1329099      24.909354      21.815299      9.6193019      3.0080289    
     15100   7.55                 192   1538.771      -871.8383       37.990236     -833.84807      17614.587      5227.1769      2.1329099      24.909354      21.815299      9.6193019      5.4480076    
     15200   7.6                  192   1518.1648     -869.18888      37.481498     -831.70738      16512.605      5227.1769      2.1329099      24.909354      21.815299      9.6193019      4.2958979    
     15300   7.65                 192   1536.1444     -867.0673       37.925389     -829.14191      14422.476      5227.1769      2.1329099      24.909354      21.815299      9.6193019      4.4374199    
     15400   7.7                  192   1552.7584     -866.20417      38.335568     -827.8686       18781.162      5227.1769      2.1329099      24.909354      21.815299      9.6193019      5.2484698    
     15500   7.75                 192   1626.2557     -867.65855      40.150118     -827.50843      17229.904      5227.1769      2.1329099      24.909354      21.815299      9.6193019      3.8628743    
     15600   7.8                  192   1569.0739     -866.80545      38.738377     -828.06708      17690.366      5227.1769      2.1329099      24.909354      21.815299      9.6193019      4.5514383    
     15700   7.85                 192   1550.6116     -868.29251      38.282566     -830.00994      18593.439      5227.1769      2.1329099      24.909354      21.815299      9.6193019      3.6585513    
     15800   7.9                  192   1387.8095     -867.47784      34.263196     -833.21464      16307.822      5227.1769      2.1329099      24.909354      21.815299      9.6193019      4.683734     
     15900   7.95                 192   1462.7164     -870.76232      36.112549     -834.64977      13020.274      5227.1769      2.1329099      24.909354      21.815299      9.6193019      3.8223557    
     16000   8                    192   1497.6113     -871.57317      36.974058     -834.59911      15360.537      5227.1769      2.1329099      24.909354      21.815299      9.6193019      3.4300881    
     16100   8.05                 192   1463.428      -870.0988       36.130118     -833.96868      17277.918      5227.1769      2.1329099      24.909354      21.815299      9.6193019      4.0835227    
     16200   8.1                  192   1499.1226     -869.93373      37.011369     -832.92237      15290.638      5227.1769      2.1329099      24.909354      21.815299      9.6193019      3.4242552    
     16300   8.15                 192   1593.4952     -871.52716      39.341306     -832.18585      20518.796      5227.1769      2.1329099      24.909354      21.815299      9.6193019      4.5656991    
     16400   8.2                  192   1497.1684     -869.22679      36.963123     -832.26366      15225.671      5227.1769      2.1329099      24.909354      21.815299      9.6193019      6.174075     
     16500   8.25                 192   1534.6725     -870.10467      37.889051     -832.21562      24394.792      5227.1769      2.1329099      24.909354      21.815299      9.6193019      4.2594974    
     16600   8.3                  192   1375.4114     -866.42324      33.957103     -832.46614      12001.184      5227.1769      2.1329099      24.909354      21.815299      9.6193019      4.5313951    
     16700   8.35                 192   1573.378      -871.83009      38.844639     -832.98545      22285.493      5227.1769      2.1329099      24.909354      21.815299      9.6193019      3.9153588    
     16800   8.4                  192   1357.9278     -869.07167      33.525455     -835.54622      14705.266      5227.1769      2.1329099      24.909354      21.815299      9.6193019      3.4159702    
     16900   8.45                 192   1411.1322     -872.34974      34.839003     -837.51074      16263.628      5227.1769      2.1329099      24.909354      21.815299      9.6193019      4.7275295    
     17000   8.5                  192   1382.3521     -872.87816      34.128459     -838.7497       14465.948      5227.1769      2.1329099      24.909354      21.815299      9.6193019      3.830059     
     17100   8.55                 192   1447.7314     -874.55286      35.742589     -838.81027      13033.934      5227.1769      2.1329099      24.909354      21.815299      9.6193019      2.9466673    
     17200   8.6                  192   1473.1873     -873.78698      36.371061     -837.41592      17007.21       5227.1769      2.1329099      24.909354      21.815299      9.6193019      4.8673284    
     17300   8.65                 192   1483.0555     -871.77887      36.614694     -835.16418      15108.895      5227.1769      2.1329099      24.909354      21.815299      9.6193019      3.4969349    
     17400   8.7                  192   1565.4789     -871.51398      38.64962      -832.86436      16806.106      5227.1769      2.1329099      24.909354      21.815299      9.6193019      4.1588239    
     17500   8.75                 192   1524.4225     -869.18721      37.63599      -831.55122      13336.497      5227.1769      2.1329099      24.909354      21.815299      9.6193019      3.8039407    
     17600   8.8                  192   1436.8911     -866.5873       35.474955     -831.11234      12525.629      5227.1769      2.1329099      24.909354      21.815299      9.6193019      3.1078       
     17700   8.85                 192   1551.0566     -869.1006       38.293552     -830.80705      17282.022      5227.1769      2.1329099      24.909354      21.815299      9.6193019      3.5383804    
     17800   8.9                  192   1537.3301     -869.17228      37.954662     -831.21762      10814.33       5227.1769      2.1329099      24.909354      21.815299      9.6193019      4.2137255    
     17900   8.95                 192   1576.5265     -870.71888      38.922371     -831.79651      17747.302      5227.1769      2.1329099      24.909354      21.815299      9.6193019      4.8166372    
     18000   9                    192   1586.6229     -871.8519       39.171638     -832.68026      15397.942      5227.1769      2.1329099      24.909354      21.815299      9.6193019      3.8020837    
     18100   9.05                 192   1483.5338     -870.5472       36.626503     -833.92069      16899.719      5227.1769      2.1329099      24.909354      21.815299      9.6193019      3.0572121    
     18200   9.1                  192   1374.8272     -868.76849      33.942679     -834.82582      16270.608      5227.1769      2.1329099      24.909354      21.815299      9.6193019      3.2670534    
     18300   9.15                 192   1609.6458     -874.45147      39.740043     -834.71143      14050.107      5227.1769      2.1329099      24.909354      21.815299      9.6193019      3.9495244    
     18400   9.2                  192   1430.2083     -869.7452       35.309966     -834.43523      15848.654      5227.1769      2.1329099      24.909354      21.815299      9.6193019      3.8581654    
     18500   9.25                 192   1544.5819     -869.70616      38.133699     -831.57246      15150.215      5227.1769      2.1329099      24.909354      21.815299      9.6193019      5.1018724    
     18600   9.3                  192   1577.7686     -866.67507      38.953036     -827.72204      18043.116      5227.1769      2.1329099      24.909354      21.815299      9.6193019      3.4703081    
     18700   9.35                 192   1709.5168     -868.45161      42.205726     -826.24588      19463.729      5227.1769      2.1329099      24.909354      21.815299      9.6193019      3.7341976    
     18800   9.4                  192   1677.9891     -868.82483      41.427348     -827.39748      17521.978      5227.1769      2.1329099      24.909354      21.815299      9.6193019      4.1503855    
     18900   9.45                 192   1615.9061     -869.92966      39.894601     -830.03506      17693.94       5227.1769      2.1329099      24.909354      21.815299      9.6193019      4.610593     
     19000   9.5                  192   1576.3857     -871.12079      38.918893     -832.2019       18874.633      5227.1769      2.1329099      24.909354      21.815299      9.6193019      3.8500845    
     19100   9.55                 192   1501.3586     -871.1455       37.066575     -834.07892      14465.124      5227.1769      2.1329099      24.909354      21.815299      9.6193019      3.822849     
     19200   9.6                  192   1524.7099     -873.05739      37.643086     -835.41431      19933.516      5227.1769      2.1329099      24.909354      21.815299      9.6193019      3.77034      
     19300   9.65                 192   1465.6066     -872.58912      36.183905     -836.40522      10608.043      5227.1769      2.1329099      24.909354      21.815299      9.6193019      3.7781668    
     19400   9.7                  192   1426.3415     -871.77153      35.2145       -836.55703      21497.664      5227.1769      2.1329099      24.909354      21.815299      9.6193019      3.5518343    
     19500   9.75                 192   1451.4924     -871.4533       35.835442     -835.61786      13124.323      5227.1769      2.1329099      24.909354      21.815299      9.6193019      4.2551827    
     19600   9.8                  192   1622.3154     -873.70325      40.052839     -833.65041      20964.066      5227.1769      2.1329099      24.909354      21.815299      9.6193019      5.500449     
     19700   9.85                 192   1522.8078     -869.49426      37.596127     -831.89814      13595.639      5227.1769      2.1329099      24.909354      21.815299      9.6193019      4.4659751    
     19800   9.9                  192   1603.3409     -869.10037      39.584382     -829.51599      19940.331      5227.1769      2.1329099      24.909354      21.815299      9.6193019      5.0750048    
     19900   9.95                 192   1674.3859     -868.21508      41.338391     -826.87669      14660.224      5227.1769      2.1329099      24.909354      21.815299      9.6193019      3.2684266    
     20000   10                   192   1589.4519     -864.77487      39.241482     -825.53338      24530.846      5227.1769      2.1329099      24.909354      21.815299      9.6193019      5.6489913    
Loop time of 513.074 on 1 procs for 20000 steps with 192 atoms

Performance: 1.684 ns/day, 14.252 hours/ns, 38.981 timesteps/s, 7.484 katom-step/s
99.2% CPU use with 1 MPI tasks x 1 OpenMP threads

MPI task timing breakdown:
Section |  min time  |  avg time  |  max time  |%varavg| %total
---------------------------------------------------------------
Pair    | 508.67     | 508.67     | 508.67     |   0.0 | 99.14
Neigh   | 0.10363    | 0.10363    | 0.10363    |   0.0 |  0.02
Comm    | 0.75494    | 0.75494    | 0.75494    |   0.0 |  0.15
Output  | 0.12556    | 0.12556    | 0.12556    |   0.0 |  0.02
Modify  | 2.4013     | 2.4013     | 2.4013     |   0.0 |  0.47
Other   |            | 1.017      |            |       |  0.20

Nlocal:            192 ave         192 max         192 min
Histogram: 1 0 0 0 0 0 0 0 0 0
Nghost:           1393 ave        1393 max        1393 min
Histogram: 1 0 0 0 0 0 0 0 0 0
Neighs:              0 ave           0 max           0 min
Histogram: 1 0 0 0 0 0 0 0 0 0
FullNghs:        14866 ave       14866 max       14866 min
Histogram: 1 0 0 0 0 0 0 0 0 0

Total # of neighbors = 14866
Ave neighs/atom = 77.427083
Neighbor list builds = 398
Dangerous builds = 0
System init for write_data ...
Setting up Verlet run ...
  Unit style    : metal
  Current step  : 20000
  Time step     : 0.0005
Per MPI rank memory allocation (min/avg/max) = 48.89 | 48.89 | 48.89 Mbytes
   Step          Time         Atoms         Temp          PotEng         KinEng         TotEng         Press          Volume        Density           Lx             Ly             Lz            Fmax     
     20000   10                   192   1589.4519     -864.77487      39.241482     -825.53338      24530.846      5227.1769      2.1329099      24.909354      21.815299      9.6193019      5.6489913    
     20100   10.05                192   1699.8817     -868.66676      41.967849     -826.69891      24959.475      5227.1769      2.1329099      24.909354      21.815299      9.6193019      3.7368533    
     20200   10.1                 192   1551.166      -868.43986      38.296254     -830.14361      18963.821      5227.1769      2.1329099      24.909354      21.815299      9.6193019      3.8046478    
     20300   10.15                192   1594.4468     -871.71701      39.364799     -832.35221      19162.235      5227.1769      2.1329099      24.909354      21.815299      9.6193019      4.0765479    
     20400   10.2                 192   1573.5738     -872.83531      38.849473     -833.98583      15208.687      5227.1769      2.1329099      24.909354      21.815299      9.6193019      5.0972853    
     20500   10.25                192   1546.4039     -873.76781      38.178682     -835.58913      18897.941      5227.1769      2.1329099      24.909354      21.815299      9.6193019      5.0373079    
     20600   10.3                 192   1429.9821     -872.32365      35.304382     -837.01927      18699.152      5227.1769      2.1329099      24.909354      21.815299      9.6193019      4.7367032    
     20700   10.35                192   1446.061      -873.81884      35.701348     -838.11749      21843.762      5227.1769      2.1329099      24.909354      21.815299      9.6193019      4.4902304    
     20800   10.4                 192   1418.3968     -873.71186      35.018356     -838.6935       20006.342      5227.1769      2.1329099      24.909354      21.815299      9.6193019      7.5862482    
     20900   10.45                192   1469.8756     -874.77013      36.289298     -838.48083      10804.041      5227.1769      2.1329099      24.909354      21.815299      9.6193019      4.8535811    
     21000   10.5                 192   1423.8514     -872.40403      35.153022     -837.25101      19769.225      5227.1769      2.1329099      24.909354      21.815299      9.6193019      3.5367505    
     21100   10.55                192   1540.6516     -872.76284      38.036667     -834.72617      10694.284      5227.1769      2.1329099      24.909354      21.815299      9.6193019      5.7359005    
     21200   10.6                 192   1558.626      -871.44814      38.480431     -832.96771      21904.935      5227.1769      2.1329099      24.909354      21.815299      9.6193019      6.3163018    
     21300   10.65                192   1528.8925     -870.44885      37.746349     -832.7025       15531.093      5227.1769      2.1329099      24.909354      21.815299      9.6193019      3.7592287    
     21400   10.7                 192   1762.5902     -876.07631      43.51604      -832.56027      18358.415      5227.1769      2.1329099      24.909354      21.815299      9.6193019      5.1544603    
     21500   10.75                192   1503.6183     -872.39179      37.122362     -835.26943      14859.853      5227.1769      2.1329099      24.909354      21.815299      9.6193019      4.3960141    
     21600   10.8                 192   1434.534      -874.03974      35.416763     -838.62298      12906.286      5227.1769      2.1329099      24.909354      21.815299      9.6193019      4.616627     
     21700   10.85                192   1500.0244     -877.50887      37.033634     -840.47523      17699.947      5227.1769      2.1329099      24.909354      21.815299      9.6193019      4.0022966    
     21800   10.9                 192   1395.2629     -876.10851      34.447211     -841.6613       11692.952      5227.1769      2.1329099      24.909354      21.815299      9.6193019      4.7072264    
     21900   10.95                192   1495.5636     -879.21612      36.923502     -842.29262      14790.997      5227.1769      2.1329099      24.909354      21.815299      9.6193019      3.2144193    
     22000   11                   192   1395.835      -877.16192      34.461336     -842.70058      15566.007      5227.1769      2.1329099      24.909354      21.815299      9.6193019      2.8770546    
     22100   11.05                192   1440.5012     -877.57359      35.564085     -842.0095       19534.378      5227.1769      2.1329099      24.909354      21.815299      9.6193019      4.4428206    
     22200   11.1                 192   1432.5905     -875.375        35.36878      -840.00622      13885.37       5227.1769      2.1329099      24.909354      21.815299      9.6193019      3.6208486    
     22300   11.15                192   1478.5658     -873.84542      36.50385      -837.34157      22422.089      5227.1769      2.1329099      24.909354      21.815299      9.6193019      4.241845     
     22400   11.2                 192   1422.5277     -870.90311      35.120342     -835.78277      10216.837      5227.1769      2.1329099      24.909354      21.815299      9.6193019      5.2401047    
     22500   11.25                192   1387.8981     -869.09898      34.265383     -834.83359      28052.11       5227.1769      2.1329099      24.909354      21.815299      9.6193019      4.689413     
     22600   11.3                 192   1438.279      -869.75831      35.509221     -834.24909      11352.78       5227.1769      2.1329099      24.909354      21.815299      9.6193019      3.4911783    
     22700   11.35                192   1501.9098     -871.5559       37.080183     -834.47572      25012.732      5227.1769      2.1329099      24.909354      21.815299      9.6193019      5.1472821    
     22800   11.4                 192   1341.3715     -868.30253      33.116702     -835.18583      9840.2298      5227.1769      2.1329099      24.909354      21.815299      9.6193019      4.8785617    
     22900   11.45                192   1488.928      -872.06675      36.759678     -835.30707      22939.655      5227.1769      2.1329099      24.909354      21.815299      9.6193019      4.3314681    
     23000   11.5                 192   1549.2548     -874.11311      38.249068     -835.86405      19071.917      5227.1769      2.1329099      24.909354      21.815299      9.6193019      6.634431     
     23100   11.55                192   1379.9813     -871.1587       34.069928     -837.08877      14487.355      5227.1769      2.1329099      24.909354      21.815299      9.6193019      3.5160758    
     23200   11.6                 192   1474.2979     -874.14267      36.39848      -837.74419      12657.231      5227.1769      2.1329099      24.909354      21.815299      9.6193019      3.4893245    
     23300   11.65                192   1381.1375     -872.43764      34.098472     -838.33916      19547.554      5227.1769      2.1329099      24.909354      21.815299      9.6193019      2.9458166    
     23400   11.7                 192   1454.9946     -874.35706      35.921907     -838.43515      11407.987      5227.1769      2.1329099      24.909354      21.815299      9.6193019      3.9066874    
     23500   11.75                192   1390.4777     -872.35575      34.329069     -838.02668      20013.905      5227.1769      2.1329099      24.909354      21.815299      9.6193019      4.5232404    
     23600   11.8                 192   1427.6127     -872.11275      35.245884     -836.86686      13592.946      5227.1769      2.1329099      24.909354      21.815299      9.6193019      6.1443005    
     23700   11.85                192   1362.604      -869.24426      33.640904     -835.60335      14107.431      5227.1769      2.1329099      24.909354      21.815299      9.6193019      3.0001314    
     23800   11.9                 192   1477.503      -870.03855      36.477609     -833.56094      11743.784      5227.1769      2.1329099      24.909354      21.815299      9.6193019      3.1366255    
     23900   11.95                192   1654.6173     -872.81512      40.85033      -831.96479      15446.164      5227.1769      2.1329099      24.909354      21.815299      9.6193019      5.0195824    
     24000   12                   192   1499.9265     -869.59158      37.031217     -832.56037      19057.087      5227.1769      2.1329099      24.909354      21.815299      9.6193019      4.4410051    
     24100   12.05                192   1394.1375     -869.20933      34.419425     -834.7899       15961.209      5227.1769      2.1329099      24.909354      21.815299      9.6193019      4.9000784    
     24200   12.1                 192   1464.6587     -873.20271      36.1605       -837.04221      21112.618      5227.1769      2.1329099      24.909354      21.815299      9.6193019      4.305664     
     24300   12.15                192   1431.4657     -873.93837      35.341009     -838.59736      18664.569      5227.1769      2.1329099      24.909354      21.815299      9.6193019      3.5052404    
     24400   12.2                 192   1499.3141     -876.60136      37.016097     -839.58527      15034.557      5227.1769      2.1329099      24.909354      21.815299      9.6193019      3.4295135    
     24500   12.25                192   1440.2217     -876.25715      35.557185     -840.69997      14348.992      5227.1769      2.1329099      24.909354      21.815299      9.6193019      4.270455     
     24600   12.3                 192   1370.9574     -875.55283      33.84714      -841.70569      20097.171      5227.1769      2.1329099      24.909354      21.815299      9.6193019      4.6654474    
     24700   12.35                192   1347.1122     -875.46384      33.258433     -842.20541      14392.356      5227.1769      2.1329099      24.909354      21.815299      9.6193019      3.2498653    
     24800   12.4                 192   1279.1108     -873.27768      31.579566     -841.69811      19216.13       5227.1769      2.1329099      24.909354      21.815299      9.6193019      4.1522869    
     24900   12.45                192   1370.2425     -873.39832      33.829489     -839.56883      19969.507      5227.1769      2.1329099      24.909354      21.815299      9.6193019      4.7378325    
     25000   12.5                 192   1448.8646     -872.63385      35.770565     -836.86328      21446.978      5227.1769      2.1329099      24.909354      21.815299      9.6193019      5.8468797    
     25100   12.55                192   1428.6463     -871.16139      35.271403     -835.88999      17777.208      5227.1769      2.1329099      24.909354      21.815299      9.6193019      3.4747407    
     25200   12.6                 192   1395.3416     -870.29646      34.449153     -835.84731      18604.701      5227.1769      2.1329099      24.909354      21.815299      9.6193019      5.2003274    
     25300   12.65                192   1437.4081     -871.39444      35.487719     -835.90672      17766.206      5227.1769      2.1329099      24.909354      21.815299      9.6193019      4.2615569    
     25400   12.7                 192   1446.9211     -872.16053      35.722583     -836.43794      10641.836      5227.1769      2.1329099      24.909354      21.815299      9.6193019      4.2889168    
     25500   12.75                192   1423.536      -872.60246      35.145235     -837.45723      15725.368      5227.1769      2.1329099      24.909354      21.815299      9.6193019      4.8055879    
     25600   12.8                 192   1384.4525     -872.93729      34.180316     -838.75697      14334.872      5227.1769      2.1329099      24.909354      21.815299      9.6193019      4.3192154    
     25700   12.85                192   1302.6768     -872.58718      32.16138      -840.4258       15872.369      5227.1769      2.1329099      24.909354      21.815299      9.6193019      5.0773008    
     25800   12.9                 192   1325.7568     -874.22079      32.731197     -841.48959      17863.825      5227.1769      2.1329099      24.909354      21.815299      9.6193019      3.3649024    
     25900   12.95                192   1332.1775     -874.99951      32.889713     -842.1098       20263.965      5227.1769      2.1329099      24.909354      21.815299      9.6193019      2.9953208    
     26000   13                   192   1422.6857     -877.93554      35.124244     -842.81129      14286.86       5227.1769      2.1329099      24.909354      21.815299      9.6193019      3.6906499    
     26100   13.05                192   1257.7261     -875.73538      31.051607     -844.68377      14319.251      5227.1769      2.1329099      24.909354      21.815299      9.6193019      3.2993913    
     26200   13.1                 192   1293.857      -878.74419      31.943631     -846.80056      22063.484      5227.1769      2.1329099      24.909354      21.815299      9.6193019      4.1896227    
     26300   13.15                192   1251.8817     -878.9247       30.907316     -848.01738      11999.913      5227.1769      2.1329099      24.909354      21.815299      9.6193019      4.64486      
     26400   13.2                 192   1351.7836     -881.16993      33.373763     -847.79617      18778.345      5227.1769      2.1329099      24.909354      21.815299      9.6193019      4.6918701    
     26500   13.25                192   1140.9269     -874.83802      28.167988     -846.67003      12559.936      5227.1769      2.1329099      24.909354      21.815299      9.6193019      3.4337146    
     26600   13.3                 192   1423.9632     -878.8388       35.155782     -843.68301      22751.22       5227.1769      2.1329099      24.909354      21.815299      9.6193019      3.9561124    
     26700   13.35                192   1378.6238     -876.36502      34.036411     -842.32861      17993.637      5227.1769      2.1329099      24.909354      21.815299      9.6193019      4.8921182    
     26800   13.4                 192   1472.4047     -878.0976       36.351741     -841.74586      19670.514      5227.1769      2.1329099      24.909354      21.815299      9.6193019      3.6717132    
     26900   13.45                192   1366.9418     -875.66403      33.747999     -841.91603      18181.663      5227.1769      2.1329099      24.909354      21.815299      9.6193019      3.7229769    
     27000   13.5                 192   1339.2019     -875.27064      33.063137     -842.20751      21890.792      5227.1769      2.1329099      24.909354      21.815299      9.6193019      4.3199744    
     27100   13.55                192   1291.1453     -874.19596      31.876683     -842.31928      16934.006      5227.1769      2.1329099      24.909354      21.815299      9.6193019      4.2979309    
     27200   13.6                 192   1340.9306     -875.32209      33.105816     -842.21628      17804.507      5227.1769      2.1329099      24.909354      21.815299      9.6193019      4.7937295    
     27300   13.65                192   1433.2801     -877.12541      35.385805     -841.7396       18644.748      5227.1769      2.1329099      24.909354      21.815299      9.6193019      4.3309141    
     27400   13.7                 192   1271.0699     -872.94265      31.381047     -841.56161      21146.887      5227.1769      2.1329099      24.909354      21.815299      9.6193019      7.1646707    
     27500   13.75                192   1367.2253     -874.82573      33.754999     -841.07073      17479.225      5227.1769      2.1329099      24.909354      21.815299      9.6193019      5.0502332    
     27600   13.8                 192   1388.483      -875.09368      34.279823     -840.81386      19647.979      5227.1769      2.1329099      24.909354      21.815299      9.6193019      3.2224491    
     27700   13.85                192   1370.2723     -874.90193      33.830226     -841.07171      19138.498      5227.1769      2.1329099      24.909354      21.815299      9.6193019      6.3510971    
     27800   13.9                 192   1401.413      -876.70743      34.599048     -842.10839      19165.92       5227.1769      2.1329099      24.909354      21.815299      9.6193019      3.4868753    
     27900   13.95                192   1262.0543     -875.20678      31.158465     -844.04831      17669.607      5227.1769      2.1329099      24.909354      21.815299      9.6193019      4.2600188    
     28000   14                   192   1302.2702     -877.71242      32.151343     -845.56108      20903.273      5227.1769      2.1329099      24.909354      21.815299      9.6193019      4.2411574    
     28100   14.05                192   1299.7369     -878.72799      32.088798     -846.63919      19098.703      5227.1769      2.1329099      24.909354      21.815299      9.6193019      3.9654476    
     28200   14.1                 192   1128.9668     -875.11616      27.872709     -847.24345      13333.755      5227.1769      2.1329099      24.909354      21.815299      9.6193019      3.4357993    
     28300   14.15                192   1262.6651     -877.42678      31.173543     -846.25324      18535.348      5227.1769      2.1329099      24.909354      21.815299      9.6193019      4.9933913    
     28400   14.2                 192   1339.1183     -876.73902      33.061075     -843.67795      20106.619      5227.1769      2.1329099      24.909354      21.815299      9.6193019      4.2588048    
     28500   14.25                192   1438.7579     -876.74853      35.521045     -841.22749      15983.905      5227.1769      2.1329099      24.909354      21.815299      9.6193019      4.1162739    
     28600   14.3                 192   1466.2787     -877.29966      36.200496     -841.09916      18378.224      5227.1769      2.1329099      24.909354      21.815299      9.6193019      3.063629     
     28700   14.35                192   1324.2022     -875.0033       32.692813     -842.31049      15741.167      5227.1769      2.1329099      24.909354      21.815299      9.6193019      3.2999006    
     28800   14.4                 192   1366.8316     -877.23417      33.745279     -843.48889      10004.975      5227.1769      2.1329099      24.909354      21.815299      9.6193019      3.5624115    
     28900   14.45                192   1290.4678     -876.32541      31.859956     -844.46545      18006.723      5227.1769      2.1329099      24.909354      21.815299      9.6193019      4.0479502    
     29000   14.5                 192   1299.4999     -877.19382      32.082948     -845.11088      15201.011      5227.1769      2.1329099      24.909354      21.815299      9.6193019      3.2143618    
     29100   14.55                192   1262.7301     -877.13338      31.175148     -845.95823      16567.735      5227.1769      2.1329099      24.909354      21.815299      9.6193019      5.3136183    
     29200   14.6                 192   1337.7704     -879.74856      33.027796     -846.72076      12854.75       5227.1769      2.1329099      24.909354      21.815299      9.6193019      4.5119837    
     29300   14.65                192   1288.4225     -879.9693       31.809461     -848.15984      14683.222      5227.1769      2.1329099      24.909354      21.815299      9.6193019      4.3326571    
     29400   14.7                 192   1192.1903     -879.35925      29.433615     -849.92564      17974.152      5227.1769      2.1329099      24.909354      21.815299      9.6193019      5.8047082    
     29500   14.75                192   1252.6398     -881.94796      30.926034     -851.02193      16880.097      5227.1769      2.1329099      24.909354      21.815299      9.6193019      3.0584093    
     29600   14.8                 192   1129.6683     -879.54037      27.890027     -851.65035      19842.512      5227.1769      2.1329099      24.909354      21.815299      9.6193019      3.9437478    
     29700   14.85                192   1112.8115     -877.7842       27.473855     -850.31034      9504.9643      5227.1769      2.1329099      24.909354      21.815299      9.6193019      4.3503233    
     29800   14.9                 192   1311.4898     -879.0722       32.378963     -846.69324      23101.264      5227.1769      2.1329099      24.909354      21.815299      9.6193019      4.1783005    
     29900   14.95                192   1292.8285     -876.80678      31.91824      -844.88854      12403.419      5227.1769      2.1329099      24.909354      21.815299      9.6193019      4.47628      
     30000   15                   192   1305.0382     -876.15098      32.219682     -843.9313       18220.777      5227.1769      2.1329099      24.909354      21.815299      9.6193019      5.3354769    
     30100   15.05                192   1388.7266     -878.13892      34.285837     -843.85308      15138.053      5227.1769      2.1329099      24.909354      21.815299      9.6193019      4.562706     
     30200   15.1                 192   1311.2614     -877.49681      32.373323     -845.12349      18212.078      5227.1769      2.1329099      24.909354      21.815299      9.6193019      3.9937124    
     30300   15.15                192   1239.5159     -877.48058      30.602021     -846.87856      12090.143      5227.1769      2.1329099      24.909354      21.815299      9.6193019      4.2394904    
     30400   15.2                 192   1294.8244     -879.91491      31.967516     -847.94739      19366.225      5227.1769      2.1329099      24.909354      21.815299      9.6193019      4.8634782    
     30500   15.25                192   1342.3855     -882.27981      33.141737     -849.13807      19667.007      5227.1769      2.1329099      24.909354      21.815299      9.6193019      5.1563284    
     30600   15.3                 192   1209.6387     -880.65588      29.864392     -850.79149      13940.081      5227.1769      2.1329099      24.909354      21.815299      9.6193019      3.9769067    
     30700   15.35                192   1192.1236     -881.20943      29.431968     -851.77747      18027.943      5227.1769      2.1329099      24.909354      21.815299      9.6193019      4.0979508    
     30800   15.4                 192   1132.942      -880.13584      27.970851     -852.16499      8358.6911      5227.1769      2.1329099      24.909354      21.815299      9.6193019      3.4556075    
     30900   15.45                192   1263.4305     -882.67403      31.192441     -851.48159      12380.38       5227.1769      2.1329099      24.909354      21.815299      9.6193019      4.477694     
     31000   15.5                 192   1293.7497     -881.63255      31.940983     -849.69156      10118.395      5227.1769      2.1329099      24.909354      21.815299      9.6193019      4.7609074    
     31100   15.55                192   1417.9679     -881.16946      35.007767     -846.1617       9562.5503      5227.1769      2.1329099      24.909354      21.815299      9.6193019      3.41886      
     31200   15.6                 192   1447.5903     -880.11587      35.739105     -844.37677      14941.104      5227.1769      2.1329099      24.909354      21.815299      9.6193019      3.6893522    
     31300   15.65                192   1353.6525     -877.90295      33.419903     -844.48304      18469.946      5227.1769      2.1329099      24.909354      21.815299      9.6193019      4.4787843    
     31400   15.7                 192   1437.2983     -881.18799      35.485008     -845.70298      19264.136      5227.1769      2.1329099      24.909354      21.815299      9.6193019      3.657296     
     31500   15.75                192   1340.3015     -880.84793      33.090285     -847.75764      15932.154      5227.1769      2.1329099      24.909354      21.815299      9.6193019      2.9137839    
     31600   15.8                 192   1225.0302     -879.16441      30.244389     -848.92002      19026.108      5227.1769      2.1329099      24.909354      21.815299      9.6193019      2.9573035    
     31700   15.85                192   1214.7586     -878.90838      29.990797     -848.91759      13140.077      5227.1769      2.1329099      24.909354      21.815299      9.6193019      3.7965702    
     31800   15.9                 192   1209.6268     -878.24219      29.864098     -848.37809      15492.328      5227.1769      2.1329099      24.909354      21.815299      9.6193019      3.0643755    
     31900   15.95                192   1251.8017     -878.24601      30.905342     -847.34067      9190.2117      5227.1769      2.1329099      24.909354      21.815299      9.6193019      3.2746106    
     32000   16                   192   1370.2042     -880.09336      33.828544     -846.26481      16286.873      5227.1769      2.1329099      24.909354      21.815299      9.6193019      3.7683555    
     32100   16.05                192   1390.9233     -880.56801      34.34007      -846.22794      9641.7339      5227.1769      2.1329099      24.909354      21.815299      9.6193019      4.8870251    
     32200   16.1                 192   1326.8589     -880.59949      32.758406     -847.84108      14278.475      5227.1769      2.1329099      24.909354      21.815299      9.6193019      2.9549527    
     32300   16.15                192   1176.5127     -879.28939      29.046553     -850.24284      12289.448      5227.1769      2.1329099      24.909354      21.815299      9.6193019      3.1973582    
     32400   16.2                 192   1239.9647     -881.89317      30.613101     -851.28007      7232.7787      5227.1769      2.1329099      24.909354      21.815299      9.6193019      3.7488438    
     32500   16.25                192   1290.914      -883.26963      31.870973     -851.39866      12340.043      5227.1769      2.1329099      24.909354      21.815299      9.6193019      4.2676716    
     32600   16.3                 192   1313.1482     -884.00545      32.419907     -851.58555      13725.822      5227.1769      2.1329099      24.909354      21.815299      9.6193019      4.3744602    
     32700   16.35                192   1168.6672     -880.81041      28.85286      -851.95755      13288.029      5227.1769      2.1329099      24.909354      21.815299      9.6193019      3.2404589    
     32800   16.4                 192   1266.2726     -882.83271      31.262609     -851.5701       13848.389      5227.1769      2.1329099      24.909354      21.815299      9.6193019      3.5043635    
     32900   16.45                192   1267.7217     -882.217        31.298385     -850.91861      14442.813      5227.1769      2.1329099      24.909354      21.815299      9.6193019      5.4866397    
     33000   16.5                 192   1354.0061     -883.58601      33.428634     -850.15738      11942.831      5227.1769      2.1329099      24.909354      21.815299      9.6193019      3.6908647    
     33100   16.55                192   1278.0777     -881.47008      31.554062     -849.91602      11152.36       5227.1769      2.1329099      24.909354      21.815299      9.6193019      4.306501     
     33200   16.6                 192   1332.3192     -882.97302      32.893212     -850.07981      11921.539      5227.1769      2.1329099      24.909354      21.815299      9.6193019      4.0235279    
     33300   16.65                192   1207.5956     -881.28176      29.81395      -851.46781      10510.56       5227.1769      2.1329099      24.909354      21.815299      9.6193019      5.7677335    
     33400   16.7                 192   1210.8197     -883.26033      29.893549     -853.36678      15824.271      5227.1769      2.1329099      24.909354      21.815299      9.6193019      3.3459832    
     33500   16.75                192   1029.3768     -880.04878      25.413962     -854.63482      13430.395      5227.1769      2.1329099      24.909354      21.815299      9.6193019      4.068455     
     33600   16.8                 192   1214.3397     -884.02818      29.980454     -854.04772      15798.804      5227.1769      2.1329099      24.909354      21.815299      9.6193019      3.1108149    
     33700   16.85                192   1216.4688     -882.76359      30.033018     -852.73057      8477.3908      5227.1769      2.1329099      24.909354      21.815299      9.6193019      3.7557164    
     33800   16.9                 192   1281.0048     -883.17024      31.626328     -851.54391      13430.079      5227.1769      2.1329099      24.909354      21.815299      9.6193019      3.5034031    
     33900   16.95                192   1207.3625     -880.82636      29.808195     -851.01817      16268.239      5227.1769      2.1329099      24.909354      21.815299      9.6193019      4.1381482    
     34000   17                   192   1201.7376     -880.77222      29.669325     -851.1029       12990.591      5227.1769      2.1329099      24.909354      21.815299      9.6193019      3.8772027    
     34100   17.05                192   1264.2651     -882.79944      31.213045     -851.58639      7103.3431      5227.1769      2.1329099      24.909354      21.815299      9.6193019      3.1615941    
     34200   17.1                 192   1254.8841     -883.95381      30.981441     -852.97237      14517.435      5227.1769      2.1329099      24.909354      21.815299      9.6193019      3.531416     
     34300   17.15                192   1173.8845     -883.96929      28.981668     -854.98763      9168.7055      5227.1769      2.1329099      24.909354      21.815299      9.6193019      3.5727194    
     34400   17.2                 192   1125.2934     -884.30181      27.782017     -856.5198       14652.689      5227.1769      2.1329099      24.909354      21.815299      9.6193019      3.3756635    
     34500   17.25                192   1073.1988     -883.514        26.495871     -857.01813      15963.802      5227.1769      2.1329099      24.909354      21.815299      9.6193019      4.1947994    
     34600   17.3                 192   1209.5776     -886.51519      29.862883     -856.65231      14960.83       5227.1769      2.1329099      24.909354      21.815299      9.6193019      3.2136835    
     34700   17.35                192   1198.1417     -885.51571      29.580547     -855.93517      10528.725      5227.1769      2.1329099      24.909354      21.815299      9.6193019      2.7047189    
     34800   17.4                 192   1155.8526     -883.14034      28.536483     -854.60386      13943.595      5227.1769      2.1329099      24.909354      21.815299      9.6193019      3.3588925    
     34900   17.45                192   1351.0138     -885.71617      33.354757     -852.36141      14042.331      5227.1769      2.1329099      24.909354      21.815299      9.6193019      4.0139227    
     35000   17.5                 192   1237.7354     -881.85336      30.558063     -851.2953       10110.67       5227.1769      2.1329099      24.909354      21.815299      9.6193019      3.6383169    
     35100   17.55                192   1246.9658     -881.92341      30.78595      -851.13746      16517.776      5227.1769      2.1329099      24.909354      21.815299      9.6193019      4.3824222    
     35200   17.6                 192   1179.0436     -880.87847      29.109039     -851.76943      11223.482      5227.1769      2.1329099      24.909354      21.815299      9.6193019      3.2593059    
     35300   17.65                192   1284.8981     -884.36942      31.722447     -852.64697      12917.371      5227.1769      2.1329099      24.909354      21.815299      9.6193019      3.1088346    
     35400   17.7                 192   1209.481      -883.95619      29.860499     -854.09569      13889.236      5227.1769      2.1329099      24.909354      21.815299      9.6193019      4.12873      
     35500   17.75                192   1087.9289     -882.2525       26.859536     -855.39296      13060.55       5227.1769      2.1329099      24.909354      21.815299      9.6193019      4.043271     
     35600   17.8                 192   1168.3581     -884.35578      28.845229     -855.51055      6014.4611      5227.1769      2.1329099      24.909354      21.815299      9.6193019      2.6950041    
     35700   17.85                192   1229.2391     -885.79321      30.348301     -855.44491      9386.4915      5227.1769      2.1329099      24.909354      21.815299      9.6193019      3.6120929    
     35800   17.9                 192   1179.2938     -884.56153      29.115216     -855.44631      11607.992      5227.1769      2.1329099      24.909354      21.815299      9.6193019      4.5217367    
     35900   17.95                192   1230.2343     -885.76766      30.372871     -855.39479      11280.161      5227.1769      2.1329099      24.909354      21.815299      9.6193019      3.0676369    
     36000   18                   192   1120.2514     -883.28168      27.657537     -855.62414      14505.034      5227.1769      2.1329099      24.909354      21.815299      9.6193019      3.6702191    
     36100   18.05                192   1222.9356     -885.61734      30.192676     -855.42466      16267.946      5227.1769      2.1329099      24.909354      21.815299      9.6193019      3.0247193    
     36200   18.1                 192   1170.57       -884.53892      28.899838     -855.63909      10358.819      5227.1769      2.1329099      24.909354      21.815299      9.6193019      3.8483967    
     36300   18.15                192   1155.2688     -884.24997      28.522072     -855.7279       11908.443      5227.1769      2.1329099      24.909354      21.815299      9.6193019      3.4878026    
     36400   18.2                 192   1141.3536     -883.10832      28.178522     -854.9298       10824.067      5227.1769      2.1329099      24.909354      21.815299      9.6193019      5.9391093    
     36500   18.25                192   1225.5817     -883.5423       30.258003     -853.2843       11600.16       5227.1769      2.1329099      24.909354      21.815299      9.6193019      7.2474916    
     36600   18.3                 192   1165.1537     -881.07431      28.766115     -852.3082       12914.941      5227.1769      2.1329099      24.909354      21.815299      9.6193019      4.0406422    
     36700   18.35                192   1153.207      -880.59783      28.471168     -852.12666      12765.754      5227.1769      2.1329099      24.909354      21.815299      9.6193019      3.8740269    
     36800   18.4                 192   1212.0894     -882.19148      29.924897     -852.26658      15012.28       5227.1769      2.1329099      24.909354      21.815299      9.6193019      4.1029998    
     36900   18.45                192   1132.0734     -881.7529       27.949407     -853.80349      11416.368      5227.1769      2.1329099      24.909354      21.815299      9.6193019      4.9390631    
     37000   18.5                 192   1137.2056     -883.97046      28.076113     -855.89435      9229.3759      5227.1769      2.1329099      24.909354      21.815299      9.6193019      4.0035883    
     37100   18.55                192   1157.066      -886.00157      28.56644      -857.43513      13424.749      5227.1769      2.1329099      24.909354      21.815299      9.6193019      3.5100123    
     37200   18.6                 192   1029.453      -883.63579      25.415842     -858.21995      9951.8602      5227.1769      2.1329099      24.909354      21.815299      9.6193019      3.5282199    
     37300   18.65                192   1065.3277     -884.1892       26.301542     -857.88766      20767.536      5227.1769      2.1329099      24.909354      21.815299      9.6193019      3.7639923    
     37400   18.7                 192   1080.4851     -883.65142      26.675759     -856.97566      10048.814      5227.1769      2.1329099      24.909354      21.815299      9.6193019      3.3446454    
     37500   18.75                192   1207.3956     -885.64452      29.809013     -855.8355       12500.178      5227.1769      2.1329099      24.909354      21.815299      9.6193019      4.006191     
     37600   18.8                 192   1231.7314     -885.49665      30.409832     -855.08682      14635.662      5227.1769      2.1329099      24.909354      21.815299      9.6193019      4.2356637    
     37700   18.85                192   1113.4078     -882.20737      27.488576     -854.71879      11985          5227.1769      2.1329099      24.909354      21.815299      9.6193019      3.4777841    
     37800   18.9                 192   1189.2769     -883.43959      29.361687     -854.07791      8748.2929      5227.1769      2.1329099      24.909354      21.815299      9.6193019      3.230938     
     37900   18.95                192   1225.9704     -884.37298      30.267601     -854.10537      10254.958      5227.1769      2.1329099      24.909354      21.815299      9.6193019      2.9754475    
     38000   19                   192   1177.9766     -883.6498       29.082698     -854.5671       19113.673      5227.1769      2.1329099      24.909354      21.815299      9.6193019      3.5050735    
     38100   19.05                192   1172.9495     -883.99639      28.958583     -855.03781      9240.2851      5227.1769      2.1329099      24.909354      21.815299      9.6193019      3.8618954    
     38200   19.1                 192   1114.4123     -883.27567      27.513376     -855.76229      14823.202      5227.1769      2.1329099      24.909354      21.815299      9.6193019      2.7618932    
     38300   19.15                192   1052.1304     -882.48753      25.975719     -856.51181      10244.677      5227.1769      2.1329099      24.909354      21.815299      9.6193019      3.0812527    
     38400   19.2                 192   1117.9589     -884.32602      27.600938     -856.72508      20531.922      5227.1769      2.1329099      24.909354      21.815299      9.6193019      3.9063588    
     38500   19.25                192   1071.8325     -883.0809       26.462137     -856.61876      14145.959      5227.1769      2.1329099      24.909354      21.815299      9.6193019      3.5514791    
     38600   19.3                 192   1237.8192     -886.77868      30.560132     -856.21855      16809.053      5227.1769      2.1329099      24.909354      21.815299      9.6193019      3.1652338    
     38700   19.35                192   1148.5933     -884.93979      28.357261     -856.58253      10493.701      5227.1769      2.1329099      24.909354      21.815299      9.6193019      3.1507438    
     38800   19.4                 192   1143.995      -886.02069      28.243734     -857.77696      18253.173      5227.1769      2.1329099      24.909354      21.815299      9.6193019      4.3376399    
     38900   19.45                192   1018.4594     -884.70593      25.144427     -859.5615       14386.246      5227.1769      2.1329099      24.909354      21.815299      9.6193019      3.1116526    
     39000   19.5                 192   1094.7215     -887.46378      27.027237     -860.43654      8432.147       5227.1769      2.1329099      24.909354      21.815299      9.6193019      4.5595505    
     39100   19.55                192   1018.0121     -886.22408      25.133383     -861.0907       13137.648      5227.1769      2.1329099      24.909354      21.815299      9.6193019      3.076033     
     39200   19.6                 192   1061.6205     -887.63713      26.210017     -861.42711      11639.097      5227.1769      2.1329099      24.909354      21.815299      9.6193019      3.1826389    
     39300   19.65                192   953.47581     -884.73521      23.540066     -861.19514      12942.142      5227.1769      2.1329099      24.909354      21.815299      9.6193019      2.7647563    
     39400   19.7                 192   1063.0446     -885.05737      26.245176     -858.8122       19653.304      5227.1769      2.1329099      24.909354      21.815299      9.6193019      4.1625009    
     39500   19.75                192   1125.0951     -884.0821       27.777122     -856.30498      6518.8452      5227.1769      2.1329099      24.909354      21.815299      9.6193019      5.3300569    
     39600   19.8                 192   1155.2327     -883.81293      28.521181     -855.29175      13875.755      5227.1769      2.1329099      24.909354      21.815299      9.6193019      3.8648962    
     39700   19.85                192   1154.0249     -883.70677      28.491361     -855.2154       11114.166      5227.1769      2.1329099      24.909354      21.815299      9.6193019      5.8736564    
     39800   19.9                 192   1136.1713     -884.12936      28.050578     -856.07878      15160.046      5227.1769      2.1329099      24.909354      21.815299      9.6193019      4.1680634    
     39900   19.95                192   1142.7808     -885.24516      28.213759     -857.03141      14965.449      5227.1769      2.1329099      24.909354      21.815299      9.6193019      5.7738313    
     40000   20                   192   1077.9546     -885.13711      26.613286     -858.52383      17183.639      5227.1769      2.1329099      24.909354      21.815299      9.6193019      3.267231     
     40100   20.05                192   1034.6877     -885.49273      25.545082     -859.94765      12990.875      5227.1769      2.1329099      24.909354      21.815299      9.6193019      3.4457208    
     40200   20.1                 192   1132.8563     -888.63472      27.968735     -860.66599      17692.682      5227.1769      2.1329099      24.909354      21.815299      9.6193019      5.6751924    
     40300   20.15                192   1020.9318     -886.70413      25.205466     -861.49866      12303.85       5227.1769      2.1329099      24.909354      21.815299      9.6193019      3.6412752    
     40400   20.2                 192   1064.8468     -888.03529      26.289671     -861.74562      13733.985      5227.1769      2.1329099      24.909354      21.815299      9.6193019      3.6060423    
     40500   20.25                192   1014.4509     -886.48518      25.045462     -861.43971      11432.579      5227.1769      2.1329099      24.909354      21.815299      9.6193019      4.6194676    
     40600   20.3                 192   1082.8913     -887.50529      26.735164     -860.77013      13275.478      5227.1769      2.1329099      24.909354      21.815299      9.6193019      3.2621458    
     40700   20.35                192   1082.828      -886.97474      26.733602     -860.24114      7182.7088      5227.1769      2.1329099      24.909354      21.815299      9.6193019      3.0745388    
     40800   20.4                 192   1034.304      -885.36622      25.535609     -859.83061      13318.058      5227.1769      2.1329099      24.909354      21.815299      9.6193019      3.7680936    
     40900   20.45                192   1106.6922     -886.90709      27.322778     -859.58431      11107.516      5227.1769      2.1329099      24.909354      21.815299      9.6193019      3.1338119    
     41000   20.5                 192   1078.8759     -886.49351      26.636029     -859.85748      16029.029      5227.1769      2.1329099      24.909354      21.815299      9.6193019      3.0427738    
     41100   20.55                192   1116.4449     -887.97516      27.56356      -860.4116       9807.7762      5227.1769      2.1329099      24.909354      21.815299      9.6193019      3.0627261    
     41200   20.6                 192   1081.3577     -888.19728      26.697303     -861.49998      13508.105      5227.1769      2.1329099      24.909354      21.815299      9.6193019      3.9848227    
     41300   20.65                192   1057.041      -888.97338      26.096955     -862.87642      7068.6045      5227.1769      2.1329099      24.909354      21.815299      9.6193019      2.6956596    
     41400   20.7                 192   1007.9989     -888.81539      24.88617      -863.92922      17106.498      5227.1769      2.1329099      24.909354      21.815299      9.6193019      3.0291712    
     41500   20.75                192   982.13168     -888.08632      24.247542     -863.83878      8735.492       5227.1769      2.1329099      24.909354      21.815299      9.6193019      2.853258     
     41600   20.8                 192   1058.7492     -888.27911      26.139129     -862.13998      11870.686      5227.1769      2.1329099      24.909354      21.815299      9.6193019      3.7517       
     41700   20.85                192   1102.7419     -886.68225      27.225251     -859.457        6812.032       5227.1769      2.1329099      24.909354      21.815299      9.6193019      2.6393431    
     41800   20.9                 192   1168.1373     -887.15962      28.839776     -858.31984      14499.94       5227.1769      2.1329099      24.909354      21.815299      9.6193019      4.7276813    
     41900   20.95                192   1134.8319     -886.57824      28.017509     -858.56073      10363.826      5227.1769      2.1329099      24.909354      21.815299      9.6193019      2.7463579    
     42000   21                   192   1059.2342     -885.13383      26.151101     -858.98273      10476.063      5227.1769      2.1329099      24.909354      21.815299      9.6193019      3.8745748    
     42100   21.05                192   1080.1769     -885.87272      26.668151     -859.20457      10595.743      5227.1769      2.1329099      24.909354      21.815299      9.6193019      3.7466195    
     42200   21.1                 192   1168.5928     -888.57721      28.851024     -859.72618      16717.069      5227.1769      2.1329099      24.909354      21.815299      9.6193019      4.6870064    
     42300   21.15                192   1033.4414     -886.85306      25.514311     -861.33874      14113.434      5227.1769      2.1329099      24.909354      21.815299      9.6193019      4.170251     
     42400   21.2                 192   1065.2215     -889.17459      26.298921     -862.87567      12048.007      5227.1769      2.1329099      24.909354      21.815299      9.6193019      3.7860738    
     42500   21.25                192   993.82322     -888.47999      24.536191     -863.9438       11272.73       5227.1769      2.1329099      24.909354      21.815299      9.6193019      3.8789592    
     42600   21.3                 192   924.45567     -886.92877      22.823597     -864.10517      12455.057      5227.1769      2.1329099      24.909354      21.815299      9.6193019      3.4043574    
     42700   21.35                192   1056.0907     -889.47707      26.073492     -863.40358      7637.9828      5227.1769      2.1329099      24.909354      21.815299      9.6193019      2.7061259    
     42800   21.4                 192   1122.834      -890.51628      27.721298     -862.79498      8965.2596      5227.1769      2.1329099      24.909354      21.815299      9.6193019      2.7125571    
     42900   21.45                192   1015.5833     -887.83279      25.073419     -862.75937      17860.98       5227.1769      2.1329099      24.909354      21.815299      9.6193019      3.552142     
     43000   21.5                 192   1016.3634     -887.75137      25.092679     -862.65869      12292.982      5227.1769      2.1329099      24.909354      21.815299      9.6193019      3.2536024    
     43100   21.55                192   997.35234     -886.78085      24.62332      -862.15753      15930.143      5227.1769      2.1329099      24.909354      21.815299      9.6193019      3.7550919    
     43200   21.6                 192   1103.1557     -888.68422      27.235466     -861.44875      11988.938      5227.1769      2.1329099      24.909354      21.815299      9.6193019      3.8296294    
     43300   21.65                192   1097.8496     -888.24376      27.104466     -861.1393       16443.158      5227.1769      2.1329099      24.909354      21.815299      9.6193019      3.5360746    
     43400   21.7                 192   1039.5642     -887.28254      25.665475     -861.61707      10076.117      5227.1769      2.1329099      24.909354      21.815299      9.6193019      3.1861863    
     43500   21.75                192   953.75437     -886.45651      23.546944     -862.90957      14673.348      5227.1769      2.1329099      24.909354      21.815299      9.6193019      2.7295168    
     43600   21.8                 192   968.73514     -888.19755      23.916799     -864.28075      11822.701      5227.1769      2.1329099      24.909354      21.815299      9.6193019      4.2463553    
     43700   21.85                192   998.08108     -889.85481      24.641312     -865.2135       8605.1308      5227.1769      2.1329099      24.909354      21.815299      9.6193019      2.5279759    
     43800   21.9                 192   951.19378     -889.57542      23.483726     -866.09169      12241.04       5227.1769      2.1329099      24.909354      21.815299      9.6193019      3.0158874    
     43900   21.95                192   957.7819      -890.28437      23.646378     -866.63799      9829.8561      5227.1769      2.1329099      24.909354      21.815299      9.6193019      3.398774     
     44000   22                   192   968.51265     -890.05415      23.911306     -866.14285      10633.617      5227.1769      2.1329099      24.909354      21.815299      9.6193019      3.5930779    
     44100   22.05                192   1009.1332     -889.29796      24.914174     -864.38379      11431.124      5227.1769      2.1329099      24.909354      21.815299      9.6193019      3.8447742    
     44200   22.1                 192   1051.7184     -888.26099      25.965548     -862.29544      10010.422      5227.1769      2.1329099      24.909354      21.815299      9.6193019      3.5347745    
     44300   22.15                192   990.45772     -885.83001      24.453101     -861.37691      11910.51       5227.1769      2.1329099      24.909354      21.815299      9.6193019      3.9127767    
     44400   22.2                 192   1057.6966     -887.25082      26.113142     -861.13768      13997.813      5227.1769      2.1329099      24.909354      21.815299      9.6193019      3.2030556    
     44500   22.25                192   1043.2694     -887.23253      25.756953     -861.47558      16144.554      5227.1769      2.1329099      24.909354      21.815299      9.6193019      3.7662057    
     44600   22.3                 192   1087.6768     -889.14756      26.853313     -862.29425      9296.3945      5227.1769      2.1329099      24.909354      21.815299      9.6193019      5.7250205    
     44700   22.35                192   1002.8213     -888.56404      24.758342     -863.8057       13298.353      5227.1769      2.1329099      24.909354      21.815299      9.6193019      3.0715466    
     44800   22.4                 192   931.34293     -887.9804       22.993635     -864.98676      14899.411      5227.1769      2.1329099      24.909354      21.815299      9.6193019      4.7885385    
     44900   22.45                192   956.92114     -888.96272      23.625127     -865.33759      9090.0122      5227.1769      2.1329099      24.909354      21.815299      9.6193019      3.0831651    
     45000   22.5                 192   1017.436      -890.25442      25.119159     -865.13526      12284.835      5227.1769      2.1329099      24.909354      21.815299      9.6193019      4.0007065    
     45100   22.55                192   957.88942     -888.42649      23.649033     -864.77746      7827.4739      5227.1769      2.1329099      24.909354      21.815299      9.6193019      5.1365398    
     45200   22.6                 192   997.044       -888.84581      24.615708     -864.2301       11329.206      5227.1769      2.1329099      24.909354      21.815299      9.6193019      2.8210911    
     45300   22.65                192   1094.0425     -890.82649      27.010473     -863.81602      8618.2188      5227.1769      2.1329099      24.909354      21.815299      9.6193019      2.8122336    
     45400   22.7                 192   984.22754     -888.09984      24.299286     -863.80055      9421.0424      5227.1769      2.1329099      24.909354      21.815299      9.6193019      5.735369     
     45500   22.75                192   1068.0958     -890.12596      26.369884     -863.75607      13174.945      5227.1769      2.1329099      24.909354      21.815299      9.6193019      2.642096     
     45600   22.8                 192   945.22082     -887.48156      23.336262     -864.1453       8631.3033      5227.1769      2.1329099      24.909354      21.815299      9.6193019      2.846217     
     45700   22.85                192   976.72663     -888.46047      24.114099     -864.34638      12605.341      5227.1769      2.1329099      24.909354      21.815299      9.6193019      2.8610309    
     45800   22.9                 192   997.33301     -889.14291      24.622843     -864.52007      13824.387      5227.1769      2.1329099      24.909354      21.815299      9.6193019      4.4492382    
     45900   22.95                192   1032.2383     -890.23782      25.484608     -864.75321      13112.637      5227.1769      2.1329099      24.909354      21.815299      9.6193019      2.8608318    
     46000   23                   192   870.92613     -886.7661       21.502023     -865.26408      13105.943      5227.1769      2.1329099      24.909354      21.815299      9.6193019      3.3871008    
     46100   23.05                192   976.94662     -889.19336      24.11953      -865.07383      11276.676      5227.1769      2.1329099      24.909354      21.815299      9.6193019      5.0376215    
     46200   23.1                 192   990.87902     -888.54597      24.463503     -864.08246      5942.1975      5227.1769      2.1329099      24.909354      21.815299      9.6193019      2.9845524    
     46300   23.15                192   1035.9851     -887.75989      25.577113     -862.18278      16192.485      5227.1769      2.1329099      24.909354      21.815299      9.6193019      3.7902805    
     46400   23.2                 192   1065.9272     -887.42485      26.316344     -861.1085       8333.5279      5227.1769      2.1329099      24.909354      21.815299      9.6193019      2.8726126    
     46500   23.25                192   1135.8725     -889.72931      28.043202     -861.68611      12258.195      5227.1769      2.1329099      24.909354      21.815299      9.6193019      2.9706347    
     46600   23.3                 192   1040.6849     -889.42262      25.693145     -863.72947      10217.205      5227.1769      2.1329099      24.909354      21.815299      9.6193019      3.3100623    
     46700   23.35                192   985.10832     -889.93082      24.321032     -865.60979      11838.9        5227.1769      2.1329099      24.909354      21.815299      9.6193019      2.9573127    
     46800   23.4                 192   985.13744     -891.07473      24.321751     -866.75298      14992.288      5227.1769      2.1329099      24.909354      21.815299      9.6193019      2.8466751    
     46900   23.45                192   970.70897     -891.48541      23.965531     -867.51988      9848.9734      5227.1769      2.1329099      24.909354      21.815299      9.6193019      2.5864529    
     47000   23.5                 192   954.11518     -891.46399      23.555852     -867.90814      15934.002      5227.1769      2.1329099      24.909354      21.815299      9.6193019      3.5819438    
     47100   23.55                192   941.87083     -891.34124      23.253555     -868.08769      8776.1752      5227.1769      2.1329099      24.909354      21.815299      9.6193019      2.8080111    
     47200   23.6                 192   938.03801     -891.14416      23.158927     -867.98523      14599.944      5227.1769      2.1329099      24.909354      21.815299      9.6193019      3.022041     
     47300   23.65                192   958.98329     -891.08643      23.676039     -867.41039      11313.278      5227.1769      2.1329099      24.909354      21.815299      9.6193019      3.1093141    
     47400   23.7                 192   981.26925     -890.52155      24.22625      -866.2953       12603.205      5227.1769      2.1329099      24.909354      21.815299      9.6193019      3.436952     
     47500   23.75                192   1005.8269     -889.67512      24.832546     -864.84257      7342.9307      5227.1769      2.1329099      24.909354      21.815299      9.6193019      3.4516562    
     47600   23.8                 192   968.74505     -887.54705      23.917044     -863.63001      13851.974      5227.1769      2.1329099      24.909354      21.815299      9.6193019      2.8017669    
     47700   23.85                192   936.80441     -885.97961      23.128472     -862.85113      6837.2888      5227.1769      2.1329099      24.909354      21.815299      9.6193019      3.5576237    
     47800   23.9                 192   969.33098     -886.35398      23.93151      -862.42247      9964.0517      5227.1769      2.1329099      24.909354      21.815299      9.6193019      4.9285131    
     47900   23.95                192   1121.0086     -890.21208      27.67623      -862.53585      11888.162      5227.1769      2.1329099      24.909354      21.815299      9.6193019      3.8936109    
     48000   24                   192   929.68005     -888.03695      22.95258      -865.08437      5975.8846      5227.1769      2.1329099      24.909354      21.815299      9.6193019      3.6776723    
     48100   24.05                192   950.86237     -890.68538      23.475544     -867.20984      12886.027      5227.1769      2.1329099      24.909354      21.815299      9.6193019      2.9116281    
     48200   24.1                 192   930.89266     -891.08321      22.982518     -868.10069      6687.7178      5227.1769      2.1329099      24.909354      21.815299      9.6193019      3.4724864    
     48300   24.15                192   957.19788     -892.18689      23.631959     -868.55493      6600.6622      5227.1769      2.1329099      24.909354      21.815299      9.6193019      2.769761     
     48400   24.2                 192   845.57991     -889.96267      20.876258     -869.08641      9065.9538      5227.1769      2.1329099      24.909354      21.815299      9.6193019      2.7424322    
     48500   24.25                192   901.70822     -891.19617      22.261993     -868.93418      7317.2848      5227.1769      2.1329099      24.909354      21.815299      9.6193019      2.9787771    
     48600   24.3                 192   979.92807     -892.37355      24.193138     -868.18041      9463.072       5227.1769      2.1329099      24.909354      21.815299      9.6193019      3.4397115    
     48700   24.35                192   904.39508     -890.03272      22.328328     -867.70439      9703.2406      5227.1769      2.1329099      24.909354      21.815299      9.6193019      2.9352155    
     48800   24.4                 192   922.70796     -889.78729      22.780449     -867.00684      9809.9672      5227.1769      2.1329099      24.909354      21.815299      9.6193019      2.7356189    
     48900   24.45                192   1043.7158     -891.83763      25.767974     -866.06966      12523.678      5227.1769      2.1329099      24.909354      21.815299      9.6193019      2.8527011    
     49000   24.5                 192   960.83244     -889.16774      23.721692     -865.44605      6790.5641      5227.1769      2.1329099      24.909354      21.815299      9.6193019      3.5074048    
     49100   24.55                192   970.04491     -889.60617      23.949136     -865.65703      14741.578      5227.1769      2.1329099      24.909354      21.815299      9.6193019      3.2413654    
     49200   24.6                 192   935.11732     -890.19471      23.086819     -867.10789      11870.734      5227.1769      2.1329099      24.909354      21.815299      9.6193019      2.4411754    
     49300   24.65                192   869.79344     -890.17661      21.474059     -868.70255      13433.715      5227.1769      2.1329099      24.909354      21.815299      9.6193019      3.8149313    
     49400   24.7                 192   895.57539     -891.59592      22.110581     -869.48534      10786.068      5227.1769      2.1329099      24.909354      21.815299      9.6193019      3.0419095    
     49500   24.75                192   927.30085     -892.52259      22.893841     -869.62875      11870.287      5227.1769      2.1329099      24.909354      21.815299      9.6193019      2.9520972    
     49600   24.8                 192   874.11006     -891.2192       21.58063      -869.63857      6291.2615      5227.1769      2.1329099      24.909354      21.815299      9.6193019      3.203384     
     49700   24.85                192   840.81074     -890.15202      20.758514     -869.39351      11200.844      5227.1769      2.1329099      24.909354      21.815299      9.6193019      4.6053299    
     49800   24.9                 192   917.55385     -891.00378      22.6532       -868.35058      9324.5622      5227.1769      2.1329099      24.909354      21.815299      9.6193019      3.8487639    
     49900   24.95                192   816.94869     -886.40619      20.169391     -866.2368       9512.4814      5227.1769      2.1329099      24.909354      21.815299      9.6193019      3.5309521    
     50000   25                   192   984.14707     -888.76082      24.2973       -864.46352      12708.701      5227.1769      2.1329099      24.909354      21.815299      9.6193019      3.5875896    
     50100   25.05                192   1065.3959     -890.96882      26.303226     -864.6656       11652.856      5227.1769      2.1329099      24.909354      21.815299      9.6193019      3.7615285    
     50200   25.1                 192   944.91826     -889.41407      23.328792     -866.08528      11160.115      5227.1769      2.1329099      24.909354      21.815299      9.6193019      3.6266001    
     50300   25.15                192   823.4687      -887.97544      20.330362     -867.64508      11290.628      5227.1769      2.1329099      24.909354      21.815299      9.6193019      3.2148957    
     50400   25.2                 192   937.51594     -891.54414      23.146038     -868.3981       6405.0776      5227.1769      2.1329099      24.909354      21.815299      9.6193019      3.1374871    
     50500   25.25                192   917.01181     -891.81055      22.639818     -869.17073      9623.9106      5227.1769      2.1329099      24.909354      21.815299      9.6193019      2.9594419    
     50600   25.3                 192   900.5836      -892.49102      22.234227     -870.2568       9443.438       5227.1769      2.1329099      24.909354      21.815299      9.6193019      3.8203331    
     50700   25.35                192   899.78081     -893.43094      22.214407     -871.21653      11736.981      5227.1769      2.1329099      24.909354      21.815299      9.6193019      2.8249037    
     50800   25.4                 192   797.18806     -891.4375       19.681527     -871.75598      13296.411      5227.1769      2.1329099      24.909354      21.815299      9.6193019      3.2879333    
     50900   25.45                192   884.9127      -893.4397       21.847333     -871.59237      10966.329      5227.1769      2.1329099      24.909354      21.815299      9.6193019      2.9863847    
     51000   25.5                 192   937.41792     -894.38908      23.143618     -871.24547      7193.7207      5227.1769      2.1329099      24.909354      21.815299      9.6193019      2.9620018    
     51100   25.55                192   844.70416     -891.87212      20.854637     -871.01749      10404.5        5227.1769      2.1329099      24.909354      21.815299      9.6193019      3.1667912    
     51200   25.6                 192   905.04105     -892.3744       22.344276     -870.03013      6441.2118      5227.1769      2.1329099      24.909354      21.815299      9.6193019      3.140233     
     51300   25.65                192   1007.559      -893.10148      24.875311     -868.22617      8785.752       5227.1769      2.1329099      24.909354      21.815299      9.6193019      4.0377883    
     51400   25.7                 192   902.1704      -889.75334      22.273403     -867.47994      12515.432      5227.1769      2.1329099      24.909354      21.815299      9.6193019      3.9059289    
     51500   25.75                192   933.9852      -890.16326      23.058869     -867.10439      13225.802      5227.1769      2.1329099      24.909354      21.815299      9.6193019      5.0217262    
     51600   25.8                 192   954.64889     -890.66093      23.569028     -867.0919       11406.421      5227.1769      2.1329099      24.909354      21.815299      9.6193019      3.1232558    
     51700   25.85                192   893.7543      -890.35328      22.065621     -868.28766      12081.685      5227.1769      2.1329099      24.909354      21.815299      9.6193019      4.1023919    
     51800   25.9                 192   967.71837     -893.98601      23.891697     -870.09432      11267.973      5227.1769      2.1329099      24.909354      21.815299      9.6193019      2.6443231    
     51900   25.95                192   833.22803     -892.16804      20.571307     -871.59673      7427.1465      5227.1769      2.1329099      24.909354      21.815299      9.6193019      2.9800803    
     52000   26                   192   843.9316      -893.07083      20.835564     -872.23526      14193.609      5227.1769      2.1329099      24.909354      21.815299      9.6193019      3.33232      
     52100   26.05                192   854.58906     -893.71027      21.098682     -872.61159      6737.6886      5227.1769      2.1329099      24.909354      21.815299      9.6193019      2.7819976    
     52200   26.1                 192   859.45505     -893.8963       21.218817     -872.67748      11605.761      5227.1769      2.1329099      24.909354      21.815299      9.6193019      2.5651594    
     52300   26.15                192   853.12505     -893.34684      21.062538     -872.2843       8550.3069      5227.1769      2.1329099      24.909354      21.815299      9.6193019      2.2356393    
     52400   26.2                 192   836.4686      -892.13699      20.651312     -871.48568      11776.804      5227.1769      2.1329099      24.909354      21.815299      9.6193019      2.9102854    
     52500   26.25                192   948.26864     -893.73265      23.411508     -870.32115      9487.8923      5227.1769      2.1329099      24.909354      21.815299      9.6193019      3.5576906    
     52600   26.3                 192   893.9887      -892.11731      22.071408     -870.04591      9226.6334      5227.1769      2.1329099      24.909354      21.815299      9.6193019      3.5556901    
     52700   26.35                192   911.23239     -893.5979       22.497132     -871.10076      8364.813       5227.1769      2.1329099      24.909354      21.815299      9.6193019      2.3487474    
     52800   26.4                 192   858.87846     -894.64725      21.204582     -873.44267      10530.704      5227.1769      2.1329099      24.909354      21.815299      9.6193019      3.4363283    
     52900   26.45                192   777.37957     -893.95353      19.192481     -874.76105      5154.7034      5227.1769      2.1329099      24.909354      21.815299      9.6193019      4.1287744    
     53000   26.5                 192   741.53999     -893.29245      18.307649     -874.9848       10364.305      5227.1769      2.1329099      24.909354      21.815299      9.6193019      3.0951243    
     53100   26.55                192   773.84831     -893.59987      19.105299     -874.49458      11069.05       5227.1769      2.1329099      24.909354      21.815299      9.6193019      3.1765888    
     53200   26.6                 192   755.42892     -892.29062      18.650549     -873.64007      5950.5583      5227.1769      2.1329099      24.909354      21.815299      9.6193019      3.5645412    
     53300   26.65                192   854.14017     -893.50673      21.0876       -872.41913      11149.342      5227.1769      2.1329099      24.909354      21.815299      9.6193019      4.0331131    
     53400   26.7                 192   800.76901     -891.19876      19.769936     -871.42882      3398.705       5227.1769      2.1329099      24.909354      21.815299      9.6193019      3.6728079    
     53500   26.75                192   919.03171     -893.42891      22.689687     -870.73923      14033.538      5227.1769      2.1329099      24.909354      21.815299      9.6193019      3.5993722    
     53600   26.8                 192   896.71388     -892.96926      22.138689     -870.83057      8033.596       5227.1769      2.1329099      24.909354      21.815299      9.6193019      3.3869514    
     53700   26.85                192   793.23156     -891.14218      19.583846     -871.55833      12259.051      5227.1769      2.1329099      24.909354      21.815299      9.6193019      4.0702011    
     53800   26.9                 192   872.428       -893.86303      21.539102     -872.32392      8795.8077      5227.1769      2.1329099      24.909354      21.815299      9.6193019      3.3194094    
     53900   26.95                192   814.12536     -893.36662      20.099687     -873.26694      12329.383      5227.1769      2.1329099      24.909354      21.815299      9.6193019      4.380998     
     54000   27                   192   816.03184     -893.86141      20.146755     -873.71466      9014.9602      5227.1769      2.1329099      24.909354      21.815299      9.6193019      3.1406281    
     54100   27.05                192   802.49351     -893.57707      19.812512     -873.76456      4512.4955      5227.1769      2.1329099      24.909354      21.815299      9.6193019      3.6096152    
     54200   27.1                 192   790.87554     -893.37698      19.525679     -873.8513       11667.022      5227.1769      2.1329099      24.909354      21.815299      9.6193019      3.9271187    
     54300   27.15                192   810.01758     -893.97233      19.998271     -873.97406      8980.8334      5227.1769      2.1329099      24.909354      21.815299      9.6193019      3.0741777    
     54400   27.2                 192   878.87232     -896.07839      21.698204     -874.38019      16148.392      5227.1769      2.1329099      24.909354      21.815299      9.6193019      3.3077538    
     54500   27.25                192   768.02826     -894.20166      18.96161      -875.24005      10590.886      5227.1769      2.1329099      24.909354      21.815299      9.6193019      2.7723653    
     54600   27.3                 192   763.13611     -894.35318      18.840829     -875.51235      6265.322       5227.1769      2.1329099      24.909354      21.815299      9.6193019      2.5284711    
     54700   27.35                192   801.22576     -894.83668      19.781212     -875.05547      8796.8643      5227.1769      2.1329099      24.909354      21.815299      9.6193019      2.3810236    
     54800   27.4                 192   804.33811     -893.73955      19.858052     -873.8815       10030.328      5227.1769      2.1329099      24.909354      21.815299      9.6193019      3.4710748    
     54900   27.45                192   864.26275     -893.31651      21.337513     -871.97899      1392.055       5227.1769      2.1329099      24.909354      21.815299      9.6193019      3.0134489    
     55000   27.5                 192   906.69131     -893.57273      22.385019     -871.18771      8685.8901      5227.1769      2.1329099      24.909354      21.815299      9.6193019      3.3945129    
     55100   27.55                192   881.85654     -893.52629      21.771881     -871.75441      9176.3451      5227.1769      2.1329099      24.909354      21.815299      9.6193019      2.9565976    
     55200   27.6                 192   854.1273      -893.72008      21.087282     -872.6328       9281.0603      5227.1769      2.1329099      24.909354      21.815299      9.6193019      4.040461     
     55300   27.65                192   794.09332     -893.08023      19.605122     -873.47511      7937.8915      5227.1769      2.1329099      24.909354      21.815299      9.6193019      3.1477133    
     55400   27.7                 192   693.24354     -890.99392      17.115273     -873.87864      16456.568      5227.1769      2.1329099      24.909354      21.815299      9.6193019      3.6491064    
     55500   27.75                192   871.16478     -895.38704      21.507915     -873.87912      3940.8382      5227.1769      2.1329099      24.909354      21.815299      9.6193019      2.7963817    
     55600   27.8                 192   808.39652     -894.42788      19.958249     -874.46963      12652.908      5227.1769      2.1329099      24.909354      21.815299      9.6193019      2.8284621    
     55700   27.85                192   777.26515     -894.60344      19.189657     -875.41379      10989.357      5227.1769      2.1329099      24.909354      21.815299      9.6193019      2.6598383    
     55800   27.9                 192   769.93633     -895.29136      19.008717     -876.28264      13046.619      5227.1769      2.1329099      24.909354      21.815299      9.6193019      2.2643574    
     55900   27.95                192   756.78339     -895.43007      18.683989     -876.74608      10377.624      5227.1769      2.1329099      24.909354      21.815299      9.6193019      3.0822157    
     56000   28                   192   723.40232     -894.64829      17.859854     -876.78844      8853.1396      5227.1769      2.1329099      24.909354      21.815299      9.6193019      3.5292035    
     56100   28.05                192   773.9144      -895.60666      19.106931     -876.49972      9313.5455      5227.1769      2.1329099      24.909354      21.815299      9.6193019      2.3301077    
     56200   28.1                 192   757.7014      -894.98327      18.706653     -876.27662      8389.0497      5227.1769      2.1329099      24.909354      21.815299      9.6193019      3.2300864    
     56300   28.15                192   826.70847     -896.60934      20.410347     -876.19899      7269.4817      5227.1769      2.1329099      24.909354      21.815299      9.6193019      3.4333935    
     56400   28.2                 192   763.9531      -895.61605      18.861        -876.75505      8841.7284      5227.1769      2.1329099      24.909354      21.815299      9.6193019      2.4850443    
     56500   28.25                192   736.06897     -895.41815      18.172577     -877.24557      7539.9835      5227.1769      2.1329099      24.909354      21.815299      9.6193019      2.5070811    
     56600   28.3                 192   780.15042     -896.86454      19.26089      -877.60365      10963.697      5227.1769      2.1329099      24.909354      21.815299      9.6193019      3.3623626    
     56700   28.35                192   740.39556     -896.57435      18.279395     -878.29496      7816.6443      5227.1769      2.1329099      24.909354      21.815299      9.6193019      3.2383607    
     56800   28.4                 192   709.77352     -896.84714      17.523377     -879.32377      11091.326      5227.1769      2.1329099      24.909354      21.815299      9.6193019      2.8767945    
     56900   28.45                192   690.14041     -897.57596      17.038661     -880.5373       7829.6301      5227.1769      2.1329099      24.909354      21.815299      9.6193019      3.1859311    
     57000   28.5                 192   628.39533     -896.68975      15.514256     -881.1755       14955.147      5227.1769      2.1329099      24.909354      21.815299      9.6193019      3.6715442    
     57100   28.55                192   652.16568     -896.80442      16.101115     -880.7033       7652.4248      5227.1769      2.1329099      24.909354      21.815299      9.6193019      2.4165566    
     57200   28.6                 192   753.22407     -897.68727      18.596114     -879.09116      10231.504      5227.1769      2.1329099      24.909354      21.815299      9.6193019      3.0551802    
     57300   28.65                192   702.44792     -895.33802      17.342517     -877.9955       8883.4481      5227.1769      2.1329099      24.909354      21.815299      9.6193019      4.5096114    
     57400   28.7                 192   767.75529     -896.35788      18.954871     -877.40301      9839.2178      5227.1769      2.1329099      24.909354      21.815299      9.6193019      2.8199974    
     57500   28.75                192   709.76349     -894.53682      17.523129     -877.01369      6046.2641      5227.1769      2.1329099      24.909354      21.815299      9.6193019      3.5865155    
     57600   28.8                 192   787.48425     -895.80754      19.441953     -876.36559      7775.6758      5227.1769      2.1329099      24.909354      21.815299      9.6193019      2.7021338    
     57700   28.85                192   786.0833      -895.28112      19.407365     -875.87375      6546.0808      5227.1769      2.1329099      24.909354      21.815299      9.6193019      2.2920451    
     57800   28.9                 192   840.34845     -896.59924      20.7471       -875.85214      9679.6907      5227.1769      2.1329099      24.909354      21.815299      9.6193019      2.5658838    
     57900   28.95                192   736.80935     -895.21602      18.190856     -877.02517      14364.93       5227.1769      2.1329099      24.909354      21.815299      9.6193019      2.7407973    
     58000   29                   192   702.812       -895.6921       17.351506     -878.3406       11266.814      5227.1769      2.1329099      24.909354      21.815299      9.6193019      2.511324     
     58100   29.05                192   767.77799     -897.89957      18.955431     -878.94414      11478.475      5227.1769      2.1329099      24.909354      21.815299      9.6193019      2.6303907    
     58200   29.1                 192   686.63252     -896.1537       16.952056     -879.20165      6198.6222      5227.1769      2.1329099      24.909354      21.815299      9.6193019      2.3540284    
     58300   29.15                192   747.45064     -897.40167      18.453575     -878.94809      9657.1758      5227.1769      2.1329099      24.909354      21.815299      9.6193019      2.0029594    
     58400   29.2                 192   697.60773     -895.89211      17.223019     -878.66909      14135.892      5227.1769      2.1329099      24.909354      21.815299      9.6193019      2.9256355    
     58500   29.25                192   732.54939     -896.20803      18.085683     -878.12235      6795.0146      5227.1769      2.1329099      24.909354      21.815299      9.6193019      2.6800878    
     58600   29.3                 192   786.72119     -897.01775      19.423114     -877.59463      11263.505      5227.1769      2.1329099      24.909354      21.815299      9.6193019      2.8596721    
     58700   29.35                192   707.92337     -895.11881      17.477699     -877.64111      8662.9498      5227.1769      2.1329099      24.909354      21.815299      9.6193019      2.9589695    
     58800   29.4                 192   685.25682     -894.66748      16.918092     -877.74939      8457.1794      5227.1769      2.1329099      24.909354      21.815299      9.6193019      3.516709     
     58900   29.45                192   763.82112     -896.76323      18.857741     -877.90549      10555.095      5227.1769      2.1329099      24.909354      21.815299      9.6193019      3.0662148    
     59000   29.5                 192   783.68884     -898.01196      19.348249     -878.66371      12611.085      5227.1769      2.1329099      24.909354      21.815299      9.6193019      3.1016319    
     59100   29.55                192   714.96954     -897.52226      17.65166      -879.8706       10779.949      5227.1769      2.1329099      24.909354      21.815299      9.6193019      2.5882382    
     59200   29.6                 192   669.10901     -897.02699      16.519423     -880.50757      13829.981      5227.1769      2.1329099      24.909354      21.815299      9.6193019      3.3344771    
     59300   29.65                192   706.26358     -897.8997       17.436721     -880.46298      14076.917      5227.1769      2.1329099      24.909354      21.815299      9.6193019      3.7075854    
     59400   29.7                 192   643.61261     -896.16403      15.889951     -880.27408      8328.6222      5227.1769      2.1329099      24.909354      21.815299      9.6193019      1.9993007    
     59500   29.75                192   676.41755     -896.38416      16.699862     -879.6843       11163.679      5227.1769      2.1329099      24.909354      21.815299      9.6193019      2.8085296    
     59600   29.8                 192   791.20291     -898.44099      19.533761     -878.90723      11694.482      5227.1769      2.1329099      24.909354      21.815299      9.6193019      2.3048322    
     59700   29.85                192   734.37347     -896.87684      18.130717     -878.74613      9105.5869      5227.1769      2.1329099      24.909354      21.815299      9.6193019      2.3525779    
     59800   29.9                 192   702.96696     -896.4248       17.355332     -879.06947      7778.5215      5227.1769      2.1329099      24.909354      21.815299      9.6193019      2.5679344    
     59900   29.95                192   719.61689     -897.33321      17.766397     -879.56681      10805.6        5227.1769      2.1329099      24.909354      21.815299      9.6193019      2.2533834    
     60000   30                   192   735.7876      -898.285        18.16563      -880.11937      12850.843      5227.1769      2.1329099      24.909354      21.815299      9.6193019      2.1159168    
     60100   30.05                192   682.06679     -897.71666      16.839334     -880.87733      9888.8988      5227.1769      2.1329099      24.909354      21.815299      9.6193019      3.0433977    
     60200   30.1                 192   685.18101     -898.50999      16.91622      -881.59377      11650.452      5227.1769      2.1329099      24.909354      21.815299      9.6193019      2.1454442    
     60300   30.15                192   670.72605     -898.76123      16.559346     -882.20188      14194.811      5227.1769      2.1329099      24.909354      21.815299      9.6193019      2.5723301    
     60400   30.2                 192   647.58893     -898.5988       15.988121     -882.61068      10723.29       5227.1769      2.1329099      24.909354      21.815299      9.6193019      2.3683654    
     60500   30.25                192   675.35513     -899.14109      16.673632     -882.46746      10970.359      5227.1769      2.1329099      24.909354      21.815299      9.6193019      3.1826535    
     60600   30.3                 192   705.88594     -898.70307      17.427398     -881.27568      7651.84        5227.1769      2.1329099      24.909354      21.815299      9.6193019      2.2348405    
     60700   30.35                192   746.55837     -898.08241      18.431546     -879.65086      9500.7893      5227.1769      2.1329099      24.909354      21.815299      9.6193019      1.9143438    
     60800   30.4                 192   736.21759     -897.1986       18.176246     -879.02235      11568.056      5227.1769      2.1329099      24.909354      21.815299      9.6193019      4.3795355    
     60900   30.45                192   735.60191     -897.38401      18.161046     -879.22297      10333.401      5227.1769      2.1329099      24.909354      21.815299      9.6193019      3.7541534    
     61000   30.5                 192   707.64317     -897.51266      17.470781     -880.04188      11422.808      5227.1769      2.1329099      24.909354      21.815299      9.6193019      2.4046693    
     61100   30.55                192   665.59818     -897.50614      16.432745     -881.07339      7237.2735      5227.1769      2.1329099      24.909354      21.815299      9.6193019      3.0139437    
     61200   30.6                 192   667.46906     -898.27346      16.478935     -881.79452      7091.5994      5227.1769      2.1329099      24.909354      21.815299      9.6193019      2.9477375    
     61300   30.65                192   705.60307     -899.65129      17.420414     -882.23088      6056.873       5227.1769      2.1329099      24.909354      21.815299      9.6193019      3.0791339    
     61400   30.7                 192   695.42624     -899.90135      17.169161     -882.73219      5787.9846      5227.1769      2.1329099      24.909354      21.815299      9.6193019      2.5856576    
     61500   30.75                192   680.29827     -899.87138      16.795672     -883.07571      4920.0094      5227.1769      2.1329099      24.909354      21.815299      9.6193019      2.0727074    
     61600   30.8                 192   704.81388     -900.75119      17.40093      -883.35026      6959.951       5227.1769      2.1329099      24.909354      21.815299      9.6193019      1.9050854    
     61700   30.85                192   630.35476     -899.28907      15.562632     -883.72643      13306.397      5227.1769      2.1329099      24.909354      21.815299      9.6193019      2.5183717    
     61800   30.9                 192   664.73669     -900.33571      16.411477     -883.92424      6411.714       5227.1769      2.1329099      24.909354      21.815299      9.6193019      2.6010813    
     61900   30.95                192   653.61281     -900.24377      16.136843     -884.10693      7025.607       5227.1769      2.1329099      24.909354      21.815299      9.6193019      2.0746031    
     62000   31                   192   654.53041     -900.54181      16.159497     -884.38232      7021.8544      5227.1769      2.1329099      24.909354      21.815299      9.6193019      2.3161737    
     62100   31.05                192   627.13796     -900.44711      15.483213     -884.9639       8091.5627      5227.1769      2.1329099      24.909354      21.815299      9.6193019      2.7026892    
     62200   31.1                 192   647.12423     -901.42675      15.976648     -885.4501       2840.4179      5227.1769      2.1329099      24.909354      21.815299      9.6193019      2.1597838    
     62300   31.15                192   619.80979     -900.98719      15.30229      -885.6849       11182.39       5227.1769      2.1329099      24.909354      21.815299      9.6193019      3.4788035    
     62400   31.2                 192   669.86392     -902.23822      16.538061     -885.70016      8441.7285      5227.1769      2.1329099      24.909354      21.815299      9.6193019      2.4091746    
     62500   31.25                192   603.88803     -900.63147      14.909203     -885.72227      3724.651       5227.1769      2.1329099      24.909354      21.815299      9.6193019      2.4518427    
     62600   31.3                 192   594.45599     -899.96707      14.676338     -885.29073      7162.8402      5227.1769      2.1329099      24.909354      21.815299      9.6193019      2.3313424    
     62700   31.35                192   655.8801      -900.3939       16.192819     -884.20108      3020.9296      5227.1769      2.1329099      24.909354      21.815299      9.6193019      2.3632454    
     62800   31.4                 192   707.23721     -900.7545       17.460759     -883.29374      8770.9026      5227.1769      2.1329099      24.909354      21.815299      9.6193019      2.5482       
     62900   31.45                192   650.36671     -899.35258      16.056701     -883.29588      5813.6543      5227.1769      2.1329099      24.909354      21.815299      9.6193019      2.0367259    
     63000   31.5                 192   672.90289     -900.26645      16.613089     -883.65336      6180.7748      5227.1769      2.1329099      24.909354      21.815299      9.6193019      2.3312205    
     63100   31.55                192   648.60931     -900.32105      16.013313     -884.30774      8067.1606      5227.1769      2.1329099      24.909354      21.815299      9.6193019      2.5089497    
     63200   31.6                 192   609.91836     -899.9548       15.058084     -884.89672      8016.0631      5227.1769      2.1329099      24.909354      21.815299      9.6193019      3.0460683    
     63300   31.65                192   602.25851     -900.21196      14.868972     -885.34299      10158.834      5227.1769      2.1329099      24.909354      21.815299      9.6193019      2.5720187    
     63400   31.7                 192   619.45071     -901.21462      15.293425     -885.9212       5279.8622      5227.1769      2.1329099      24.909354      21.815299      9.6193019      2.9163894    
     63500   31.75                192   574.52746     -901.25615      14.184329     -887.07182      7030.6447      5227.1769      2.1329099      24.909354      21.815299      9.6193019      4.0920907    
     63600   31.8                 192   573.59945     -902.32813      14.161418     -888.16672      8547.6314      5227.1769      2.1329099      24.909354      21.815299      9.6193019      2.4454112    
     63700   31.85                192   529.82476     -901.68884      13.080678     -888.60817      9902.8489      5227.1769      2.1329099      24.909354      21.815299      9.6193019      2.6474369    
     63800   31.9                 192   587.97244     -902.72074      14.516268     -888.20447      7796.5733      5227.1769      2.1329099      24.909354      21.815299      9.6193019      2.728459     
     63900   31.95                192   632.52767     -903.03261      15.616278     -887.41633      7691.03        5227.1769      2.1329099      24.909354      21.815299      9.6193019      2.2216342    
     64000   32                   192   679.18673     -903.4829       16.768229     -886.71467      7683.2861      5227.1769      2.1329099      24.909354      21.815299      9.6193019      2.1417882    
     64100   32.05                192   635.78921     -902.20819      15.696801     -886.51139      9064.5489      5227.1769      2.1329099      24.909354      21.815299      9.6193019      2.4595614    
     64200   32.1                 192   603.4185      -901.40849      14.897611     -886.51088      6664.064       5227.1769      2.1329099      24.909354      21.815299      9.6193019      2.504528     
     64300   32.15                192   538.88838     -899.70236      13.304447     -886.39791      12632.308      5227.1769      2.1329099      24.909354      21.815299      9.6193019      3.8193512    
     64400   32.2                 192   580.15798     -900.38058      14.323339     -886.05724      9346.0821      5227.1769      2.1329099      24.909354      21.815299      9.6193019      3.1351387    
     64500   32.25                192   599.21755     -900.63876      14.793895     -885.84487      11323.828      5227.1769      2.1329099      24.909354      21.815299      9.6193019      4.0862664    
     64600   32.3                 192   611.57639     -900.82722      15.099019     -885.7282       7703.1619      5227.1769      2.1329099      24.909354      21.815299      9.6193019      4.2375726    
     64700   32.35                192   607.42931     -900.65903      14.996633     -885.6624       10636.956      5227.1769      2.1329099      24.909354      21.815299      9.6193019      3.1201911    
     64800   32.4                 192   586.77671     -900.16269      14.486747     -885.67594      4594.9246      5227.1769      2.1329099      24.909354      21.815299      9.6193019      2.6413789    
     64900   32.45                192   635.62806     -901.46678      15.692823     -885.77396      9126.8372      5227.1769      2.1329099      24.909354      21.815299      9.6193019      2.3940834    
     65000   32.5                 192   620.67761     -901.80134      15.323716     -886.47762      5748.7699      5227.1769      2.1329099      24.909354      21.815299      9.6193019      2.7932813    
     65100   32.55                192   562.81321     -901.36189      13.895119     -887.46677      12975.412      5227.1769      2.1329099      24.909354      21.815299      9.6193019      3.1794632    
     65200   32.6                 192   576.21387     -902.23393      14.225964     -888.00796      6698.0797      5227.1769      2.1329099      24.909354      21.815299      9.6193019      2.2699683    
     65300   32.65                192   564.76483     -902.26912      13.943303     -888.32581      9983.9137      5227.1769      2.1329099      24.909354      21.815299      9.6193019      2.2118582    
     65400   32.7                 192   564.52019     -902.31817      13.937263     -888.38091      7028.4962      5227.1769      2.1329099      24.909354      21.815299      9.6193019      2.1843993    
     65500   32.75                192   591.45143     -902.57956      14.60216      -887.9774       7868.8011      5227.1769      2.1329099      24.909354      21.815299      9.6193019      2.208115     
     65600   32.8                 192   621.45082     -902.61466      15.342805     -887.27185      8636.1089      5227.1769      2.1329099      24.909354      21.815299      9.6193019      2.5489138    
     65700   32.85                192   632.56569     -902.25787      15.617217     -886.64065      5458.1155      5227.1769      2.1329099      24.909354      21.815299      9.6193019      2.2113237    
     65800   32.9                 192   659.78512     -902.45135      16.289229     -886.16212      10824.635      5227.1769      2.1329099      24.909354      21.815299      9.6193019      2.269562     
     65900   32.95                192   587.02426     -900.96174      14.492859     -886.46888      8101.737       5227.1769      2.1329099      24.909354      21.815299      9.6193019      1.9782586    
     66000   33                   192   581.59689     -901.81723      14.358864     -887.45837      9074.1442      5227.1769      2.1329099      24.909354      21.815299      9.6193019      2.0431895    
     66100   33.05                192   491.56424     -900.63638      12.136076     -888.5003       9761.739       5227.1769      2.1329099      24.909354      21.815299      9.6193019      2.8713831    
     66200   33.1                 192   515.74595     -901.35644      12.733091     -888.62335      9010.3988      5227.1769      2.1329099      24.909354      21.815299      9.6193019      3.0083822    
     66300   33.15                192   571.0513      -902.36769      14.098507     -888.26919      4249.4594      5227.1769      2.1329099      24.909354      21.815299      9.6193019      2.0093271    
     66400   33.2                 192   566.71351     -901.84317      13.991413     -887.85176      12175.203      5227.1769      2.1329099      24.909354      21.815299      9.6193019      1.9556687    
     66500   33.25                192   589.19502     -901.98434      14.546452     -887.43789      9355.0969      5227.1769      2.1329099      24.909354      21.815299      9.6193019      3.0952155    
     66600   33.3                 192   586.28331     -901.50392      14.474566     -887.02935      11515.768      5227.1769      2.1329099      24.909354      21.815299      9.6193019      2.4529667    
     66700   33.35                192   629.27898     -901.80463      15.536072     -886.26856      8491.7908      5227.1769      2.1329099      24.909354      21.815299      9.6193019      3.4916715    
     66800   33.4                 192   636.11823     -900.89081      15.704924     -885.18588      8952.9238      5227.1769      2.1329099      24.909354      21.815299      9.6193019      2.4613197    
     66900   33.45                192   702.57361     -901.83331      17.34562      -884.48769      9701.1689      5227.1769      2.1329099      24.909354      21.815299      9.6193019      1.97437      
     67000   33.5                 192   590.87613     -899.81678      14.587956     -885.22882      11260.96       5227.1769      2.1329099      24.909354      21.815299      9.6193019      3.073358     
     67100   33.55                192   564.88988     -900.4897       13.94639      -886.54331      4360.9934      5227.1769      2.1329099      24.909354      21.815299      9.6193019      2.7714052    
     67200   33.6                 192   583.25519     -901.85064      14.399805     -887.45083      6588.1283      5227.1769      2.1329099      24.909354      21.815299      9.6193019      2.9293764    
     67300   33.65                192   601.5004      -903.10188      14.850256     -888.25162      8339.6927      5227.1769      2.1329099      24.909354      21.815299      9.6193019      2.8710329    
     67400   33.7                 192   575.65342     -903.26332      14.212128     -889.05119      6750.8458      5227.1769      2.1329099      24.909354      21.815299      9.6193019      2.0253014    
     67500   33.75                192   527.44776     -902.5949       13.021993     -889.5729       10344.964      5227.1769      2.1329099      24.909354      21.815299      9.6193019      2.1594096    
     67600   33.8                 192   561.356       -903.60953      13.859143     -889.75039      5676.7732      5227.1769      2.1329099      24.909354      21.815299      9.6193019      2.6988267    
     67700   33.85                192   567.38134     -903.90458      14.007901     -889.89668      9004.1313      5227.1769      2.1329099      24.909354      21.815299      9.6193019      2.2396622    
     67800   33.9                 192   543.76606     -903.5082       13.42487      -890.08333      4149.0224      5227.1769      2.1329099      24.909354      21.815299      9.6193019      2.1511725    
     67900   33.95                192   515.93205     -902.94626      12.737685     -890.20858      8390.532       5227.1769      2.1329099      24.909354      21.815299      9.6193019      2.7800231    
     68000   34                   192   573.41842     -904.31343      14.156948     -890.15648      4343.5716      5227.1769      2.1329099      24.909354      21.815299      9.6193019      2.2221036    
     68100   34.05                192   576.70083     -904.60379      14.237987     -890.36581      6991.136       5227.1769      2.1329099      24.909354      21.815299      9.6193019      2.2170151    
     68200   34.1                 192   518.48394     -903.6164       12.800688     -890.81571      5449.995       5227.1769      2.1329099      24.909354      21.815299      9.6193019      3.0440995    
     68300   34.15                192   563.08776     -905.05267      13.901898     -891.15077      6497.2988      5227.1769      2.1329099      24.909354      21.815299      9.6193019      1.8412501    
     68400   34.2                 192   526.16786     -904.70928      12.990394     -891.71888      8847.6111      5227.1769      2.1329099      24.909354      21.815299      9.6193019      2.8732546    
     68500   34.25                192   451.30768     -903.43812      11.142194     -892.29593      4728.2822      5227.1769      2.1329099      24.909354      21.815299      9.6193019      3.1269872    
     68600   34.3                 192   478.39414     -904.05828      11.810924     -892.24735      9216.4431      5227.1769      2.1329099      24.909354      21.815299      9.6193019      2.2577861    
     68700   34.35                192   521.86988     -904.35227      12.884282     -891.46799      4967.2687      5227.1769      2.1329099      24.909354      21.815299      9.6193019      2.4535445    
     68800   34.4                 192   540.70577     -903.80404      13.349316     -890.45473      10697.861      5227.1769      2.1329099      24.909354      21.815299      9.6193019      3.5422935    
     68900   34.45                192   544.37988     -903.49797      13.440025     -890.05794      9442.8322      5227.1769      2.1329099      24.909354      21.815299      9.6193019      3.4220405    
     69000   34.5                 192   533.04942     -903.21339      13.160291     -890.0531       8820.1364      5227.1769      2.1329099      24.909354      21.815299      9.6193019      2.8923534    
     69100   34.55                192   563.61471     -904.03982      13.914907     -890.12491      4721.9032      5227.1769      2.1329099      24.909354      21.815299      9.6193019      2.4965535    
     69200   34.6                 192   557.81392     -904.32009      13.771694     -890.54839      7017.9312      5227.1769      2.1329099      24.909354      21.815299      9.6193019      2.5661213    
     69300   34.65                192   495.48831     -903.51569      12.232956     -891.28273      7105.1332      5227.1769      2.1329099      24.909354      21.815299      9.6193019      2.5759738    
     69400   34.7                 192   524.20637     -904.75495      12.941967     -891.81298      7182.0421      5227.1769      2.1329099      24.909354      21.815299      9.6193019      2.3783817    
     69500   34.75                192   509.59585     -904.78207      12.581253     -892.20082      5024.7236      5227.1769      2.1329099      24.909354      21.815299      9.6193019      3.147991     
     69600   34.8                 192   480.82031     -904.34051      11.870822     -892.46969      6125.7325      5227.1769      2.1329099      24.909354      21.815299      9.6193019      2.8647784    
     69700   34.85                192   474.26319     -904.15044      11.708936     -892.44151      8392.5047      5227.1769      2.1329099      24.909354      21.815299      9.6193019      1.9656711    
     69800   34.9                 192   483.3679      -904.13602      11.933719     -892.2023       5810.8791      5227.1769      2.1329099      24.909354      21.815299      9.6193019      2.3158479    
     69900   34.95                192   463.76363     -903.41366      11.449715     -891.96395      8849.5977      5227.1769      2.1329099      24.909354      21.815299      9.6193019      3.3230864    
     70000   35                   192   507.99293     -904.27408      12.541679     -891.7324       5383.9817      5227.1769      2.1329099      24.909354      21.815299      9.6193019      1.8149129    
     70100   35.05                192   522.54099     -904.53564      12.900851     -891.63478      8230.0224      5227.1769      2.1329099      24.909354      21.815299      9.6193019      2.6677232    
     70200   35.1                 192   508.081       -904.32828      12.543853     -891.78442      7418.4406      5227.1769      2.1329099      24.909354      21.815299      9.6193019      3.5282216    
     70300   35.15                192   496.14623     -904.27826      12.249199     -892.02906      6458.4929      5227.1769      2.1329099      24.909354      21.815299      9.6193019      2.1385633    
     70400   35.2                 192   509.23894     -904.80004      12.572441     -892.2276       4420.047       5227.1769      2.1329099      24.909354      21.815299      9.6193019      1.6369832    
     70500   35.25                192   520.17496     -905.5485       12.842437     -892.70607      6150.628       5227.1769      2.1329099      24.909354      21.815299      9.6193019      2.2914073    
     70600   35.3                 192   465.02853     -905.17213      11.480944     -893.69119      7244.9477      5227.1769      2.1329099      24.909354      21.815299      9.6193019      2.1107676    
     70700   35.35                192   450.10293     -905.4399       11.112451     -894.32745      8909.8898      5227.1769      2.1329099      24.909354      21.815299      9.6193019      2.1461366    
     70800   35.4                 192   435.61943     -905.13614      10.754872     -894.38127      6282.9364      5227.1769      2.1329099      24.909354      21.815299      9.6193019      2.4112563    
     70900   35.45                192   457.96097     -905.19922      11.306455     -893.89276      7874.4764      5227.1769      2.1329099      24.909354      21.815299      9.6193019      2.1895843    
     71000   35.5                 192   473.91685     -904.86135      11.700385     -893.16097      6854.6668      5227.1769      2.1329099      24.909354      21.815299      9.6193019      2.1564706    
     71100   35.55                192   478.13842     -904.33366      11.80461      -892.52905      3203.607       5227.1769      2.1329099      24.909354      21.815299      9.6193019      1.7438683    
     71200   35.6                 192   501.60924     -904.49333      12.384074     -892.10926      9384.8728      5227.1769      2.1329099      24.909354      21.815299      9.6193019      2.0963979    
     71300   35.65                192   469.48056     -903.4856       11.590859     -891.89474      4154.6059      5227.1769      2.1329099      24.909354      21.815299      9.6193019      2.3254332    
     71400   35.7                 192   465.57971     -903.24788      11.494552     -891.75332      6063.2076      5227.1769      2.1329099      24.909354      21.815299      9.6193019      1.7551132    
     71500   35.75                192   509.51278     -904.53663      12.579202     -891.95743      3927.1728      5227.1769      2.1329099      24.909354      21.815299      9.6193019      1.8542779    
     71600   35.8                 192   505.73917     -905.17019      12.486036     -892.68415      7095.3479      5227.1769      2.1329099      24.909354      21.815299      9.6193019      1.9534427    
     71700   35.85                192   467.22795     -904.91242      11.535245     -893.37718      2468.7762      5227.1769      2.1329099      24.909354      21.815299      9.6193019      1.902114     
     71800   35.9                 192   458.88629     -904.9637       11.3293       -893.6344       7490.4991      5227.1769      2.1329099      24.909354      21.815299      9.6193019      2.5243835    
     71900   35.95                192   467.14038     -905.26323      11.533083     -893.73014      2175.1324      5227.1769      2.1329099      24.909354      21.815299      9.6193019      1.8106794    
     72000   36                   192   446.0312      -904.76819      11.011925     -893.75626      9024.0179      5227.1769      2.1329099      24.909354      21.815299      9.6193019      2.5793113    
     72100   36.05                192   429.13065     -904.15954      10.594673     -893.56487      5642.8823      5227.1769      2.1329099      24.909354      21.815299      9.6193019      2.4668999    
     72200   36.1                 192   486.46777     -905.14837      12.010251     -893.13811      7899.0612      5227.1769      2.1329099      24.909354      21.815299      9.6193019      2.621242     
     72300   36.15                192   462.98758     -904.29139      11.430556     -892.86083      3995.0561      5227.1769      2.1329099      24.909354      21.815299      9.6193019      3.5373362    
     72400   36.2                 192   466.23308     -904.1174       11.510683     -892.60672      8631.5755      5227.1769      2.1329099      24.909354      21.815299      9.6193019      2.6828896    
     72500   36.25                192   463.48982     -903.83677      11.442955     -892.39381      4767.4322      5227.1769      2.1329099      24.909354      21.815299      9.6193019      2.8618696    
     72600   36.3                 192   511.45201     -904.86749      12.627079     -892.24041      8612.9551      5227.1769      2.1329099      24.909354      21.815299      9.6193019      2.468972     
     72700   36.35                192   455.5067      -903.90836      11.245863     -892.6625       3656.5511      5227.1769      2.1329099      24.909354      21.815299      9.6193019      2.271755     
     72800   36.4                 192   482.01204     -905.4594       11.900245     -893.55916      11232.966      5227.1769      2.1329099      24.909354      21.815299      9.6193019      2.5410895    
     72900   36.45                192   426.36603     -904.99756      10.526418     -894.47114      4167.9197      5227.1769      2.1329099      24.909354      21.815299      9.6193019      1.8821777    
     73000   36.5                 192   440.97456     -905.73226      10.887083     -894.84518      7474.38        5227.1769      2.1329099      24.909354      21.815299      9.6193019      2.7531899    
     73100   36.55                192   440.93757     -905.98801      10.88617      -895.10184      3162.508       5227.1769      2.1329099      24.909354      21.815299      9.6193019      2.2148098    
     73200   36.6                 192   433.43434     -906.1732       10.700925     -895.47227      8332.0476      5227.1769      2.1329099      24.909354      21.815299      9.6193019      2.4448953    
     73300   36.65                192   413.16212     -906.08269      10.200431     -895.88226      3147.0859      5227.1769      2.1329099      24.909354      21.815299      9.6193019      2.1051071    
     73400   36.7                 192   392.07798     -905.92998      9.6798907     -896.25009      9831.6798      5227.1769      2.1329099      24.909354      21.815299      9.6193019      2.09319      
     73500   36.75                192   404.41907     -906.61865      9.9845762     -896.63408      3741.9277      5227.1769      2.1329099      24.909354      21.815299      9.6193019      2.0921121    
     73600   36.8                 192   393.90748     -906.71744      9.7250588     -896.99238      7861.3024      5227.1769      2.1329099      24.909354      21.815299      9.6193019      2.3930912    
     73700   36.85                192   387.07208     -906.77256      9.5563017     -897.21626      4150.9361      5227.1769      2.1329099      24.909354      21.815299      9.6193019      1.8392483    
     73800   36.9                 192   435.78152     -907.93581      10.758874     -897.17694      7882.1617      5227.1769      2.1329099      24.909354      21.815299      9.6193019      2.1861769    
     73900   36.95                192   414.51339     -907.09872      10.233792     -896.86493      2705.7687      5227.1769      2.1329099      24.909354      21.815299      9.6193019      2.4616656    
     74000   37                   192   457.95112     -907.57177      11.306212     -896.26556      4032.3049      5227.1769      2.1329099      24.909354      21.815299      9.6193019      1.6875052    
     74100   37.05                192   418.13317     -906.14704      10.323159     -895.82388      4459.2955      5227.1769      2.1329099      24.909354      21.815299      9.6193019      2.5665147    
     74200   37.1                 192   441.31712     -906.49902      10.895541     -895.60348      6121.9404      5227.1769      2.1329099      24.909354      21.815299      9.6193019      1.9706702    
     74300   37.15                192   422.36763     -906.24654      10.427703     -895.81883      5515.7196      5227.1769      2.1329099      24.909354      21.815299      9.6193019      1.9049174    
     74400   37.2                 192   396.624       -906.18337      9.792126      -896.39125      7283.3885      5227.1769      2.1329099      24.909354      21.815299      9.6193019      2.4132107    
     74500   37.25                192   381.35447     -906.37522      9.4151414     -896.96008      1816.179       5227.1769      2.1329099      24.909354      21.815299      9.6193019      3.124923     
     74600   37.3                 192   429.76514     -907.90246      10.610337     -897.29212      6464.6259      5227.1769      2.1329099      24.909354      21.815299      9.6193019      1.6012057    
     74700   37.35                192   438.07114     -908.51227      10.815401     -897.69687      4913.7877      5227.1769      2.1329099      24.909354      21.815299      9.6193019      3.0226093    
     74800   37.4                 192   411.94823     -908.35584      10.170461     -898.18538      5466.5787      5227.1769      2.1329099      24.909354      21.815299      9.6193019      2.3963476    
     74900   37.45                192   384.93005     -907.84183      9.5034179     -898.33841      4668.3611      5227.1769      2.1329099      24.909354      21.815299      9.6193019      2.420619     
     75000   37.5                 192   386.11358     -907.78408      9.5326376     -898.25144      5502.1439      5227.1769      2.1329099      24.909354      21.815299      9.6193019      1.8330924    
     75100   37.55                192   368.77051     -907.19846      9.1044598     -898.094        6559.9073      5227.1769      2.1329099      24.909354      21.815299      9.6193019      2.721172     
     75200   37.6                 192   393.39313     -907.57807      9.7123601     -897.86571      4642.4538      5227.1769      2.1329099      24.909354      21.815299      9.6193019      2.2899213    
     75300   37.65                192   391.24674     -907.33275      9.6593687     -897.67338      3095.6486      5227.1769      2.1329099      24.909354      21.815299      9.6193019      1.8947531    
     75400   37.7                 192   407.46583     -907.54163      10.059797     -897.48183      4545.1097      5227.1769      2.1329099      24.909354      21.815299      9.6193019      1.7433239    
     75500   37.75                192   391.57007     -907.09711      9.6673513     -897.42976      5055.4321      5227.1769      2.1329099      24.909354      21.815299      9.6193019      2.6255629    
     75600   37.8                 192   386.80551     -906.97993      9.5497203     -897.43021      4384.9207      5227.1769      2.1329099      24.909354      21.815299      9.6193019      2.0291731    
     75700   37.85                192   427.60241     -907.93457      10.556942     -897.37763      5636.0249      5227.1769      2.1329099      24.909354      21.815299      9.6193019      1.7664878    
     75800   37.9                 192   403.73538     -907.7031       9.9676966     -897.7354       6658.0429      5227.1769      2.1329099      24.909354      21.815299      9.6193019      2.1295514    
     75900   37.95                192   382.26097     -907.95542      9.4375218     -898.51789      6815.6758      5227.1769      2.1329099      24.909354      21.815299      9.6193019      2.4453117    
     76000   38                   192   374.96206     -908.47441      9.2573213     -899.21709      6637.2548      5227.1769      2.1329099      24.909354      21.815299      9.6193019      1.8209409    
     76100   38.05                192   361.56181     -908.52565      8.9264867     -899.59916      4239.7773      5227.1769      2.1329099      24.909354      21.815299      9.6193019      1.6824161    
     76200   38.1                 192   364.90926     -908.70799      9.0091308     -899.69886      2864.7634      5227.1769      2.1329099      24.909354      21.815299      9.6193019      1.6794446    
     76300   38.15                192   340.52448     -908.06145      8.4071025     -899.65435      3095.9832      5227.1769      2.1329099      24.909354      21.815299      9.6193019      2.4449154    
     76400   38.2                 192   368.61704     -908.44721      9.1006711     -899.34654      7945.5386      5227.1769      2.1329099      24.909354      21.815299      9.6193019      2.1918779    
     76500   38.25                192   356.57146     -907.78105      8.8032814     -898.97777      1107.8429      5227.1769      2.1329099      24.909354      21.815299      9.6193019      2.0116908    
     76600   38.3                 192   360.74313     -907.465        8.9062745     -898.55873      5969.113       5227.1769      2.1329099      24.909354      21.815299      9.6193019      2.4391792    
     76700   38.35                192   396.18355     -907.72087      9.7812519     -897.93961      3409.1029      5227.1769      2.1329099      24.909354      21.815299      9.6193019      2.663182     
     76800   38.4                 192   421.67917     -907.88943      10.410705     -897.47873      4407.6479      5227.1769      2.1329099      24.909354      21.815299      9.6193019      2.2167655    
     76900   38.45                192   409.07253     -907.78953      10.099464     -897.69006      4710.9629      5227.1769      2.1329099      24.909354      21.815299      9.6193019      2.3746785    
     77000   38.5                 192   378.84698     -907.80432      9.3532347     -898.45108      4722.3388      5227.1769      2.1329099      24.909354      21.815299      9.6193019      2.2616869    
     77100   38.55                192   347.65077     -907.72764      8.5830413     -899.1446       4139.023       5227.1769      2.1329099      24.909354      21.815299      9.6193019      2.1513828    
     77200   38.6                 192   348.65673     -907.89494      8.6078772     -899.28706      6629.4441      5227.1769      2.1329099      24.909354      21.815299      9.6193019      1.7196666    
     77300   38.65                192   392.56982     -908.99438      9.6920337     -899.30234      5755.3617      5227.1769      2.1329099      24.909354      21.815299      9.6193019      2.1299507    
     77400   38.7                 192   347.3998      -908.14034      8.5768452     -899.5635       5645.8054      5227.1769      2.1329099      24.909354      21.815299      9.6193019      1.9251526    
     77500   38.75                192   360.44189     -908.83961      8.8988373     -899.94078      3979.8047      5227.1769      2.1329099      24.909354      21.815299      9.6193019      1.7296083    
     77600   38.8                 192   326.76728     -908.42447      8.0674554     -900.35701      5202.174       5227.1769      2.1329099      24.909354      21.815299      9.6193019      1.4744646    
     77700   38.85                192   351.50082     -909.3803       8.678094      -900.7022       3838.4044      5227.1769      2.1329099      24.909354      21.815299      9.6193019      1.611675     
     77800   38.9                 192   335.42199     -909.35625      8.2811288     -901.07512      6159.4024      5227.1769      2.1329099      24.909354      21.815299      9.6193019      1.8924518    
     77900   38.95                192   343.74217     -909.76782      8.4865432     -901.28127      6042.2255      5227.1769      2.1329099      24.909354      21.815299      9.6193019      1.8858972    
     78000   39                   192   339.67824     -909.77834      8.38621       -901.39213      4002.2869      5227.1769      2.1329099      24.909354      21.815299      9.6193019      1.5545729    
     78100   39.05                192   316.04691     -909.20026      7.8027834     -901.39747      7679.4422      5227.1769      2.1329099      24.909354      21.815299      9.6193019      2.4311992    
     78200   39.1                 192   359.60258     -909.85393      8.8781157     -900.97582      3317.1106      5227.1769      2.1329099      24.909354      21.815299      9.6193019      1.8976186    
     78300   39.15                192   341.55129     -908.64337      8.4324532     -900.21091      7446.5768      5227.1769      2.1329099      24.909354      21.815299      9.6193019      2.0753884    
     78400   39.2                 192   354.37857     -908.43954      8.7491419     -899.6904       4751.8065      5227.1769      2.1329099      24.909354      21.815299      9.6193019      1.4367811    
     78500   39.25                192   376.83054     -908.88026      9.3034516     -899.5768       4419.5914      5227.1769      2.1329099      24.909354      21.815299      9.6193019      1.8815491    
     78600   39.3                 192   330.00528     -908.05237      8.1473973     -899.90497      4544.9452      5227.1769      2.1329099      24.909354      21.815299      9.6193019      1.9157504    
     78700   39.35                192   337.48868     -908.61385      8.3321525     -900.2817       4935.9714      5227.1769      2.1329099      24.909354      21.815299      9.6193019      2.1401529    
     78800   39.4                 192   355.267       -909.41259      8.7710759     -900.64152      3579.3626      5227.1769      2.1329099      24.909354      21.815299      9.6193019      1.4522942    
     78900   39.45                192   340.73879     -909.46109      8.4123936     -901.0487       4508.3316      5227.1769      2.1329099      24.909354      21.815299      9.6193019      1.6867735    
     79000   39.5                 192   313.91924     -909.13331      7.7502541     -901.38305      3197.1857      5227.1769      2.1329099      24.909354      21.815299      9.6193019      2.1104521    
     79100   39.55                192   293.89004     -908.82509      7.2557594     -901.56933      4971.4215      5227.1769      2.1329099      24.909354      21.815299      9.6193019      1.752456     
     79200   39.6                 192   304.95319     -909.18996      7.528894      -901.66107      1933.8715      5227.1769      2.1329099      24.909354      21.815299      9.6193019      1.5219723    
     79300   39.65                192   331.54742     -910.00419      8.1854707     -901.81872      4406.3764      5227.1769      2.1329099      24.909354      21.815299      9.6193019      1.8724891    
     79400   39.7                 192   330.53637     -910.35488      8.1605092     -902.19437      3963.5533      5227.1769      2.1329099      24.909354      21.815299      9.6193019      1.9244983    
     79500   39.75                192   300.08692     -910.01844      7.4087522     -902.60969      5456.2587      5227.1769      2.1329099      24.909354      21.815299      9.6193019      1.7302676    
     79600   39.8                 192   305.74841     -910.2756       7.5485269     -902.72707      4039.088       5227.1769      2.1329099      24.909354      21.815299      9.6193019      1.7082773    
     79700   39.85                192   298.08567     -909.99336      7.3593439     -902.63402      3467.1934      5227.1769      2.1329099      24.909354      21.815299      9.6193019      1.6509895    
     79800   39.9                 192   321.69304     -910.43208      7.9421789     -902.48991      5175.7031      5227.1769      2.1329099      24.909354      21.815299      9.6193019      1.7367154    
     79900   39.95                192   334.05524     -910.71509      8.2473855     -902.4677       5087.3731      5227.1769      2.1329099      24.909354      21.815299      9.6193019      1.4990784    
     80000   40                   192   312.89185     -910.314        7.7248891     -902.58911      4666.6401      5227.1769      2.1329099      24.909354      21.815299      9.6193019      1.4333037    
Loop time of 1510.41 on 1 procs for 60000 steps with 192 atoms

Performance: 1.716 ns/day, 13.985 hours/ns, 39.724 timesteps/s, 7.627 katom-step/s
99.2% CPU use with 1 MPI tasks x 1 OpenMP threads

MPI task timing breakdown:
Section |  min time  |  avg time  |  max time  |%varavg| %total
---------------------------------------------------------------
Pair    | 1497.5     | 1497.5     | 1497.5     |   0.0 | 99.15
Neigh   | 0.22204    | 0.22204    | 0.22204    |   0.0 |  0.01
Comm    | 2.1323     | 2.1323     | 2.1323     |   0.0 |  0.14
Output  | 0.394      | 0.394      | 0.394      |   0.0 |  0.03
Modify  | 7.1463     | 7.1463     | 7.1463     |   0.0 |  0.47
Other   |            | 2.987      |            |       |  0.20

Nlocal:            192 ave         192 max         192 min
Histogram: 1 0 0 0 0 0 0 0 0 0
Nghost:           1410 ave        1410 max        1410 min
Histogram: 1 0 0 0 0 0 0 0 0 0
Neighs:              0 ave           0 max           0 min
Histogram: 1 0 0 0 0 0 0 0 0 0
FullNghs:        14948 ave       14948 max       14948 min
Histogram: 1 0 0 0 0 0 0 0 0 0

Total # of neighbors = 14948
Ave neighs/atom = 77.854167
Neighbor list builds = 863
Dangerous builds = 0
System init for write_data ...
Setting up Verlet run ...
  Unit style    : metal
  Current step  : 80000
  Time step     : 0.0005
Per MPI rank memory allocation (min/avg/max) = 48.9 | 48.9 | 48.9 Mbytes
   Step          Time         Atoms         Temp          PotEng         KinEng         TotEng         Press          Volume        Density           Lx             Ly             Lz            Fmax     
     80000   40                   192   312.89185     -910.314        7.7248891     -902.58911      4666.6401      5227.1769      2.1329099      24.909354      21.815299      9.6193019      1.4333037    
     80100   40.05                192   294.40842     -909.82892      7.2685575     -902.56036      5718.7496      5227.1769      2.1329099      24.909354      21.815299      9.6193019      1.5899928    
     80200   40.1                 192   307.64842     -909.94285      7.5954358     -902.34741      4690.263       5227.1769      2.1329099      24.909354      21.815299      9.6193019      2.3555584    
     80300   40.15                192   300.31283     -909.45859      7.4143296     -902.04426      6024.4822      5227.1769      2.1329099      24.909354      21.815299      9.6193019      1.5418532    
     80400   40.2                 192   321.51728     -909.63607      7.9378397     -901.69823      4982.8447      5227.1769      2.1329099      24.909354      21.815299      9.6193019      2.0335133    
     80500   40.25                192   323.33551     -909.5404       7.9827294     -901.55767      3628.7119      5227.1769      2.1329099      24.909354      21.815299      9.6193019      1.6995317    
     80600   40.3                 192   332.80954     -910.00916      8.2166307     -901.79253      3189.7214      5227.1769      2.1329099      24.909354      21.815299      9.6193019      1.5629371    
     80700   40.35                192   300.44148     -909.79863      7.4175058     -902.38112      2855.0607      5227.1769      2.1329099      24.909354      21.815299      9.6193019      1.4070963    
     80800   40.4                 192   301.40332     -910.32559      7.4412523     -902.88434      4888.087       5227.1769      2.1329099      24.909354      21.815299      9.6193019      1.5793804    
     80900   40.45                192   274.78375     -909.96473      6.7840503     -903.18068      3267.4872      5227.1769      2.1329099      24.909354      21.815299      9.6193019      1.6461661    
     81000   40.5                 192   278.94951     -910.07283      6.8868972     -903.18593      4056.1514      5227.1769      2.1329099      24.909354      21.815299      9.6193019      1.8485953    
     81100   40.55                192   300.53078     -910.4483       7.4197105     -903.02859      3422.1651      5227.1769      2.1329099      24.909354      21.815299      9.6193019      2.1401334    
     81200   40.6                 192   291.66213     -910.06033      7.2007552     -902.85957      4690.5592      5227.1769      2.1329099      24.909354      21.815299      9.6193019      1.5492891    
     81300   40.65                192   321.08045     -910.46398      7.927055      -902.53692      6129.1367      5227.1769      2.1329099      24.909354      21.815299      9.6193019      1.5711796    
     81400   40.7                 192   301.46061     -909.7038       7.4426669     -902.26113      7869.9691      5227.1769      2.1329099      24.909354      21.815299      9.6193019      2.5010314    
     81500   40.75                192   295.26887     -909.21233      7.2898009     -901.92253      6259.7891      5227.1769      2.1329099      24.909354      21.815299      9.6193019      1.6906258    
     81600   40.8                 192   352.49963     -910.05474      8.7027533     -901.35199      8565.3354      5227.1769      2.1329099      24.909354      21.815299      9.6193019      1.9993178    
     81700   40.85                192   347.7592      -909.93028      8.5857182     -901.34456      3011.3302      5227.1769      2.1329099      24.909354      21.815299      9.6193019      1.9502396    
     81800   40.9                 192   304.73531     -909.42663      7.523515      -901.90312      6459.4498      5227.1769      2.1329099      24.909354      21.815299      9.6193019      2.2362322    
     81900   40.95                192   314.68257     -910.20771      7.7690996     -902.43861      1765.563       5227.1769      2.1329099      24.909354      21.815299      9.6193019      1.5624862    
     82000   41                   192   278.60544     -909.67515      6.8784027     -902.79674      4836.4679      5227.1769      2.1329099      24.909354      21.815299      9.6193019      2.337632     
     82100   41.05                192   299.25446     -910.27519      7.3881999     -902.88699      2175.4528      5227.1769      2.1329099      24.909354      21.815299      9.6193019      2.0336621    
     82200   41.1                 192   296.43484     -910.3208       7.3185871     -903.00221      5838.1127      5227.1769      2.1329099      24.909354      21.815299      9.6193019      1.4929714    
     82300   41.15                192   294.92243     -910.44424      7.2812477     -903.16299      4774.4808      5227.1769      2.1329099      24.909354      21.815299      9.6193019      2.1440473    
     82400   41.2                 192   310.41806     -910.80784      7.6638146     -903.14402      5427.5712      5227.1769      2.1329099      24.909354      21.815299      9.6193019      1.8123574    
     82500   41.25                192   296.95042     -910.35155      7.3313161     -903.02023      5016.2854      5227.1769      2.1329099      24.909354      21.815299      9.6193019      2.2325194    
     82600   41.3                 192   312.20624     -910.60407      7.7079622     -902.89611      6863.919       5227.1769      2.1329099      24.909354      21.815299      9.6193019      2.09193      
     82700   41.35                192   304.58004     -910.36267      7.5196814     -902.84299      6554.0528      5227.1769      2.1329099      24.909354      21.815299      9.6193019      1.7363896    
     82800   41.4                 192   334.47872     -911.08559      8.2578407     -902.82775      5694.2499      5227.1769      2.1329099      24.909354      21.815299      9.6193019      1.9199241    
     82900   41.45                192   302.43326     -910.53906      7.4666804     -903.07238      3496.6152      5227.1769      2.1329099      24.909354      21.815299      9.6193019      1.7105033    
     83000   41.5                 192   305.65579     -911.03541      7.5462402     -903.48917      4540.1294      5227.1769      2.1329099      24.909354      21.815299      9.6193019      1.9653931    
     83100   41.55                192   308.42606     -911.59421      7.6146347     -903.97957      3528.2651      5227.1769      2.1329099      24.909354      21.815299      9.6193019      1.5347487    
     83200   41.6                 192   275.54795     -911.11341      6.8029173     -904.31049      4971.2669      5227.1769      2.1329099      24.909354      21.815299      9.6193019      1.4631934    
     83300   41.65                192   279.93936     -911.21413      6.9113354     -904.3028       6614.8408      5227.1769      2.1329099      24.909354      21.815299      9.6193019      1.6796409    
     83400   41.7                 192   265.34182     -910.55104      6.5509414     -904.0001       4028.0387      5227.1769      2.1329099      24.909354      21.815299      9.6193019      1.7881502    
     83500   41.75                192   267.1172      -910.08631      6.594773      -903.49154      7965.0169      5227.1769      2.1329099      24.909354      21.815299      9.6193019      1.7402344    
     83600   41.8                 192   298.00838     -910.48707      7.3574359     -903.12963      5061.3424      5227.1769      2.1329099      24.909354      21.815299      9.6193019      1.5818017    
     83700   41.85                192   304.73538     -910.47995      7.5235167     -902.95643      5623.4952      5227.1769      2.1329099      24.909354      21.815299      9.6193019      1.6356782    
     83800   41.9                 192   324.57003     -910.82757      8.0132081     -902.81436      6754.6291      5227.1769      2.1329099      24.909354      21.815299      9.6193019      2.1799067    
     83900   41.95                192   289.78407     -909.96726      7.1543884     -902.81287      6952.6755      5227.1769      2.1329099      24.909354      21.815299      9.6193019      1.850448     
     84000   42                   192   312.18897     -910.49185      7.7075359     -902.78432      7197.2467      5227.1769      2.1329099      24.909354      21.815299      9.6193019      1.4275316    
     84100   42.05                192   310.39243     -910.4699       7.6631818     -902.80672      5211.1387      5227.1769      2.1329099      24.909354      21.815299      9.6193019      1.6090676    
     84200   42.1                 192   296.33577     -910.22703      7.3161413     -902.91089      5167.2312      5227.1769      2.1329099      24.909354      21.815299      9.6193019      1.8711621    
     84300   42.15                192   294.5311      -910.48043      7.2715863     -903.20884      4569.7918      5227.1769      2.1329099      24.909354      21.815299      9.6193019      1.938857     
     84400   42.2                 192   294.70145     -910.96937      7.2757921     -903.69358      3572.7018      5227.1769      2.1329099      24.909354      21.815299      9.6193019      1.928236     
     84500   42.25                192   277.10585     -910.92709      6.8413798     -904.08571      5371.0638      5227.1769      2.1329099      24.909354      21.815299      9.6193019      1.5708396    
     84600   42.3                 192   271.87665     -910.88289      6.7122777     -904.17061      3855.9952      5227.1769      2.1329099      24.909354      21.815299      9.6193019      2.2202971    
     84700   42.35                192   280.37933     -910.84506      6.9221977     -903.92287      7911.7613      5227.1769      2.1329099      24.909354      21.815299      9.6193019      2.2195144    
     84800   42.4                 192   288.36438     -910.56468      7.1193381     -903.44534      5079.9858      5227.1769      2.1329099      24.909354      21.815299      9.6193019      1.5936927    
     84900   42.45                192   345.2632      -911.60833      8.5240952     -903.08424      4894.7447      5227.1769      2.1329099      24.909354      21.815299      9.6193019      2.7474555    
     85000   42.5                 192   298.17953     -910.46786      7.3616613     -903.1062       6423.323       5227.1769      2.1329099      24.909354      21.815299      9.6193019      1.3409962    
     85100   42.55                192   300.95959     -910.51017      7.4302974     -903.07987      3829.6562      5227.1769      2.1329099      24.909354      21.815299      9.6193019      1.440186     
     85200   42.6                 192   292.20943     -910.23468      7.2142674     -903.02041      6852.7049      5227.1769      2.1329099      24.909354      21.815299      9.6193019      2.1242164    
     85300   42.65                192   303.85066     -910.4471       7.5016741     -902.94542      6414.3942      5227.1769      2.1329099      24.909354      21.815299      9.6193019      1.8844332    
     85400   42.7                 192   282.01727     -909.77709      6.9626363     -902.81445      5699.4098      5227.1769      2.1329099      24.909354      21.815299      9.6193019      1.8076818    
     85500   42.75                192   310.39016     -910.11852      7.6631257     -902.45539      5857.0133      5227.1769      2.1329099      24.909354      21.815299      9.6193019      2.3874931    
     85600   42.8                 192   324.60278     -910.00266      8.0140166     -901.98865      3723.2897      5227.1769      2.1329099      24.909354      21.815299      9.6193019      1.7266686    
     85700   42.85                192   333.31501     -909.76822      8.2291102     -901.53911      4493.4201      5227.1769      2.1329099      24.909354      21.815299      9.6193019      1.3578536    
     85800   42.9                 192   337.99217     -909.41987      8.3445831     -901.07529      4554.4795      5227.1769      2.1329099      24.909354      21.815299      9.6193019      1.848982     
     85900   42.95                192   350.19636     -909.52616      8.6458886     -900.88027      5119.0166      5227.1769      2.1329099      24.909354      21.815299      9.6193019      1.7552922    
     86000   43                   192   331.14954     -909.54016      8.1756476     -901.36451      7017.9845      5227.1769      2.1329099      24.909354      21.815299      9.6193019      1.5561574    
     86100   43.05                192   295.64824     -909.60667      7.299167      -902.3075       5150.2203      5227.1769      2.1329099      24.909354      21.815299      9.6193019      1.8534663    
     86200   43.1                 192   295.69958     -910.00129      7.3004346     -902.70086      7155.6369      5227.1769      2.1329099      24.909354      21.815299      9.6193019      2.3580936    
     86300   43.15                192   289.89988     -910.08233      7.1572477     -902.92508      5057.3006      5227.1769      2.1329099      24.909354      21.815299      9.6193019      1.3004266    
     86400   43.2                 192   283.68072     -910.10339      7.0037047     -903.09969      4609.7132      5227.1769      2.1329099      24.909354      21.815299      9.6193019      2.39172      
     86500   43.25                192   275.67728     -910.04612      6.8061102     -903.24001      5590.8978      5227.1769      2.1329099      24.909354      21.815299      9.6193019      1.5555495    
     86600   43.3                 192   277.63113     -910.05991      6.8543483     -903.20556      2356.0065      5227.1769      2.1329099      24.909354      21.815299      9.6193019      1.6669698    
     86700   43.35                192   309.19828     -910.55197      7.6336997     -902.91827      6129.0997      5227.1769      2.1329099      24.909354      21.815299      9.6193019      1.5650604    
     86800   43.4                 192   312.90112     -910.32713      7.7251181     -902.60201      4077.1071      5227.1769      2.1329099      24.909354      21.815299      9.6193019      2.4230719    
     86900   43.45                192   295.77599     -909.72963      7.3023211     -902.4273       9004.4345      5227.1769      2.1329099      24.909354      21.815299      9.6193019      2.406568     
     87000   43.5                 192   311.17036     -910.04603      7.6823878     -902.36365      4967.9944      5227.1769      2.1329099      24.909354      21.815299      9.6193019      1.6594798    
     87100   43.55                192   322.47482     -910.40204      7.9614802     -902.44056      7882.7041      5227.1769      2.1329099      24.909354      21.815299      9.6193019      1.9083994    
     87200   43.6                 192   316.53948     -910.54886      7.8149443     -902.73392      7162.1539      5227.1769      2.1329099      24.909354      21.815299      9.6193019      1.573821     
     87300   43.65                192   301.55684     -910.69851      7.4450426     -903.25347      8968.3116      5227.1769      2.1329099      24.909354      21.815299      9.6193019      1.6249227    
     87400   43.7                 192   297.4211      -910.98698      7.3429365     -903.64404      3908.9677      5227.1769      2.1329099      24.909354      21.815299      9.6193019      1.4068661    
     87500   43.75                192   316.40689     -911.6933       7.8116709     -903.88163      6978.6306      5227.1769      2.1329099      24.909354      21.815299      9.6193019      1.5899282    
     87600   43.8                 192   283.72338     -911.11371      7.004758      -904.10896      5796.0269      5227.1769      2.1329099      24.909354      21.815299      9.6193019      1.9792109    
     87700   43.85                192   285.05881     -911.24434      7.037728      -904.20661      3579.4073      5227.1769      2.1329099      24.909354      21.815299      9.6193019      1.7163804    
     87800   43.9                 192   276.20369     -910.90856      6.8191068     -904.08946      3265.7755      5227.1769      2.1329099      24.909354      21.815299      9.6193019      1.4833726    
     87900   43.95                192   286.79024     -910.60482      7.0804746     -903.52435      6804.291       5227.1769      2.1329099      24.909354      21.815299      9.6193019      1.7975324    
     88000   44                   192   297.31206     -910.14851      7.3402447     -902.80827      4771.3076      5227.1769      2.1329099      24.909354      21.815299      9.6193019      1.7506397    
     88100   44.05                192   311.6941      -910.2386       7.6953182     -902.54328      5896.0942      5227.1769      2.1329099      24.909354      21.815299      9.6193019      1.5739288    
     88200   44.1                 192   287.43427     -909.75799      7.0963749     -902.66162      8955.8049      5227.1769      2.1329099      24.909354      21.815299      9.6193019      2.0202766    
     88300   44.15                192   301.8204      -910.28512      7.4515495     -902.83357      5818.9818      5227.1769      2.1329099      24.909354      21.815299      9.6193019      1.6330319    
     88400   44.2                 192   281.46939     -910.02807      6.94911       -903.07896      5713.0152      5227.1769      2.1329099      24.909354      21.815299      9.6193019      1.5655935    
     88500   44.25                192   308.66291     -910.87041      7.6204822     -903.24993      6169.7124      5227.1769      2.1329099      24.909354      21.815299      9.6193019      1.5404638    
     88600   44.3                 192   278.68941     -910.33739      6.8804759     -903.45691      5901.2311      5227.1769      2.1329099      24.909354      21.815299      9.6193019      1.3291674    
     88700   44.35                192   305.85918     -911.20274      7.5512617     -903.65147      8242.3795      5227.1769      2.1329099      24.909354      21.815299      9.6193019      1.4069403    
     88800   44.4                 192   297.47478     -911.39024      7.3442618     -904.04598      3458.29        5227.1769      2.1329099      24.909354      21.815299      9.6193019      1.0962564    
     88900   44.45                192   308.32713     -912.10555      7.6121923     -904.49336      9021.5609      5227.1769      2.1329099      24.909354      21.815299      9.6193019      1.4541597    
     89000   44.5                 192   264.30706     -911.40869      6.5253944     -904.8833       5671.0633      5227.1769      2.1329099      24.909354      21.815299      9.6193019      2.4289362    
     89100   44.55                192   283.35261     -911.90802      6.9956041     -904.91242      5766.59        5227.1769      2.1329099      24.909354      21.815299      9.6193019      2.6265542    
     89200   44.6                 192   294.35748     -911.88378      7.2672999     -904.61648      6172.6466      5227.1769      2.1329099      24.909354      21.815299      9.6193019      1.7175883    
     89300   44.65                192   272.64106     -910.74514      6.7311499     -904.01399      4875.5273      5227.1769      2.1329099      24.909354      21.815299      9.6193019      1.9257511    
     89400   44.7                 192   300.77041     -910.8514       7.4256268     -903.42577      8396.4651      5227.1769      2.1329099      24.909354      21.815299      9.6193019      1.7118275    
     89500   44.75                192   299.25892     -910.63702      7.38831       -903.24871      6693.9305      5227.1769      2.1329099      24.909354      21.815299      9.6193019      2.2977302    
     89600   44.8                 192   317.84681     -910.9768       7.8472206     -903.12957      7894.0484      5227.1769      2.1329099      24.909354      21.815299      9.6193019      2.3110742    
     89700   44.85                192   305.19599     -910.59274      7.5348884     -903.05785      6710.3749      5227.1769      2.1329099      24.909354      21.815299      9.6193019      1.6136654    
     89800   44.9                 192   305.36266     -910.49526      7.5390033     -902.95626      7973.2021      5227.1769      2.1329099      24.909354      21.815299      9.6193019      1.6504333    
     89900   44.95                192   336.13841     -911.20221      8.2988163     -902.90339      5543.6662      5227.1769      2.1329099      24.909354      21.815299      9.6193019      1.271231     
     90000   45                   192   314.74084     -910.78173      7.7705384     -903.01119      8201.3408      5227.1769      2.1329099      24.909354      21.815299      9.6193019      1.3448269    
Loop time of 258.158 on 1 procs for 10000 steps with 192 atoms

Performance: 1.673 ns/day, 14.342 hours/ns, 38.736 timesteps/s, 7.437 katom-step/s
99.1% CPU use with 1 MPI tasks x 1 OpenMP threads

MPI task timing breakdown:
Section |  min time  |  avg time  |  max time  |%varavg| %total
---------------------------------------------------------------
Pair    | 255.99     | 255.99     | 255.99     |   0.0 | 99.16
Neigh   | 0.016809   | 0.016809   | 0.016809   |   0.0 |  0.01
Comm    | 0.3428     | 0.3428     | 0.3428     |   0.0 |  0.13
Output  | 0.06207    | 0.06207    | 0.06207    |   0.0 |  0.02
Modify  | 1.2468     | 1.2468     | 1.2468     |   0.0 |  0.48
Other   |            | 0.4991     |            |       |  0.19

Nlocal:            192 ave         192 max         192 min
Histogram: 1 0 0 0 0 0 0 0 0 0
Nghost:           1361 ave        1361 max        1361 min
Histogram: 1 0 0 0 0 0 0 0 0 0
Neighs:              0 ave           0 max           0 min
Histogram: 1 0 0 0 0 0 0 0 0 0
FullNghs:        14940 ave       14940 max       14940 min
Histogram: 1 0 0 0 0 0 0 0 0 0

Total # of neighbors = 14940
Ave neighs/atom = 77.8125
Neighbor list builds = 65
Dangerous builds = 0
System init for write_data ...
Setting up Verlet run ...
  Unit style    : metal
  Current step  : 90000
  Time step     : 0.0005
Per MPI rank memory allocation (min/avg/max) = 48.63 | 48.63 | 48.63 Mbytes
   Step          Time         Atoms         Temp          PotEng         KinEng         TotEng         Press          Volume        Density           Lx             Ly             Lz            Fmax     
     90000   45                   192   314.74084     -910.78173      7.7705384     -903.01119      8201.3408      5227.1769      2.1329099      24.909354      21.815299      9.6193019      1.3448269    
     90100   45.05                192   289.37652     -910.35491      7.1443266     -903.21059      684.47328      5303.3714      2.102266       25.029802      21.920786      9.6658156      1.2642451    
     90200   45.1                 192   300.03032     -910.61621      7.4073549     -903.20885     -286.90046      5420.4662      2.0568521      25.212676      22.080945      9.7364365      1.8892503    
     90300   45.15                192   303.70789     -910.52479      7.4981493     -903.02664     -307.44599      5536.6008      2.013708       25.391468      22.237528      9.8054808      2.1916598    
     90400   45.2                 192   319.87112     -910.34831      7.8971982     -902.45111     -682.81159      5632.1295      1.9795527      25.536671      22.364695      9.8615542      1.8270577    
     90500   45.25                192   304.18597     -909.53239      7.5099525     -902.02243     -1594.4808      5685.3847      1.9610102      25.616907      22.434965      9.8925391      2.143595     
     90600   45.3                 192   349.85658     -910.41057      8.6374997     -901.77307     -167.54045      5702.214       1.9552226      25.642158      22.45708       9.9022904      2.2508206    
     90700   45.35                192   342.03778     -910.54892      8.4444639     -902.10445      741.07736      5723.8149      1.9478438      25.674496      22.485401      9.9147785      1.7502765    
     90800   45.4                 192   319.39134     -910.80362      7.8853531     -902.91827      522.65156      5751.5549      1.9384493      25.715906      22.521667      9.9307698      1.9039473    
     90900   45.45                192   311.50611     -911.14651      7.690677      -903.45583      28.741972      5784.2337      1.9274977      25.764517      22.564241      9.9495422      1.6288291    
     91000   45.5                 192   303.97124     -911.18009      7.5046511     -903.67544     -507.34772      5824.5457      1.9141574      25.824232      22.616538      9.9726025      1.87957      
     91100   45.55                192   293.94749     -911.14871      7.2571777     -903.89153     -253.34878      5868.9779      1.8996659      25.889732      22.673902      9.9978968      1.6851784    
     91200   45.6                 192   280.00542     -910.93889      6.9129664     -904.02592     -1660.7937      5895.8033      1.8910226      25.929117      22.708395      10.013106      1.6886599    
     91300   45.65                192   260.96235     -910.48607      6.442818      -904.04325     -1077.7951      5880.8731      1.8958235      25.907211      22.68921       10.004647      1.3928351    
     91400   45.7                 192   300.78371     -911.16209      7.4259551     -903.73614      1842.059       5838.8123      1.9094804      25.8453        22.634989      9.9807381      2.2558321    
     91500   45.75                192   305.8146      -910.82285      7.5501612     -903.27269      461.9527       5826.8267      1.9134081      25.827603      22.61949       9.9739042      2.2236426    
     91600   45.8                 192   284.21645     -909.97566      7.0169312     -902.95873      1221.3596      5833.7268      1.911145       25.837794      22.628415      9.9778396      2.358498     
     91700   45.85                192   333.02984     -910.87128      8.2220698     -902.64921     -1051.6475      5859.5169      1.9027332      25.875813      22.661712      9.9925216      1.9366104    
     91800   45.9                 192   340.14261     -910.97382      8.3976748     -902.57615     -173.85906      5885.8522      1.8942197      25.914521      22.695612      10.007469      1.7799981    
     91900   45.95                192   321.7232      -910.74356      7.9429235     -902.80064     -382.78857      5896.5247      1.8907913      25.930174      22.709321      10.013514      1.7809164    
     92000   46                   192   324.85856     -911.24946      8.0203314     -903.22913      912.47629      5905.1995      1.8880137      25.942884      22.720452      10.018423      1.9302125    
     92100   46.05                192   295.4642      -910.78749      7.2946234     -903.49286     -786.96657      5929.0416      1.8804215      25.977752      22.750989      10.031888      1.5925342    
     92200   46.1                 192   303.27243     -911.0614       7.4873984     -903.574       -1014.6872      5930.4471      1.8799759      25.979804      22.752786      10.03268       1.4982949    
     92300   46.15                192   305.18195     -911.18498      7.5345418     -903.65044      2112.0157      5914.4787      1.8850516      25.956466      22.732347      10.023667      1.6799163    
     92400   46.2                 192   280.55878     -910.61154      6.9266281     -903.68491     -1413.8286      5919.4325      1.883474       25.96371       22.738692      10.026465      1.7989993    
     92500   46.25                192   301.86239     -911.05227      7.4525862     -903.59969      759.65344      5897.2885      1.8905464      25.931294      22.710302      10.013947      1.6270664    
     92600   46.3                 192   323.96234     -911.51603      7.998205      -903.51783     -618.50904      5901.1392      1.8893127      25.936937      22.715244      10.016126      2.165854     
     92700   46.35                192   297.86368     -910.8774       7.3538635     -903.52353      225.99885      5909.2793      1.8867102      25.948857      22.725683      10.020729      1.668938     
     92800   46.4                 192   294.85124     -910.83642      7.2794901     -903.55693     -1952.8388      5916.7143      1.8843393      25.959736      22.73521       10.02493       1.8003111    
     92900   46.45                192   284.92432     -910.52086      7.0344076     -903.48645      68.627897      5890.035       1.8928746      25.920658      22.700987      10.00984       2.0890864    
     93000   46.5                 192   326.42413     -911.15012      8.0589834     -903.09114     -932.57055      5867.7048      1.9000781      25.88786       22.672263      9.9971738      1.6261204    
     93100   46.55                192   304.64255     -910.27163      7.5212249     -902.7504       703.56618      5837.3204      1.9099684      25.843098      22.633061      9.979888       1.4827451    
     93200   46.6                 192   323.04593     -910.42781      7.9755801     -902.45223     -1330.1653      5802.41        1.9214598      25.791476      22.587851      9.9599531      1.3475544    
     93300   46.65                192   327.74028     -910.59469      8.0914775     -902.50321      2579.5953      5754.1914      1.9375611      25.719834      22.525108      9.9322869      1.6384193    
     93400   46.7                 192   300.74314     -910.5538       7.4249536     -903.12884     -401.21976      5743.1378      1.9412903      25.703355      22.510675      9.925923       1.860078     
     93500   46.75                192   322.12774     -911.5597       7.9529112     -903.60679      3797.627       5721.2118      1.9487301      25.670603      22.481992      9.9132752      2.2872607    
     93600   46.8                 192   281.09831     -910.77931      6.9399484     -903.83936     -1471.628       5739.4348      1.9425427      25.697829      22.505836      9.9237892      2.9292498    
     93700   46.85                192   289.45385     -911.04596      7.1462356     -903.89972      2657.8106      5747.1229      1.9399441      25.709299      22.515881      9.9282183      2.0233157    
     93800   46.9                 192   324.84569     -911.86596      8.0200137     -903.84595     -2140.6277      5773.7974      1.9309818      25.749013      22.550662      9.9435547      1.9238675    
     93900   46.95                192   316.67059     -911.74487      7.8181813     -903.92669     -334.16307      5760.359       1.9354866      25.72902       22.533153      9.9358343      1.5671794    
     94000   47                   192   276.69493     -911.0258       6.8312347     -904.19457      255.31313      5742.453       1.9415218      25.702333      22.509781      9.9255285      2.1370477    
     94100   47.05                192   272.33134     -911.08704      6.7235033     -904.36353     -776.13104      5736.4752      1.9435449      25.693412      22.501967      9.9220832      1.7419107    
     94200   47.1                 192   300.56689     -911.81491      7.420602      -904.39431      2128.4541      5742.211       1.9416036      25.701972      22.509464      9.9253891      2.3342984    
     94300   47.15                192   279.3638      -911.32125      6.8971256     -904.42412     -1303.4958      5785.8328      1.926965       25.766891      22.56632       9.9504591      2.0432146    
     94400   47.2                 192   297.764       -911.55457      7.3514023     -904.20316      2337.8413      5827.7111      1.9131177      25.828909      22.620634      9.9744087      2.3855775    
     94500   47.25                192   300.91669     -911.29695      7.4292381     -903.86771     -3012.0348      5918.0997      1.8838982      25.961762      22.736985      10.025713      2.6219139    
     94600   47.3                 192   316.60856     -911.26945      7.81665       -903.4528       207.58288      5944.8882      1.8754091      26.000875      22.77124       10.040817      3.0514706    
     94700   47.35                192   306.35079     -910.80306      7.563399      -903.23966     -2099.1131      5944.6272      1.8754914      26.000494      22.770906      10.04067       1.8607889    
     94800   47.4                 192   309.10632     -910.79252      7.6314295     -903.16109      1400.6696      5898.1011      1.8902859      25.932485      22.711345      10.014407      2.0842287    
     94900   47.45                192   306.7056      -910.70061      7.5721588     -903.12845     -1738.4373      5852.216       1.905107       25.865061      22.652296      9.9883696      1.826214     
     95000   47.5                 192   294.23894     -910.54602      7.2643733     -903.28165      3196.1162      5778.1036      1.9295427      25.755412      22.556267      9.9460262      2.3467525    
     95100   47.55                192   293.69266     -910.79334      7.2508863     -903.54246     -834.57591      5744.4433      1.9408491      25.705302      22.512381      9.9266751      1.7103148    
     95200   47.6                 192   284.11265     -910.9585       7.0143685     -903.94413      4592.0631      5722.7136      1.9482187      25.672849      22.483959      9.9141426      1.994636     
     95300   47.65                192   287.35694     -911.41192      7.0944657     -904.31746     -2865.6392      5794.8583      1.9239638      25.780283      22.578048      9.9556304      1.759602     
     95400   47.7                 192   300.90286     -911.84558      7.4288966     -904.41668      456.85295      5820.8251      1.9153809      25.818732      22.611721      9.9704786      2.0495583    
     95500   47.75                192   298.96257     -911.87289      7.3809935     -904.49189     -2598.6164      5825.2936      1.9139117      25.825337      22.617506      9.9730293      1.8019628    
     95600   47.8                 192   299.30612     -911.82836      7.3894753     -904.43889      913.75299      5784.6845      1.9273475      25.765186      22.564827      9.9498007      1.833398     
     95700   47.85                192   305.65177     -911.66573      7.5461411     -904.11959     -609.16264      5773.4084      1.9311119      25.748434      22.550155      9.9433314      2.4623796    
     95800   47.9                 192   294.89943     -910.94115      7.2806799     -903.66047      163.29227      5766.5749      1.9334003      25.738271      22.541255      9.9394069      1.8976049    
     95900   47.95                192   306.2406      -910.72691      7.5606785     -903.16623      1282.5395      5761.2646      1.9351823      25.730369      22.534334      9.936355       2.2574421    
     96000   48                   192   318.56352     -910.7591       7.8649153     -902.89418      182.11292      5786.8481      1.9266269      25.768398      22.56764       9.951041       1.6079649    
     96100   48.05                192   316.51936     -910.78125      7.8144476     -902.96681      1090.8503      5822.0557      1.9149761      25.820552      22.613315      9.9711812      2.5931175    
     96200   48.1                 192   298.91486     -910.62929      7.3798157     -903.24948     -2748.5381      5870.4758      1.8991812      25.891935      22.675831      9.9987473      1.8927226    
     96300   48.15                192   321.45583     -911.57383      7.9363225     -903.6375       40.490389      5862.1468      1.9018796      25.879684      22.665102      9.9940163      1.5456692    
     96400   48.2                 192   304.91117     -911.71124      7.5278566     -904.18338     -834.5638       5837.7603      1.9098245      25.843747      22.633629      9.9801387      1.7704609    
     96500   48.25                192   298.43461     -911.81606      7.3679588     -904.4481       1911.0087      5801.8927      1.9216311      25.79071       22.58718       9.9596571      1.6681355    
     96600   48.3                 192   290.76119     -911.62671      7.1785122     -904.44819     -1728.7327      5801.2282      1.9218512      25.789725      22.586317      9.9592769      1.5672596    
     96700   48.35                192   275.23493     -911.15655      6.7951892     -904.36136      2278.8665      5775.4878      1.9304166      25.751525      22.552862      9.9445251      1.7477231    
     96800   48.4                 192   304.81174     -911.73686      7.525402      -904.21145      834.29133      5784.9716      1.9272519      25.765613      22.5652        9.9499653      2.199954     
     96900   48.45                192   318.00129     -912.02397      7.8510345     -904.17293      413.0766       5819.3778      1.9158573      25.816592      22.609847      9.9696522      1.9201777    
     97000   48.5                 192   293.29881     -911.53         7.2411628     -904.28884     -1316.8456      5860.063       1.9025559      25.876617      22.662416      9.992832       2.0443615    
     97100   48.55                192   282.38801     -911.49625      6.9717895     -904.52446     -143.37322      5867.8164      1.900042       25.888024      22.672406      9.9972372      1.8070075    
     97200   48.6                 192   281.94773     -911.75174      6.9609194     -904.79082     -281.12702      5874.7463      1.8978007      25.898211      22.681328      10.001171      2.6614741    
     97300   48.65                192   259.51194     -911.42536      6.4070092     -905.01836      1298.5696      5884.4413      1.8946739      25.91245       22.693798      10.00667       2.3052937    
     97400   48.7                 192   293.00922     -912.18543      7.2340131     -904.95141     -2343.9608      5935.0095      1.8785307      25.986465      22.75862       10.035252      1.993585     
     97500   48.75                192   293.49591     -911.73933      7.2460288     -904.4933      -123.55929      5967.233       1.8683865      26.03341       22.799734      10.053381      2.5690457    
     97600   48.8                 192   300.24531     -911.28622      7.4126627     -903.87356     -2367.6692      5985.5208      1.8626779      26.059978      22.823002      10.063641      1.8702941    
     97700   48.85                192   302.37603     -910.94475      7.4652673     -903.47948      1504.6035      5960.7621      1.8704148      26.023997      22.791489      10.049746      2.4558481    
     97800   48.9                 192   281.50658     -910.23799      6.9500282     -903.28796     -3161.9893      5940.9703      1.8766459      25.995162      22.766236      10.038611      2.1075635    
     97900   48.95                192   302.38616     -910.523        7.4655174     -903.05749     -420.20134      5873.9468      1.898059       25.897037      22.680299      10.000718      2.4191714    
     98000   49                   192   325.21128     -910.94997      8.0290398     -902.92093      1310.9545      5790.8856      1.9252837      25.77439       22.572887      9.9533548      2.8107632    
     98100   49.05                192   309.56104     -910.63609      7.6426557     -902.99344      2745.5855      5746.6216      1.9401134      25.708551      22.515226      9.9279296      1.6553195    
     98200   49.1                 192   312.74482     -911.21405      7.7212592     -903.49279      156.31274      5757.7298      1.9363704      25.725105      22.529724      9.9343224      2.4874189    
     98300   49.15                192   288.07744     -911.15492      7.1122539     -904.04266      3771.9933      5794.1621      1.9241949      25.77925       22.577143      9.9552317      1.8858088    
     98400   49.2                 192   315.24231     -911.84763      7.782919      -904.06471     -4447.4816      5871.5339      1.898839       25.89349       22.677193      9.9993479      1.517921     
     98500   49.25                192   286.24792     -911.27788      7.0670855     -904.2108       2742.0963      5859.7958      1.9026426      25.876223      22.662072      9.9926801      1.9483771    
     98600   49.3                 192   281.06629     -911.13375      6.9391578     -904.19459     -2058.5115      5892.6814      1.8920245      25.92454       22.704386      10.011338      1.768616     
     98700   49.35                192   290.78269     -911.16357      7.1790431     -903.98452      2196.266       5901.7324      1.8891228      25.937806      22.716005      10.016462      1.7133775    
     98800   49.4                 192   288.6259      -910.78744      7.1257947     -903.66165     -2895.9238      5938.4153      1.8774533      25.991435      22.762972      10.037172      1.7458135    
     98900   49.45                192   309.34067     -910.99539      7.6372152     -903.35817     -47.421962      5916.4131      1.8844353      25.959295      22.734825      10.02476       1.7493537    
     99000   49.5                 192   312.91221     -910.97946      7.7253918     -903.25407     -639.43934      5885.2693      1.8944073      25.913665      22.694863      10.007139      1.5072672    
     99100   49.55                192   293.57441     -910.50422      7.2479669     -903.25625      363.84038      5840.9158      1.9087927      25.848403      22.637707      9.9819366      2.1016804    
     99200   49.6                 192   308.79887     -910.62454      7.623839      -903.0007       1854.9032      5817.5603      1.9164558      25.813904      22.607493      9.9686142      1.7726161    
     99300   49.65                192   326.01697     -910.71957      8.0489312     -902.67064      47.093526      5828.6096      1.9128228      25.830237      22.621797      9.9749213      2.0422231    
     99400   49.7                 192   325.06084     -910.71858      8.0253254     -902.69325      410.20016      5852.7125      1.9049453      25.865793      22.652937      9.9886521      1.605487     
     99500   49.75                192   312.59629     -910.79756      7.7175922     -903.07997     -1281.5863      5881.5851      1.895594       25.908257      22.690126      10.00505       2.3519204    
     99600   49.8                 192   290.2804      -910.83033      7.1666421     -903.66368      416.03417      5893.0762      1.8918977      25.925118      22.704893      10.011562      1.6887388    
     99700   49.85                192   302.99067     -911.54324      7.4804421     -904.0628      -1743.6544      5914.9401      1.8849045      25.957141      22.732938      10.023928      1.5145946    
     99800   49.9                 192   297.34945     -911.6485       7.3411678     -904.30733     -683.12667      5899.5121      1.8898338      25.934553      22.713156      10.015205      1.3881101    
     99900   49.95                192   296.14925     -911.76193      7.3115364     -904.45039      229.52249      5866.3838      1.900506       25.885917      22.670561      9.9964235      2.1362014    
    100000   50                   192   291.51875     -911.82763      7.1972154     -904.63041      1039.6717      5812.0224      1.9182819      25.805711      22.600317      9.9654501      1.7878763    
    100100   50.05                192   299.5258      -912.10446      7.394899      -904.70956      1230.8867      5771.8111      1.9316463      25.746059      22.548076      9.9424144      1.7410349    
    100200   50.1                 192   307.85835     -912.4267       7.6006188     -904.82608      463.65192      5769.6709      1.9323628      25.742877      22.545288      9.9411853      1.7020762    
    100300   50.15                192   281.33852     -911.87292      6.945879      -904.92704      920.58662      5784.2597      1.9274891      25.764556      22.564274      9.9495572      1.6334906    
    100400   50.2                 192   303.34726     -912.21504      7.4892458     -904.72579      1001.8673      5805.8034      1.9203367      25.796503      22.592254      9.9618944      1.6973962    
    100500   50.25                192   290.68962     -911.56022      7.1767453     -904.38348      637.47862      5859.0165      1.9028957      25.875076      22.661067      9.9922371      1.9623568    
    100600   50.3                 192   307.347       -911.41653      7.587994      -903.82854     -2262.0378      5925.6428      1.8815001      25.972787      22.746641      10.02997       1.6441269    
    100700   50.35                192   315.67068     -911.24015      7.7934949     -903.44665     -1471.9573      5935.1281      1.8784932      25.986638      22.758771      10.035319      1.5013301    
    100800   50.4                 192   316.1823      -911.11448      7.8061261     -903.30836      107.01456      5905.8301      1.8878121      25.943808      22.721261      10.018779      2.4027072    
    100900   50.45                192   301.52021     -910.7928       7.4441382     -903.34866     -83.739691      5889.4101      1.8930754      25.919741      22.700184      10.009486      1.7428438    
    101000   50.5                 192   300.15625     -910.94468      7.4104639     -903.53422      177.70435      5889.6127      1.8930103      25.920039      22.700444      10.0096        2.1270148    
    101100   50.55                192   305.93106     -911.35788      7.5530364     -903.80484     -291.56971      5883.5694      1.8949547      25.91117       22.692677      10.006176      1.506695     
    101200   50.6                 192   279.48849     -911.16306      6.900204      -904.26285      759.62996      5885.935       1.8941931      25.914642      22.695718      10.007516      1.6702291    
    101300   50.65                192   284.6388      -911.70644      7.0273585     -904.67908     -3456.3095      5903.8555      1.8884435      25.940916      22.718728      10.017663      1.855332     
    101400   50.7                 192   287.9003      -912.17092      7.1078806     -905.06304      2347.6432      5868.3794      1.8998597      25.888852      22.673131      9.9975569      2.1380696    
    101500   50.75                192   274.39276     -912.14866      6.7743971     -905.37426     -1954.1726      5859.8708      1.9026183      25.876334      22.662168      9.9927227      1.6178025    
    101600   50.8                 192   255.71613     -911.79513      6.3132957     -905.48183      2172.5048      5821.8626      1.9150396      25.820266      22.613065      9.9710709      1.5136179    
    101700   50.85                192   288.51637     -912.21236      7.1230906     -905.08927     -1864.4653      5808.9928      1.9192824      25.801226      22.59639       9.9637182      1.7778103    
    101800   50.9                 192   298.07227     -911.61025      7.3590131     -904.25124      3511.6294      5778.7116      1.9293396      25.756316      22.557058      9.946375       2.0400136    
    101900   50.95                192   284.977       -910.8484       7.0357081     -903.8127      -1729.7436      5804.7486      1.9206857      25.794941      22.590885      9.961291       2.4311438    
    102000   51                   192   296.24917     -910.83131      7.3140033     -903.5173       1529.4768      5802.3861      1.9214677      25.791441      22.58782       9.9599394      3.6398219    
    102100   51.05                192   305.91899     -910.88477      7.5527384     -903.33204      693.95608      5815.6247      1.9170937      25.811041      22.604986      9.9675085      2.2009846    
    102200   51.1                 192   331.06309     -911.51411      8.1735132     -903.3406       494.16968      5851.371       1.9053821      25.863817      22.651206      9.9878889      2.8626428    
    102300   51.15                192   292.84282     -910.92574      7.229905      -903.69584     -564.81951      5903.563       1.8885371      25.940487      22.718353      10.017497      2.365895     
    102400   51.2                 192   281.68158     -911.04549      6.9543485     -904.09114      630.95638      5949.485       1.8739601      26.007575      22.777107      10.043404      2.0263269    
    102500   51.25                192   283.04883     -911.38782      6.9881043     -904.39972     -924.88244      5989.1531      1.8615482      26.065249      22.827617      10.065676      1.4728788    
    102600   51.3                 192   273.99487     -911.35578      6.7645739     -904.59121      364.61475      6000.258       1.858103       26.081348      22.841717      10.071894      1.3826231    
    102700   51.35                192   286.63003     -911.65633      7.0765193     -904.57982     -829.92107      5991.6205      1.8607816      26.068828      22.830752      10.067058      1.9020538    
    102800   51.4                 192   297.5192      -911.70253      7.3453586     -904.35717      720.52097      5958.4624      1.8711367      26.02065       22.788558      10.048453      2.2331069    
    102900   51.45                192   299.6839      -911.3361       7.3988021     -903.9373       2539.492       5933.3242      1.8790642      25.984005      22.756465      10.034302      1.50188      
    103000   51.5                 192   315.73936     -910.83437      7.7951905     -903.03918     -438.85343      5945.6388      1.8751723      26.001969      22.772198      10.04124       1.9457692    
    103100   51.55                192   321.76483     -910.51829      7.9439515     -902.57434      2887.3142      5961.5982      1.8701525      26.025213      22.792555      10.050216      2.0630774    
    103200   51.6                 192   323.31868     -910.57431      7.9823138     -902.592       -4690.629       6033.7527      1.8477883      26.129789      22.884141      10.0906        3.0059091    
    103300   51.65                192   321.84108     -910.78165      7.9458339     -902.83582      1251.8371      6032.1224      1.8482877      26.127435      22.88208       10.089691      2.5150061    
    103400   51.7                 192   302.2355      -910.77443      7.4617978     -903.31263     -2254.6368      6050.1555      1.8427786      26.153446      22.904859      10.099736      2.8883948    
    103500   51.75                192   330.06407     -911.91627      8.1488488     -903.76742      70.225933      6027.8639      1.8495934      26.121285      22.876694      10.087316      1.7701855    
    103600   51.8                 192   299.28183     -911.3967       7.3888755     -904.00783      211.85001      5998.9839      1.8584976      26.079502      22.8401        10.071181      2.0596388    
    103700   51.85                192   309.23735     -911.82625      7.6346643     -904.19159     -3477.4748      5976.2753      1.8655596      26.046553      22.811244      10.058457      1.9199606    
    103800   51.9                 192   284.43109     -911.38739      7.0222305     -904.36516      2532.4926      5898.0436      1.8903043      25.932401      22.711271      10.014374      1.9446378    
    103900   51.95                192   288.80256     -911.61991      7.1301563     -904.48976     -140.69162      5861.7497      1.9020084      25.879099      22.66459       9.9937906      2.2561975    
    104000   52                   192   316.46255     -912.31617      7.8130451     -904.50312      2253.8995      5829.238       1.9126166      25.831165      22.62261       9.9752798      1.7536739    
    104100   52.05                192   302.98498     -912.17924      7.4803015     -904.69894     -1435.6361      5848.1998      1.9064153      25.859143      22.647113      9.9860842      1.7406269    
    104200   52.1                 192   289.09227     -912.25975      7.1373088     -905.12244      2719.1197      5868.5043      1.8998193      25.889036      22.673292      9.9976278      2.6504563    
    104300   52.15                192   265.97559     -912.11356      6.5665883     -905.54697     -2586.3998      5932.6239      1.8792861      25.982983      22.75557       10.033908      2.2880874    
    104400   52.2                 192   261.65969     -912.11758      6.4600344     -905.65755      1209.3362      5952.0394      1.8731558      26.011296      22.780367      10.044842      1.651435     
    104500   52.25                192   260.73883     -911.86119      6.4372995     -905.42389     -2284.2809      5979.9403      1.8644162      26.051877      22.815906      10.060513      1.9864608    
    104600   52.3                 192   311.84224     -912.48373      7.6989756     -904.78476      3031.6219      5977.8122      1.8650799      26.048786      22.8132        10.059319      1.5133864    
    104700   52.35                192   332.1918      -912.57093      8.2013796     -904.36955     -3470.8739      6022.3391      1.8512902      26.113303      22.869702      10.084233      2.1659889    
    104800   52.4                 192   314.57572     -912.04394      7.7664616     -904.27748     -1674.3996      6007.3118      1.8559212      26.091565      22.850665      10.075839      1.551069     
    104900   52.45                192   294.19006     -911.47932      7.2631665     -904.21615     -1300.5122      5951.2941      1.8733904      26.010211      22.779416      10.044422      1.8180253    
    105000   52.5                 192   330.00395     -912.21755      8.1473646     -904.07019      1779.9089      5879.7035      1.8962006      25.905494      22.687706      10.003983      1.7035667    
    105100   52.55                192   302.08007     -911.6006       7.4579606     -904.14264      1025.1764      5841.2256      1.9086915      25.84886       22.638107      9.982113       1.8400712    
    105200   52.6                 192   284.69096     -911.40536      7.0286463     -904.37671      398.2364       5835.8672      1.910444       25.840953      22.631182      9.9790598      1.3673816    
    105300   52.65                192   312.45368     -912.3156       7.7140714     -904.60152      831.37666      5841.9551      1.9084531      25.849936      22.639049      9.9825286      1.8014025    
    105400   52.7                 192   274.38323     -911.76977      6.7741618     -904.99561      901.24675      5860.4143      1.9024419      25.877134      22.662869      9.9930316      1.717406     
    105500   52.75                192   280.24341     -912.14255      6.9188421     -905.22371     -2148.243       5881.4538      1.8956363      25.908064      22.689957      10.004976      2.020214     
    105600   52.8                 192   278.51727     -912.13995      6.876226      -905.26373      3075.5266      5867.7777      1.9000545      25.887967      22.672357      9.9972152      1.7225286    
    105700   52.85                192   285.9472      -912.15325      7.059661      -905.09359     -384.62522      5920.7357      1.8830595      25.965616      22.74036       10.027201      1.9099824    
    105800   52.9                 192   300.2877      -911.91429      7.4137092     -904.50058      1378.1707      5978.7887      1.8647753      26.050204      22.814442      10.059867      2.1040752    
    105900   52.95                192   305.60756     -911.53732      7.5450496     -903.99227     -2512.7751      6035.4682      1.847263       26.132265      22.88631       10.091556      1.5444417    
    106000   53                   192   332.60169     -911.97407      8.2114991     -903.76257      786.90086      6033.8329      1.8477637      26.129905      22.884242      10.090645      1.6305619    
    106100   53.05                192   333.61702     -912.08557      8.2365665     -903.849       -532.14165      6066.3308      1.8378651      26.176732      22.925253      10.108728      1.7342184    
    106200   53.1                 192   303.73887     -911.50866      7.4989142     -904.00974     -884.83001      6104.0993      1.8264935      26.230944      22.972732      10.129664      2.5893479    
    106300   53.15                192   303.73385     -911.7389       7.4987902     -904.24011     -675.17071      6121.7883      1.8212158      26.256258      22.994901      10.139439      1.7514327    
    106400   53.2                 192   296.66072     -911.93661      7.3241638     -904.61245     -1979.4335      6128.7121      1.8191583      26.266153      23.003567      10.14326       1.9072914    
    106500   53.25                192   259.48891     -911.66823      6.4064407     -905.26179      1025.5983      6088.4746      1.8311808      26.208544      22.953114      10.121013      2.350939     
    106600   53.3                 192   272.71886     -912.29383      6.7330709     -905.56076     -974.84201      6055.9358      1.8410198      26.161772      22.912151      10.102951      3.0262693    
    106700   53.35                192   286.85421     -912.61025      7.0820539     -905.52819      2636.6881      5998.4235      1.8586713      26.07869       22.839389      10.070867      2.4900882    
    106800   53.4                 192   289.45838     -912.42124      7.1463475     -905.27489     -162.31338      5975.9346      1.8656659      26.046058      22.810811      10.058266      1.6352026    
    106900   53.45                192   278.69513     -911.92394      6.880617      -905.04333      1947.5027      5976.4375      1.8655089      26.046789      22.811451      10.058548      1.9863884    
    107000   53.5                 192   277.10185     -911.70059      6.841281      -904.85931     -505.05918      6011.0806      1.8547576      26.09702       22.855442      10.077946      1.8253705    
    107100   53.55                192   291.1331      -911.85093      7.1876943     -904.66324     -509.51711      6002.1972      1.8575027      26.084158      22.844178      10.072979      1.5463451    
    107200   53.6                 192   296.75665     -911.73091      7.3265322     -904.40437      53.951153      5976.8552      1.8653785      26.047396      22.811982      10.058782      1.6162084    
    107300   53.65                192   302.23261     -911.66725      7.4617266     -904.20552      988.91533      5976.7346      1.8654162      26.047221      22.811829      10.058714      2.4161668    
    107400   53.7                 192   307.73128     -911.6986       7.5974815     -904.10112     -677.60524      6018.4383      1.8524901      26.107663      22.864764      10.082056      1.8911129    
    107500   53.75                192   346.14988     -912.53924      8.5459863     -903.99326     -2587.415       6046.4393      1.8439113      26.14809       22.900168      10.097667      1.8051548    
    107600   53.8                 192   283.26748     -911.37077      6.9935024     -904.37726      130.4803       6014.4636      1.8537143      26.101915      22.859729      10.079836      2.3153252    
    107700   53.85                192   294.74767     -912.10357      7.2769332     -904.82664     -610.42368      5998.8798      1.8585299      26.079351      22.839968      10.071122      2.0907796    
    107800   53.9                 192   281.35509     -912.19144      6.9462878     -905.24515      3351.116       6006.3848      1.8562076      26.090223      22.849489      10.075321      2.3573751    
    107900   53.95                192   249.36952     -911.6159       6.1566063     -905.4593      -2107.0563      6076.3572      1.8348325      26.191146      22.937877      10.114294      2.3342141    
    108000   54                   192   275.54312     -912.03412      6.802798      -905.23133      480.05416      6106.3474      1.825821       26.234164      22.975552      10.130907      1.6885317    
    108100   54.05                192   286.01331     -911.87724      7.0612932     -904.81595      270.82921      6116.0421      1.8229269      26.24804       22.987704      10.136266      2.011322     
    108200   54.1                 192   308.32755     -912.08363      7.6122025     -904.47143      88.207109      6119.524       1.8218897      26.253021      22.992066      10.138189      2.1312436    
    108300   54.15                192   307.452       -911.98644      7.5905863     -904.39586     -1855.2299      6106.9444      1.8256425      26.235019      22.9763        10.131237      1.6633988    
    108400   54.2                 192   306.96898     -912.04763      7.5786613     -904.46897     -437.06516      6029.433       1.8491121      26.123552      22.878679      10.088191      2.638206     
    108500   54.25                192   300.53498     -911.88532      7.4198142     -904.46551      1277.108       5944.5292      1.8755223      26.000352      22.770781      10.040615      2.0694429    
    108600   54.3                 192   302.25894     -911.94096      7.4623767     -904.47859     -470.64536      5910.2734      1.8863929      25.950312      22.726958      10.021291      1.6872169    
    108700   54.35                192   291.24467     -911.62791      7.1904487     -904.43746      1877.7673      5898.1244      1.8902785      25.932519      22.711375      10.01442       2.0780055    
    108800   54.4                 192   304.53047     -911.71476      7.5184578     -904.1963      -1207.4502      5940.5614      1.8767751      25.994565      22.765714      10.03838       1.8806943    
    108900   54.45                192   318.68529     -911.57635      7.8679215     -903.70843     -1240.2735      5976.9918      1.8653359      26.047594      22.812156      10.058859      2.5852947    
    109000   54.5                 192   308.34693     -911.018        7.6126811     -903.40531      932.69673      5988.8854      1.8616314      26.06486       22.827277      10.065526      2.2076293    
    109100   54.55                192   321.85108     -911.20442      7.9460807     -903.25834     -524.10582      6001.2692      1.8577899      26.082813      22.843         10.072459      1.9408369    
    109200   54.6                 192   320.62562     -911.45323      7.9158259     -903.5374      -587.16063      5984.9848      1.8628447      26.0592        22.82232       10.063341      1.6186244    
    109300   54.65                192   297.10795     -911.61658      7.3352053     -904.28138      525.76728      5969.8414      1.8675701      26.037203      22.803055      10.054846      2.9087468    
    109400   54.7                 192   284.63015     -911.83051      7.0271448     -904.80337     -758.02817      5968.5091      1.867987       26.035266      22.801359      10.054098      2.132091     
    109500   54.75                192   304.92381     -912.42455      7.5281688     -904.89638     -133.25429      5949.0434      1.8740992      26.006931      22.776544      10.043156      2.6146554    
    109600   54.8                 192   298.9177      -912.34373      7.3798858     -904.96384      844.86126      5912.9011      1.8855545      25.954158      22.730325      10.022776      1.8716932    
    109700   54.85                192   298.23356     -912.24862      7.3629952     -904.88562     -1156.3682      5881.7003      1.8955569      25.908426      22.690274      10.005116      2.0581896    
    109800   54.9                 192   311.39652     -912.32984      7.6879714     -904.64187      2313.6346      5847.2099      1.906738       25.857684      22.645835      9.9855207      3.0910347    
    109900   54.95                192   315.78626     -912.33021      7.7963483     -904.53387      588.71109      5836.0588      1.9103813      25.841236      22.63143       9.979169       1.8473066    
    110000   55                   192   295.42014     -911.83263      7.2935357     -904.5391      -375.43211      5833.7886      1.9111247      25.837885      22.628495      9.9778748      1.487137     
Loop time of 508.98 on 1 procs for 20000 steps with 192 atoms

Performance: 1.698 ns/day, 14.138 hours/ns, 39.294 timesteps/s, 7.545 katom-step/s
99.2% CPU use with 1 MPI tasks x 1 OpenMP threads

MPI task timing breakdown:
Section |  min time  |  avg time  |  max time  |%varavg| %total
---------------------------------------------------------------
Pair    | 502.18     | 502.18     | 502.18     |   0.0 | 98.66
Neigh   | 0.0341     | 0.0341     | 0.0341     |   0.0 |  0.01
Comm    | 0.64838    | 0.64838    | 0.64838    |   0.0 |  0.13
Output  | 0.12529    | 0.12529    | 0.12529    |   0.0 |  0.02
Modify  | 4.9939     | 4.9939     | 4.9939     |   0.0 |  0.98
Other   |            | 0.9994     |            |       |  0.20

Nlocal:            192 ave         192 max         192 min
Histogram: 1 0 0 0 0 0 0 0 0 0
Nghost:           1281 ave        1281 max        1281 min
Histogram: 1 0 0 0 0 0 0 0 0 0
Neighs:              0 ave           0 max           0 min
Histogram: 1 0 0 0 0 0 0 0 0 0
FullNghs:        13384 ave       13384 max       13384 min
Histogram: 1 0 0 0 0 0 0 0 0 0

Total # of neighbors = 13384
Ave neighs/atom = 69.708333
Neighbor list builds = 130
Dangerous builds = 0
System init for write_data ...
System init for write_restart ...
Setting up cg/kk style minimization ...
  Unit style    : metal
  Current step  : 110000
WARNING: Fix MINIMIZE/kk not compatible with Kokkos sorting on device (src/KOKKOS/atom_kokkos.cpp:217)
WARNING: Fix with atom-based arrays not compatible with Kokkos sorting on device, switching to legacy host sorting (src/KOKKOS/atom_kokkos.cpp:223)
Per MPI rank memory allocation (min/avg/max) = 48.29 | 48.29 | 48.29 Mbytes
   Step          Time         Atoms         Temp          PotEng         KinEng         TotEng         Press          Volume        Density           Lx             Ly             Lz            Fmax     
    110000   55                   192   295.42014     -911.83263      7.2935357     -904.5391      -375.43211      5833.7886      1.9111247      25.837885      22.628495      9.9778748      1.487137     
    110100   55.05                192   295.42014     -919.72403      7.2935357     -912.4305       927.64125      5833.7886      1.9111247      25.837885      22.628495      9.9778748      0.020275174  
    110164   55.082               192   295.42014     -919.73037      7.2935357     -912.43683      990.28476      5833.7886      1.9111247      25.837885      22.628495      9.9778748      0.0024038696 
Loop time of 8.13322 on 1 procs for 164 steps with 192 atoms

99.3% CPU use with 1 MPI tasks x 1 OpenMP threads

Minimization stats:
  Stopping criterion = force tolerance
  Energy initial, next-to-last, final = 
     -911.832632428888   -919.73036155074  -919.730365225403
  Force two-norm initial, final = 8.4927534 0.009514498
  Force max component initial, final = 1.487137 0.0024038696
  Final line search alpha, max atom move = 1 0.0024038696
  Iterations, force evaluations = 164 326

MPI task timing breakdown:
Section |  min time  |  avg time  |  max time  |%varavg| %total
---------------------------------------------------------------
Pair    | 8.0705     | 8.0705     | 8.0705     |   0.0 | 99.23
Neigh   | 0.00051099 | 0.00051099 | 0.00051099 |   0.0 |  0.01
Comm    | 0.0090871  | 0.0090871  | 0.0090871  |   0.0 |  0.11
Output  | 0.00022902 | 0.00022902 | 0.00022902 |   0.0 |  0.00
Modify  | 0          | 0          | 0          |   0.0 |  0.00
Other   |            | 0.05286    |            |       |  0.65

Nlocal:            192 ave         192 max         192 min
Histogram: 1 0 0 0 0 0 0 0 0 0
Nghost:           1281 ave        1281 max        1281 min
Histogram: 1 0 0 0 0 0 0 0 0 0
Neighs:              0 ave           0 max           0 min
Histogram: 1 0 0 0 0 0 0 0 0 0
FullNghs:        13316 ave       13316 max       13316 min
Histogram: 1 0 0 0 0 0 0 0 0 0

Total # of neighbors = 13316
Ave neighs/atom = 69.354167
Neighbor list builds = 2
Dangerous builds = 0
System init for write_data ...
Total wall time: 0:47:20
