124
Lattice="9.79711 0.0 0.0 0.0 10.5423 0.0 0.0 0.0 12.2939" Properties=species:S:1:pos:R:3:vel:R:3:energy_atom:R:1 Time=10000.0 virial="14.38226008 10.69297439 -7.21006183 10.69297439 19.00335604 -21.27930374 -7.21006183 -21.27930374 20.83444671" pbc="T T T"
Li       6.16908347       1.99831884       0.75671174      -0.01906486       0.01453565      -0.01819948      -5.22856910
Li       2.37597385       2.44635392       0.55032237      -0.00264364       0.01075504       0.04012994      -5.73229489
Li       5.74420217       9.83621714       2.84154100       0.01036549       0.00738714      -0.01709987      -5.61786169
Li       3.21917970       7.81940811      10.58814791      -0.00678478      -0.00199374       0.00277581      -5.14718225
Li       6.58194267       2.52767540       8.36278669      -0.01840420       0.00302439      -0.00657461      -5.50364253
Li       3.39673455       0.71204971       3.08417757       0.01365939      -0.02063659       0.01145334      -4.75504589
P        2.34058061       3.92385238       3.09150955      -0.00329653       0.00306394       0.00823466       1.22308445
P        9.36153215       2.11606855      12.14456061      -0.00396570      -0.00194316      -0.00510190      -0.18211007
N        9.65123941       1.95763633       3.91836011       0.00012706       0.00611540       0.01571421      -8.43170464
O        4.22899949       9.83155086       4.21916008      -0.00976600       0.02721916       0.02022545      -8.78721988
O        3.14691538       3.51110118       4.24616140       0.00089088      -0.01054918      -0.02179872     -10.20045972
O        3.38024149       0.73010231       0.54998626       0.01439592       0.01786943      -0.00730323     -10.04071653
O        0.87517484       4.63720318       3.67660000       0.01158154       0.00408723       0.01131961      -6.53291202
O        1.12632564       1.83945895      11.63025226       0.02046757      -0.00707512       0.00310287      -7.49686682
O        2.05492736       8.04740110      12.01024321      -0.03777978       0.00264522       0.01189659      -9.13665676
O        1.84821893       2.77418054       2.20964134      -0.00497199      -0.01442824      -0.00955731      -9.19652414
Li       0.77777585       1.28564177       7.24894216       0.01555052      -0.00196885      -0.01978869      -5.21712142
Li       4.43502748       3.46708090       5.94137907       0.01828491       0.00630707       0.00657194      -5.29331432
Li       2.33738174       9.36537625       1.12252707      -0.01384023      -0.01606297       0.02315783      -5.19187721
Li       1.16891302       4.35448651      11.37778152       0.00478616       0.02653659      -0.01404387      -5.43796136
Li       4.92185290       0.10346037       9.16071141       0.00828627      -0.00692578      -0.00735159      -5.13531724
Li       7.51966013       2.94204840       4.61308334      -0.00151550      -0.00999149       0.02415768      -5.15381908
P        1.77933666       3.29645147       8.78581938      -0.01224053       0.01298792       0.00316418       1.53053021
P        8.77152099       0.70051598       4.17330421      -0.00052587       0.00040101       0.00280484       2.35642815
O        8.52858019       1.79983301      10.78666152       0.02380144       0.01211998      -0.00458100      -7.59080398
O        1.28644716       8.66406999       7.87838329      -0.00561852       0.01513300       0.01390021      -8.44709307
O        2.84033035       3.76989819       7.65704735      -0.02346831      -0.00441761      -0.02595954      -7.69732773
O        5.08203390       1.76356054       7.99289134       0.00021209       0.00027413       0.01907612      -9.15737772
O        2.47186963       2.01881424       9.40785143      -0.00605364      -0.00720334       0.00337699      -8.13194549
O        9.27966535       9.98548393       3.51488978       0.00277530      -0.00987960       0.00318020      -8.73530722
O        7.53949451       6.12257896       5.72832266       0.00438160       0.02041176       0.01702619      -8.35532272
O        0.47000024       2.91981305       8.03852752       0.00352779      -0.01327181      -0.00864718      -9.11791718
Li       4.28151061       2.74206145      10.54782812       0.01606266       0.01342373      -0.03838505      -5.26817131
Li       6.78619096       9.58103960       5.34952742       0.01656935      -0.00792163       0.01268745      -5.16297019
Li       6.80486431       7.16923189       7.00591752       0.02879206       0.00709841      -0.00498289      -5.13616413
Li       4.93818870       3.95791600       8.32908927       0.01716182       0.03687967       0.00102637      -4.96180657
Li       6.71246025       7.08189872      11.90351051       0.00242052      -0.01559582       0.00687545      -5.17283098
Li       1.44638032       7.13975087       6.64826641       0.00999551       0.00661017      -0.00075208      -5.55314419
P        2.97573865       9.03677397       3.68302652       0.00933479       0.00817765      -0.00825734       4.35639095
P        0.51795428       8.18487144      11.81656275       0.01252577      -0.00118647       0.00571685       3.85415077
O        9.67055956       5.97074124       7.40233695       0.00156737      -0.00149392      -0.01345903      -7.54785872
O        2.86591575       5.02223533       1.78501870      -0.00523986      -0.03159160       0.00803463      -9.17595279
O        1.93034933       9.86608804       3.02368732      -0.02102906       0.00307857       0.00768582      -9.68877232
O        4.43197029       6.22451145       0.25300029       0.00871120       0.01322563       0.01100289     -11.08904815
O        3.48443852       7.92501122       2.75429895      -0.00657721       0.00296843      -0.01022243      -9.51308322
O        9.73068686       9.42832222       0.26568121      -0.00156056      -0.01471480      -0.01693551      -8.56708550
O        8.95924735       1.27956368       1.13629061      -0.00892638      -0.00761534      -0.00174979      -8.11233747
O        2.15684767       8.17712967       4.68828925       0.00494952      -0.00512386       0.00889632      -9.39087355
Li       3.23290622       5.17833243      10.84610743      -0.02835283      -0.02000893       0.01481477      -4.95392595
Li       8.96151633       6.73964400       9.60105296      -0.00793428      -0.00315588      -0.00536879      -5.29731804
Li       9.12356698       9.18449878       9.80201603       0.00459881       0.01172328      -0.00189908      -5.11515526
Li       6.46296179       6.77484395       4.41503262      -0.00737265      -0.00444210       0.00485160      -5.01704041
Li       9.16797423       4.13958614       9.07904416      -0.01684637      -0.02180071       0.01159035      -5.18457754
Li       5.08058696       2.02274149       3.51645447      -0.00262516      -0.01189534       0.01154735      -4.77971363
P        2.04464896       9.93171422       8.46656608       0.00508441       0.00559160      -0.01355369       1.62345457
P        9.08486790       5.71501195       5.85247011      -0.00263701       0.00482049      -0.00566632      -0.06850815
O        0.27387404       7.89412606      10.37120657      -0.00417755       0.00226973      -0.00881747      -9.00361419
O        1.49920211       4.68753748       9.59862924      -0.00771090       0.02638930      -0.00653423      -7.71762180
O        1.13074779      10.37595073       9.67215604       0.00595529       0.01384547      -0.00915181      -8.91832721
O        4.95264721       5.14960240       6.29470057       0.00028432      -0.00145732      -0.00992154      -9.06789935
O        3.48354392       9.45411797       8.82269531       0.00727070       0.00659866       0.00326466      -9.20165098
O        0.26845815       6.64702275       5.21526117       0.01284874      -0.00320732      -0.00108489      -9.29263675
O        7.26948861       1.05593831       3.93857422       0.00739550      -0.00289909       0.00182361      -8.92485154
O        2.25430437       0.30848957       7.14873009      -0.00463679      -0.00217402      -0.00470065      -8.18900609
Li       1.82130828       6.35549306       4.33297402      -0.00574197      -0.00891013       0.01276363      -5.45953617
Li       0.76539419       9.33433180       6.12994678       0.00220445      -0.01109610       0.00201677      -4.98057150
Li       2.13930073       6.76058143       1.34987544      -0.01503646       0.01847989      -0.00780430      -5.23185710
Li       9.42976762       2.89807577       2.00338251      -0.00411538       0.01072123       0.00823577      -4.90554141
Li       2.08559765       5.50212116       8.35362866      -0.01319501      -0.00424365      -0.02078911      -5.39373598
Li       5.48878182       8.44363819       9.30376913       0.01262866      -0.01214019      -0.01113945      -5.31502119
P        6.60530229       4.48826279       2.48986125      -0.00106388      -0.00032248      -0.00094738       3.13376522
P        4.76246179       0.19421481       0.57400916       0.00417953       0.00068618       0.00307190       2.05984211
O        4.61095620       1.48819583       5.53202856      -0.01143618       0.00595233      -0.00036153      -9.89770782
O        7.21242040       8.01056503       0.90193128      -0.00429871      -0.00222070      -0.02722862      -9.18514442
O        9.35051256       3.72669720       0.16037440       0.01163018      -0.00959181      -0.01347736      -8.17750293
N        7.38993239       5.78410291       2.88951320       0.00164183      -0.02189592      -0.00647179     -10.57078600
O        5.54174340       0.82820021      11.61411461       0.01473443       0.02557914      -0.00255149      -8.25864005
O        3.54689100       3.94678954      11.98112986       0.00183175       0.00717348      -0.00493427      -8.41140646
O        7.25718407       3.25134915       1.93677286       0.00933596      -0.00207296       0.00946780      -9.92895126
Li       0.66201914       0.55471774       2.50709200      -0.01159006      -0.00110092       0.00424020      -5.29581472
Li       4.73244433       8.07231763       4.43295150       0.00436789      -0.01478318       0.03550005      -4.70800632
Li       6.61314589       4.35529414       6.68708386       0.02480543       0.00931266       0.00219820      -5.54934245
Li       3.14937565       1.94323960       7.60889312       0.00983561       0.00190248       0.00661967      -5.36928594
Li       3.34751511       9.41579820       6.45802695       0.01369662      -0.00722118       0.00106398      -5.01887707
Li       9.50586953       1.51009822       9.48544714      -0.02769054       0.01747676       0.02445077      -5.63383149
P        6.87490845       5.06743067       9.66151835       0.00098423      -0.00373591       0.00274776       2.14048004
P        5.57573496       1.25029219       6.64030925      -0.00445444      -0.01027208      -0.01457875       2.75619936
O        4.70991687       9.23269326       0.14517810       0.00961695       0.00074656       0.00083048      -8.65550876
O        6.94759050       9.20291115       9.12596383       0.01228613       0.00400711       0.01115127      -8.78294480
O        6.69686690       4.19734908       8.36672427      -0.01484329      -0.01066691      -0.00114976      -8.09906280
O        8.95113338       0.37156763       5.63386582      -0.00452928       0.01657941       0.00739228      -9.09028780
N        6.38754789       6.61306369       9.97785749       0.00628181      -0.00248559       0.00004078      -7.70653313
O        6.66500977       2.52334454       6.47531624       0.00404137      -0.01209626       0.01497477      -7.45914602
O        4.40016633       7.67615657       6.72438273      -0.02069542      -0.00230351      -0.00970251      -9.33152616
O        8.13292563       4.85626891      10.35676487       0.00371229       0.00006493       0.00495516      -9.97664213
Li       8.43206899       2.86108438       6.71784975       0.00540228      -0.00479779      -0.01066662      -5.01983462
Li       9.13328003       5.43413711       2.09563232      -0.00760623       0.00384833       0.00396504      -4.53855678
Li       4.84510947       7.85831853       1.40798261      -0.02535052       0.00937215       0.01476286      -5.22648432
Li       0.68537977       3.21257050       4.53717830       0.01097524      -0.00220926       0.00731982      -4.79689133
Li       0.77635032      10.50962893      11.66261403       0.01525782      -0.00107570       0.01222409      -5.26206747
Li       7.28598193       0.30012202      10.81824082       0.02700980       0.00254684      -0.02618142      -5.26143748
P        7.50395325       7.34766452       2.21199623      -0.01033221       0.00530889      -0.00570915       1.53357220
P        4.10771678       4.97148624       0.79780097       0.00368114       0.01588914      -0.00332530       4.79430819
O        2.63946906       6.07371858       6.47113974      -0.01137908      -0.00863025       0.00892948      -8.39477742
O        6.24947021       4.46355672       3.89681349       0.00905729      -0.00775785      -0.00213172     -10.03063369
O        6.74619887       8.31411477       3.29752110       0.00272712      -0.00443066       0.00600085      -8.43460536
O        9.68047847       6.97526166       0.24642424      -0.00173628      -0.01300381       0.01192181      -8.52799034
N        7.03965576       5.77265502       1.57024858      -0.01749439      -0.00946571      -0.00456562      -9.82583427
O        5.07572756       4.52577401       1.88750603       0.00403342      -0.00270634       0.00048105     -10.74938393
O        5.74243936       0.61537576       1.91077968      -0.00406987       0.01796895       0.00948954      -7.06614512
O        8.95034260       7.24189268       2.59251314      -0.01608107       0.01039706      -0.01068756      -9.15730643
Li       2.24802707       1.01024317       5.37048958       0.01337704       0.00104669       0.03493970      -5.09183267
Li       2.45554283       0.80170296      10.78772696      -0.00100598      -0.01509156       0.01985031      -5.31475031
Li       0.35825948       8.63777942       3.24547664       0.00662153      -0.02257764      -0.04167635      -5.53437644
Li       7.67604682       4.84046281      12.11165448      -0.01109725       0.00710887      -0.00253220      -5.14102920
Li       7.99115750      10.47611879       1.13802690       0.00690728      -0.03000471      -0.00629353      -5.33703096
P        7.52554488       9.95251874       7.89324334       0.00325142      -0.00243635       0.00358795      -0.63983035
P        4.08308203       6.19602419       7.03346050      -0.00667919      -0.00343213      -0.00405179       2.56648636
O        5.59993635       4.45606683      10.38524539       0.00508863       0.00561371       0.00390277      -8.20487380
N        9.36289854       4.15702553       5.77702425       0.00154383      -0.00397117       0.01188123      -8.40789372
O        7.97673075       0.82138213       8.48517398      -0.00691783      -0.01714981       0.00760326      -8.35040581
O        3.90942787       5.80556154       8.58952622      -0.00268199      -0.01368663      -0.00470046      -7.98601997
O        6.08665338      10.33753958       6.82013946       0.01311762      -0.02041283       0.01001555      -8.94755089
O        8.36557820       8.73137798       7.10801847       0.00163650      -0.01331212      -0.00991483      -7.43719184
