124
Lattice="9.79711 0.0 0.0 0.0 10.5423 0.0 0.0 0.0 12.2939" Properties=species:S:1:pos:R:3:vel:R:3:energy_atom:R:1 Time=2200.0 virial="17.65192827 2.74126281 -29.38727734 2.74126281 4.84732257 -7.4697504 -29.38727734 -7.4697504 12.22534893" pbc="T T T"
Li       5.03825429      10.28925463       1.42399840      -0.00418152       0.02709750       0.00025579      -5.07549949
Li       0.71707091       8.96903595       2.36924660      -0.00136708      -0.00442335       0.02266880      -4.89638409
Li       4.43941186       7.54461210       4.96074849      -0.02664299       0.01749562      -0.00048349      -5.05546775
Li       2.14291393       7.76892752       6.22066191       0.01856736       0.03558370       0.01282043      -5.72359419
Li       5.76355772       3.66341624       7.85001711      -0.01392058      -0.01641866      -0.01605184      -4.93862343
Li       9.73164511       4.39395240       1.58996731      -0.00522018       0.00411722      -0.00279996      -5.17284063
P        2.75389906       4.01552795       2.99404675       0.00388663      -0.01845322      -0.00717729       1.76120329
P        9.75177579       1.63742627       0.10526616      -0.00239936      -0.00884699      -0.00637761       0.74314833
N        0.54882596       1.94566683       6.59922304      -0.00372269       0.02006093      -0.00617605      -7.54883456
O        2.67445808       9.87545952       2.50362037       0.00727406       0.00239563      -0.00134077      -8.97644007
O        2.96742218       4.11776363       4.42969032      -0.00180866      -0.00670578      -0.00836273     -10.22802782
O        6.47141630       0.04003334       0.32718223      -0.01489804      -0.00722625       0.00121798      -8.14947844
O        1.06667456       4.07698472       2.69566636      -0.00397402       0.00984731       0.00237867      -6.92226332
O        1.38054396       0.84336387       0.05654437       0.00541595       0.00456510      -0.00554406      -8.29027975
O        9.71976563       6.35022003       1.14635846      -0.00711297      -0.01365551      -0.00415044      -7.87153190
O        3.31958376       2.60491296       2.26353024       0.00252909      -0.00620626      -0.01802738      -7.16144812
Li       5.92997956       2.28911798      10.88751631      -0.00730084      -0.00308354      -0.00808077      -5.17426300
Li       6.75462845       5.82441124       7.23874370      -0.01184336      -0.00844475       0.00604458      -5.07392579
Li       8.03819623       3.45240971       0.76135105       0.01653413      -0.01283817       0.00023732      -4.59260568
Li       4.97727081       7.60955513      10.97945575       0.01507416       0.00115133       0.00593058      -5.58953932
Li       9.48674346       6.67512415       3.68285368      -0.00699287       0.00314631       0.00807410      -4.83061600
Li       2.22135890       9.81947121       0.62797943      -0.00204982      -0.00814437      -0.04296437      -5.63659936
P        2.32202737       3.50481013       9.09778381       0.00361930       0.00281187      -0.01117138       4.28237438
P        0.22199505       1.11922390       5.21757999       0.00701422      -0.00804654       0.00040185       0.05223989
O        8.60132260       0.85169299      11.19578734       0.00162003       0.00470073       0.00559789      -5.93768300
O        2.76716580       0.09011776       9.42569445      -0.00400528       0.01178793      -0.00462269      -9.03595364
O        1.30480077       2.53514479       9.56474958      -0.01475224       0.01951118       0.00323705     -10.01872981
O        4.34870233       0.96425909       6.92497133       0.00168730      -0.00091200      -0.02190247      -9.74012947
O        2.20481057       3.82629768       7.57191571       0.00151580       0.01187025       0.00637078      -8.81363118
O        8.79762950       2.03281234       4.80076238      -0.00937825      -0.00521357      -0.00145278      -8.82105744
O        0.16059833       6.19274326       7.67165900      -0.01571637       0.00591168       0.01171222      -7.21805412
O        3.60194226       2.71804895       9.39356829      -0.00298280      -0.00000765       0.00699152      -9.12341225
Li       4.39838855       7.72510427       0.78045300      -0.00874520       0.00131599      -0.00564347      -5.59790239
Li       2.67612349       5.85110059       4.05429611       0.02852997      -0.00306556      -0.00702436      -4.63852422
Li       2.22307363       7.12417118       1.49902529       0.00548361       0.01602575       0.00718997      -5.41945183
Li       1.98243854       4.10226678      11.98363809       0.00337940      -0.01570640       0.02369097      -5.79500934
Li       6.78893985       8.13495384       8.76696423      -0.00634257       0.00973590       0.02387645      -5.27489246
Li       8.00647394       9.56629214      10.55126755      -0.01332878      -0.00963447       0.01102240      -5.37258913
P        3.01635220       8.58691251       3.30082074      -0.00085276      -0.00287771       0.00124551       1.16203356
P        9.75767277       7.33851760      12.14466006       0.00232877       0.00210373      -0.01227379       3.45859003
O        0.97630974       5.54819618       5.06189052       0.01053955       0.00835173      -0.00225063      -8.92804718
O        3.40798107       5.02471028       2.03643090       0.01718505      -0.00078161      -0.00032274     -10.48920989
O        3.75740578       8.98952964       4.58806488       0.00422353      -0.00570500      -0.02761752      -8.85462058
O        4.16329771       6.61756609      11.97887558       0.00064476       0.00620321      -0.01297136      -7.60122693
O        1.52313576       8.08127860       3.72521608       0.01810062      -0.00388261       0.00143481      -7.94009089
O        0.06166533       6.81462502      10.80729376       0.01242221      -0.01260525       0.02777417     -10.37071109
O        9.14831941       1.45965382       1.44816793       0.01288452      -0.00429226       0.00778215     -10.10791826
O        3.65274602       7.31812393       2.47294092       0.00107866      -0.00944539       0.00752689      -7.20320451
Li       7.74103121       9.55556015       6.05431940       0.01025939      -0.00451434       0.01206271      -5.40442696
Li       9.34363995       2.70967979       3.09514818       0.00637122       0.00887386      -0.00678375      -4.81013525
Li       2.08604638       6.77557492      11.19075763       0.00537288       0.01559711      -0.00992831      -5.34447956
Li       9.29293398       3.34726313       8.66659928       0.01837509      -0.01758951      -0.02976491      -4.81749249
Li       7.16801463       7.37092345       0.57432439      -0.00852278      -0.00767218       0.02300661      -5.24005879
Li       3.67898204       3.45950049       6.11443627      -0.01697546       0.01249787       0.01226986      -5.21843817
P        2.23184440       9.32647751       8.88443943      -0.00461977       0.00916400       0.01663322       2.58771467
P        9.62457791       5.88769040       6.04167630       0.00462750       0.00012193       0.01232425      -0.63194847
O        8.55758967       8.36522712      12.10242739      -0.00334217       0.00462186      -0.02447017      -8.85658157
O        2.02939714       4.67569444      10.11186909      -0.01429308      -0.00746944      -0.01255253      -9.23225069
O        0.69199572       9.37286022       9.42107919      -0.01487410      -0.01388220       0.00419208      -7.92232054
O        3.28257819       6.70700817       6.02276231      -0.01298215      -0.01050769       0.01147134      -7.48123538
O        1.94946591       9.10451503       7.31581611      -0.01575197       0.00384911       0.00981139      -8.57611597
O        8.91871315       7.33157090       5.77957123       0.00113798       0.00492292      -0.00238310      -8.25826097
O        9.35232079      10.16751612       5.63976211       0.00454201       0.00078433      -0.00896734      -7.37791479
O        2.81439521       8.21570072       9.77747573       0.01594438       0.01710942      -0.00766617      -9.08260238
Li       2.73500101       6.00808428       8.49118020       0.00136235      -0.00799285      -0.00978852      -5.44048572
Li       5.57917313       2.56334568       3.82495054       0.03699683      -0.04514813      -0.01839980      -5.00810733
Li       7.25281171       0.77178549       3.32875874      -0.00897846      -0.01140326       0.00524837      -4.89488029
Li       4.17086571       4.35735115      10.20018518       0.00688034      -0.01494106      -0.00533658      -5.35110420
Li       3.36449984       0.93448905       3.44962012      -0.02115115      -0.00069813       0.01619557      -5.41082407
Li       0.17051505       8.76635598       4.64902646      -0.01113217      -0.00319684       0.02885525      -5.31885947
P        6.53442807       4.77203373       2.33021039      -0.00205033      -0.00679589       0.00423805       1.21050119
P        5.33312098      10.01222594      11.66534478      -0.01326749       0.00136128       0.00421788       3.48951006
O        5.02040058       0.90313268       4.28615114       0.01089569      -0.00200733      -0.00053490      -7.94094366
O        5.70700181       8.94171671       2.25342271       0.01023359       0.01424723      -0.01331031      -8.35972548
O        0.53476849       3.10376898      12.26125703      -0.00929789      -0.01483125       0.00292754      -8.82068253
N        7.98767796       5.28585023       2.44295668      -0.00459052       0.02301242       0.00036572      -7.56653082
O        4.16079335       9.33608956      12.14849825       0.00664887      -0.01037488       0.01651520     -10.30988836
O        3.60333006       4.05822467      11.98094767       0.00662035       0.01193761      -0.01037747      -8.16917217
O        6.93213570       3.24481998       2.39573866      -0.00333411       0.00020021      -0.00308459      -8.99633074
Li       0.80145570       3.80571965       4.65858929       0.01286794      -0.02042902       0.00354390      -5.00580820
Li       8.69722040       6.61463298       9.08114783       0.01037915       0.00374068      -0.01674092      -5.09084749
Li       5.20345282       9.77908899       9.04433512       0.00849014       0.02408725      -0.00477163      -5.15217919
Li       7.57986846       3.22491913       6.17240776      -0.00250385      -0.00224911      -0.00791086      -4.78550888
Li       2.86832106       1.41802890      10.62753969      -0.02147794      -0.01473626       0.00985703      -5.45552780
Li       0.10095705       0.29375579       7.71211406       0.02121291       0.00510314      -0.00900824      -4.90274048
P        7.06335325       4.86079093      10.05015064      -0.00036842       0.00474103       0.00875001       2.77739668
P        5.31382385       1.17416541       5.90094625       0.00307588       0.02181322       0.00074746       3.26124811
O        6.08690998       9.06479758      10.75041723       0.00290429       0.00637926      -0.00385258      -9.80085135
O        5.89160775       0.83137542       8.93849520      -0.00255647       0.00043829      -0.01020154      -9.38983727
O        5.60287098       4.27291112       9.99155800       0.01011524      -0.02455495      -0.00563052      -7.89859223
O        1.47741538       1.18630936       4.35125540      -0.00308931       0.00720559      -0.02991943      -9.48271978
N        7.59391791       4.55167149       8.76168194      -0.00624338       0.00017328       0.00577059      -8.16965222
O        5.61211396       2.65086828       6.02684726       0.00681111      -0.00112709      -0.00833632      -9.81442118
O        5.83717655       6.77737012       6.15502648      -0.01905060       0.00969134       0.00136733      -8.41199303
O        8.12483753       4.32842843      11.01588084       0.00646715       0.01794197      -0.00897553      -9.44027376
Li       0.58243964       0.73923593      10.08572821       0.01053794       0.00598133       0.00824237      -5.16888428
Li       2.53613221       0.02037085       5.61573298       0.02012920      -0.01668341      -0.00219647      -5.10126114
Li       3.81581345       9.71558531       7.03649077      -0.00580946       0.00488372       0.01127807      -5.34258987
Li       1.33815573       0.43280089       2.54881399       0.00742775       0.00634507       0.00779813      -5.12061152
Li       5.49877084       9.40367708       5.62452881       0.01986234       0.00913905       0.03812594      -5.02831003
Li       4.59267319       5.27739340       4.85775885      -0.01100973      -0.01950916       0.00276719      -4.95680042
P        6.97363745       8.48270762       3.00880907       0.01679540      -0.00777120      -0.01091058       0.46369171
P        4.09918242       5.27179430       0.57790436      -0.00966973       0.00430922      -0.00313743       0.41493988
O        4.81217361       8.40168066       7.59868064       0.00659220       0.00194810       0.01348244      -7.96086961
O        5.96416258       5.18912657       3.64826079      -0.02522881      -0.00978479       0.00895427      -9.61455977
O        6.88758452       8.61642550       4.60883478      -0.00806757       0.00113778       0.00073919      -8.30964404
O        1.31360264       8.02199497       0.34092601      -0.01762180       0.00063463      -0.01061414      -8.47455084
N        7.61410958       7.07346055       2.56393781       0.01084664      -0.00068571      -0.01651917      -8.07499534
O        5.68968449       4.98553280       0.95785520      -0.00946341      -0.01506811      -0.00037869      -9.97122240
O        4.52380325       0.66483793      10.76253503       0.01478158       0.01028382       0.01725410      -6.79561174
O        8.14149984       9.42432888       2.51849952      -0.00962844       0.01897058       0.01379274      -8.65594947
Li       2.96960579       2.36546959       0.56927101      -0.02056450      -0.00531735       0.00537395      -5.43974996
Li       7.27536568       6.46193953       4.88705898       0.01628319      -0.01611086       0.00026771      -5.12626737
Li       9.73029749       8.35090106       7.10518093      -0.00745941      -0.00873132      -0.00054313      -4.94607992
Li       8.07108479      10.34297233       0.94604396      -0.01897822      -0.00982259       0.03548765      -5.42576045
Li       9.75264863       4.38628665      10.39665977       0.01241682      -0.01445488       0.00348896      -4.90864579
P        6.98155810       0.51237070       8.03048014      -0.00409766       0.00533074       0.00988763       3.34404230
P        4.53836492       6.88415603       7.04652267       0.00444333      -0.01521445       0.00601898       0.57979107
O        6.86172376       6.35331401       9.75408046       0.00873666      -0.00281743      -0.02523267      -9.35748684
N        8.41508411       4.76180049       5.98915124      -0.01875695      -0.00247512       0.00270839      -7.85361600
O        8.28922975       1.44132410       8.22070782      -0.01785110      -0.00110385       0.01350095      -8.30798972
O        4.31881297       5.91174789       8.31954136       0.02106075      -0.00058238       0.01499080      -7.62443030
O        6.46211687       0.15796309       6.60259214       0.01145363       0.00108430       0.01168521      -9.69021463
O        7.77563103       9.71941794       8.24243686       0.00045821       0.01674796      -0.00286554      -9.01722562
