124
Lattice="9.79711 0.0 0.0 0.0 10.5423 0.0 0.0 0.0 12.2939" Properties=species:S:1:pos:R:3:vel:R:3:energy_atom:R:1 Time=2300.0 virial="43.93305899 0.28221078 -6.33290378 0.28221078 2.0029721 -17.66041839 -6.33290378 -17.66041839 16.71448403" pbc="T T T"
Li       4.85606290       0.22415136       2.64287487       0.00280538      -0.01052095       0.02095671      -5.32988352
Li       0.83890474       9.65992810       2.41905678      -0.01888226       0.03018618       0.01930251      -5.01064205
Li       5.29221329       6.80827011       3.90613692      -0.01372228      -0.01191780       0.00039269      -4.73741457
Li       2.49760784       8.37498407       6.82937232       0.01488553      -0.00468130       0.00555034      -5.95261180
Li       5.07971893       3.05513335       7.78989715       0.00683189       0.00342437      -0.01041748      -5.19451849
Li       9.56617874       4.53829928       0.84749437       0.01375532       0.00616631      -0.03432783      -5.15671786
P        2.41888016       3.44243349       2.75517352       0.00137015       0.01381221       0.00993867       3.50406170
P        0.17035695       1.43427648      12.24969616       0.00427071       0.00805264       0.00713069       6.31854963
N        0.91892496       2.40140222       5.53130873       0.00261673      -0.00122133       0.00826900      -8.90058041
O        3.27714471       9.87160738       2.88058155       0.00511144       0.01643693       0.01061473      -9.67826903
O        2.72532291       3.98240524       4.16974997      -0.01449533       0.00429957       0.00360012      -9.38526452
O        5.59276781       0.96465479       1.10481039      -0.00983606       0.00785490      -0.00438308      -7.16820154
O        1.00070965       3.53391856       2.73851848       0.00196223       0.00100252      -0.00546553      -9.99302721
O        1.49130145       1.05186804      11.71666136       0.00891423      -0.01437461      -0.01545176      -9.76406765
O        0.18852489       6.41665960       1.14717852       0.00162359      -0.00530794      -0.00285937     -10.15294003
O        3.32264416       2.14710148       2.44987534      -0.00708342       0.00635117       0.01497872      -8.26159275
Li       4.94398314       2.18965284      10.32867412      -0.01603640      -0.00673168      -0.02084468      -5.03498634
Li       6.85480293       4.30134381       7.37503604       0.01860846      -0.00735698      -0.00689992      -5.15794792
Li       7.23294289       2.75979284      11.63519211       0.02762788       0.01085536       0.00464062      -5.16281319
Li       5.07728076       6.79168662      10.46626703       0.00599751      -0.01357308      -0.00594518      -4.97703715
Li       0.53973654       5.32851658       2.89853316       0.03947806      -0.01302366      -0.02134635      -4.83375121
Li       2.23422824      10.09809150      12.22071597       0.03029443      -0.00858521      -0.00705559      -5.15067170
P        2.21846250       3.60782123       8.72693777       0.00450025       0.00589075      -0.00748912       3.07214451
P        0.20519317       1.30355300       4.83545846      -0.01010449      -0.00080714       0.00850115       1.92851305
O        8.78498493       1.25819074      11.31950487      -0.00383899       0.00372767      -0.02087152      -9.47283137
O        1.86478181       0.39703358       8.48051369       0.00878401      -0.01435816      -0.00989985      -8.38843268
O        1.02387813       2.94004972       9.34820455       0.01920122      -0.02759982      -0.00387782      -9.61933672
O        4.21091677       0.95909087       5.59932813      -0.00967559       0.00939760      -0.00766336      -9.32175159
O        1.76718612       4.11763168       7.23711754      -0.00208145      -0.00054369       0.01337862      -7.82477945
O        8.76122118       1.73093561       4.16900989       0.00728745       0.00648575      -0.01430817     -10.07325411
O        9.54389652       6.36627894       7.97881996       0.01312210      -0.00606424      -0.00815713      -8.14423007
O        3.43538518       2.67859489       8.66583516      -0.00746710      -0.00927992      -0.00550132      -9.64139891
Li       4.68453116       7.29194586       0.66822465       0.03334481      -0.01204089      -0.00204533      -5.01545660
Li       2.46922323       6.24890026       4.53749881       0.01041865      -0.00662096       0.00848330      -5.02019765
Li       2.35551848       7.10410535       0.62816378      -0.01559667       0.00187374      -0.00307266      -4.95789616
Li       1.69620840       4.19783448      11.37610064       0.01134308       0.00568473      -0.01308463      -4.68111949
Li       6.83410151       8.25338564       9.34532991      -0.00875939      -0.02725930       0.02258638      -4.91795698
Li       8.29658957       9.58058703      10.34976792      -0.00714169       0.00986588       0.03033325      -5.16221121
P        2.74545041       8.68339183       3.63066058       0.00676152      -0.00642037      -0.00053331       2.06936455
P        0.11920190       7.46068256       0.10116498       0.00669550       0.00631482      -0.00802097       1.15019035
O        0.73424211       6.00453645       5.63065816      -0.01126767       0.01520333       0.00891778      -9.90881658
O        3.37773684       4.47822949       1.82386959      -0.00680444       0.00185824      -0.01556621     -10.06903625
O        2.85864760       8.96039478       5.10979923      -0.00107836      -0.02465748       0.00394850      -9.44268167
O        3.66530384       6.08663868      11.83739274      -0.01115765       0.01474367      -0.00540731      -8.38194752
O        1.16923512       7.99530860       3.53308090      -0.01252270      -0.01184399      -0.01115301      -6.74877971
O        0.96906963       6.46433641      10.95834800      -0.00126864      -0.01096060       0.01664965      -4.97780249
O        9.78429414       0.68309949       1.19228201      -0.01261973       0.00176646      -0.00788132     -10.40525627
O        3.54080832       7.31000402       3.35303152       0.00583356      -0.01578231       0.01229058      -8.34251601
Li       9.27739984       9.80953788       7.25351871       0.02085790       0.03966511      -0.00019765      -5.28433499
Li       0.07094839       2.03825766       2.70111904       0.01042344      -0.00209756      -0.00242712      -5.30701600
Li       2.45513160       6.52515209      10.22928441       0.00199267       0.01592443      -0.01377562      -5.71712732
Li       9.62214338       3.80346216       6.82034342       0.01587499       0.01102261      -0.01757643      -4.91441121
Li       7.64915957       6.37777186      11.89253347       0.00683962      -0.01136867      -0.00161092      -4.97188564
Li       2.65658305       2.85699275       6.08206674      -0.00006887       0.00925697      -0.01567366      -5.14345842
P        1.49609944       9.50479774       9.05961784       0.00055346       0.00283712      -0.00696907       1.67706776
P        9.28215912       6.28082607       6.38438184       0.00334678       0.00482417      -0.00558743       2.18156099
O        8.63032254       7.95215528      11.69892018      -0.00813975      -0.00337306       0.02863829      -9.40482831
O        2.39262493       4.99560680       9.37964156       0.00605137      -0.00218526      -0.00849160      -8.54854691
O        9.72701756       9.57028524       9.41817516      -0.01247742       0.00776562      -0.00175302      -8.10245895
O        3.16010310       6.86331513       7.38553274      -0.00376544       0.00716386      -0.00699656      -8.67695487
O        1.33435685       8.81766617       7.68506907      -0.01837499      -0.01016320       0.00588633      -8.13424289
O        8.78234749       7.57432727       5.91453939      -0.01399812      -0.00069085       0.01706265      -9.82747149
O        9.71290586       0.01503402       5.75904613      -0.00122618       0.01489466      -0.00117960      -8.37642956
O        2.62310959       8.88299965      10.02773440      -0.01449795       0.01862487      -0.00717224      -8.42354226
Li       1.59469529       6.13474610       7.26728718       0.00031434       0.03705127       0.00183301      -5.30910784
Li       7.25380191       1.54586320       2.28298476      -0.00707813      -0.00666365      -0.00188312      -5.16950130
Li       7.95702246      10.39178754       4.80073595      -0.01238515       0.01342100       0.00464705      -5.00838883
Li       4.22181787       4.03924591      10.01672889       0.00168092       0.02603272      -0.02276857      -5.29471550
Li       3.23499119       1.58930173       4.05580503       0.00682594      -0.01005389      -0.02047937      -5.19826829
Li       0.22806405       8.64134484       4.96113361       0.01613647      -0.01107326       0.02987688      -5.47425503
P        6.74002407       4.78897168       2.23902142       0.00385907      -0.00232162       0.00363854       0.22036409
P        5.22716719      10.39798894      12.15507218       0.00490646       0.00450997       0.00608618       2.05328131
O        5.92207525       1.94342689       4.04368055       0.00659899       0.01173488      -0.00895289      -8.05653435
O        7.40196307       8.50175126       1.82218031       0.01386723      -0.01663003      -0.00584983      -8.78207803
O        0.16914071       2.94719087      12.26463138       0.00306080      -0.00066564       0.01753300      -9.30688262
N        6.97855371       6.29341873       2.98721431      -0.01263694       0.00108826      -0.01830400      -8.34562492
O        4.35407488       9.45217177       0.59838867       0.01371164       0.01022687       0.00317570      -9.76316345
O        3.93745344       3.70364352      11.75357553      -0.01051652      -0.00521567       0.01566110      -8.69686651
O        7.99221309       4.08782647       1.89099680       0.01099938       0.01086230      -0.00845707      -9.99039340
Li       0.61727548       3.92980655       4.62775937      -0.00671043       0.00140772       0.00498350      -4.67753702
Li       9.44746401       6.06424584       9.87116472       0.03388480      -0.02338069       0.01228295      -5.18508158
Li       4.64783364       9.63006689       9.74955460       0.01329964      -0.00866513      -0.00631811      -4.86837482
Li       6.98154228       3.46601570       4.68288818      -0.01129149      -0.01078835      -0.02478375      -5.03252964
Li       2.36608730       1.49001859      10.12884725       0.00040592       0.00455826      -0.03706567      -5.37400819
Li       0.21375477       1.68996229       7.57578210      -0.03217046       0.01506491       0.00511377      -4.84178925
P        7.09271695       4.91985369      10.04820281      -0.00496925      -0.00052161       0.01025798       2.38202858
P        5.57665867       1.69126393       5.61324022       0.00168189      -0.00817000       0.01491299       0.93709373
O        6.39651147       9.78379361      11.42173657       0.01572125      -0.01005315       0.02173330      -9.93438327
O        5.81002142       1.30774320       8.84650155       0.01244822       0.00072873       0.00491453      -7.85980320
O        6.02542554       3.86288478      10.17893997       0.00969965      -0.01130807      -0.00818561      -9.68704510
O        1.20170676       0.57122696       3.85235416      -0.00312371      -0.00507839       0.00866567      -8.65327609
N        8.37187435       4.41247132       9.33707641      -0.00725365      -0.00424134       0.00199004      -8.29237926
O        5.76725990       3.19652073       6.19265048       0.00298437       0.00688610      -0.01601449      -8.16487634
O        5.11389688       6.13236799       6.13169022      -0.00980161      -0.00751818      -0.00471457      -7.52228406
O        8.33665411       4.65332973      11.13975159      -0.01682001       0.00162416       0.00964610      -6.83458638
Li       9.65026114       1.59807347       9.66316927      -0.01172090       0.00307140       0.01162764      -5.20092697
Li       2.27085960       0.23194235       5.84662232       0.00360438       0.00443580       0.02919671      -5.14504433
Li       4.53657691       0.70897504       7.97740287       0.00799085       0.00334497       0.02180276      -5.00414078
Li       2.11556086       0.77645796       1.40063876       0.01939445       0.00233921      -0.00245688      -4.73173386
Li       6.19680040       7.99030166       6.24925608       0.00576500       0.00150222       0.00065743      -4.95436177
Li       4.36200122       4.73068567       4.80378835      -0.02323006      -0.01677207      -0.00727452      -4.93192299
P        7.56882055       8.23519620       3.31087790      -0.00515757       0.00493084      -0.00339047       3.04863644
P        4.11999980       4.82886045       0.51664786       0.00907581      -0.00413602      -0.00273372       1.56985903
O        5.53608009       7.78523771       7.90935941      -0.00763557      -0.00947567       0.00210610      -9.80313277
O        5.96277074       4.04479770       3.39964013       0.00758445      -0.00356455       0.00601698      -8.14417720
O        6.27388599       8.70307557       3.92406988      -0.01897696       0.00394860      -0.00784998      -9.73551846
O        0.88885488       8.85366812       0.40761457       0.00276827       0.00136808       0.01286619      -8.29258341
N        7.85934914       6.82441463       3.79716931      -0.00439081       0.01122325       0.02510561      -9.27329493
O        5.74649493       4.80777230       0.89812565       0.00690421       0.00311997      -0.00116902      -9.37044621
O        4.11445392       0.67218522      11.21199018      -0.00926192      -0.00678449      -0.01017139      -8.05117548
O        8.78392920       9.06996077       3.55762230       0.01252729      -0.01688370      -0.01918470      -9.55381632
Li       2.90178964       2.47865939      12.28674327       0.01713279       0.00585505      -0.00392046      -5.43344004
Li       7.33010443       5.90050103       5.13588531      -0.02619220      -0.00334701      -0.00248509      -3.88605905
Li       8.94780804       8.08935069       8.55204804      -0.00761913      -0.01815463       0.00864495      -4.97087007
Li       7.81749864       9.70609529       0.57092548      -0.01052419      -0.01652344      -0.01749495      -5.20904329
Li       9.69264426       3.97489317      10.78748622      -0.03105039       0.00608381      -0.01773074      -5.17658791
P        6.93455862       0.53130070       7.98536770       0.00227555      -0.00042464      -0.00765170       1.15098429
P        4.63485946       6.65686751       7.69823986       0.00378852      -0.00255650       0.00636462       2.66834259
O        6.96426747       6.28021440       9.48726235      -0.01390719       0.00530587       0.01519098      -9.81713796
N        8.19998371       4.91895820       6.18111424      -0.00309953       0.00602994       0.00575336      -7.74624473
O        8.15637865       1.66759633       8.36417020      -0.01184662       0.00831528      -0.01296591      -6.94593826
O        4.55974025       5.66401780       8.91103873      -0.00473581       0.00394445      -0.00400730      -8.11419249
O        6.47406195       0.65543760       6.55135704       0.00623040      -0.00237429      -0.00386971     -10.81827974
O        7.40142824       9.54262712       8.10114136      -0.01432244      -0.01714715      -0.00282958      -8.72919142
