124
Lattice="9.63908 0.0 0.0 0.0 10.3723 0.0 0.0 0.0 12.0957" Properties=species:S:1:pos:R:3 material=LiPON role="transport-series start" display_name="LiPON — NEP89 transport-series starting structure" report_figures="23_LiPON_lithium_MSD; 24_LiPON_transport_comparison; 25_LiPON_temperature_RDF" pbc="T T T"
Li       3.22218000       1.55452000       2.18581000
Li       5.67641000       2.56266000       1.88364000
Li       8.18396000       2.80103000      11.63970000
Li       0.25704200       7.46245000       4.76850000
Li       0.19633300       8.44157000       1.31825000
Li       6.59302000       0.84043800       9.88737000
P        3.34763000       3.87380000       1.15018000
P        0.91930300       0.59521800       0.15513800
N        0.98031500       3.81120000       4.08282000
O        2.12012000       6.70081000       3.37261000
O        1.84084000       4.19708000       1.30157000
O        4.83856000       0.50089100      10.83750000
O        3.51728000       3.34014000      11.85640000
O        9.46369000       9.96135000       0.31114200
O        8.22859000       6.97255000      11.33780000
O        3.93261000       3.08520000       2.30635000
Li       5.56280000       2.83043000      10.94770000
Li       0.65728600       0.34701400       3.15709000
Li       3.05971000       1.71621000      10.92450000
Li       1.03459000       5.55630000       2.21968000
Li       4.03257000       4.87311000      10.85740000
Li       0.81175800       2.94132000       2.09907000
P        1.69976000       3.07400000       8.80541000
P        9.21655000       4.03740000       4.91449000
O        1.30091000       1.08992000       1.58594000
O        3.67611000       6.19609000       9.16359000
O        2.45471000       1.74602000       9.14898000
O        3.80984000       0.93966500       4.53846000
O        0.18371700       2.70148000       8.65882000
O        9.08590000       2.64141000       5.56665000
O        0.68195500       6.15834000       8.57327000
O        2.34412000       3.57040000       7.51265000
Li       8.76317000       2.07701000       7.30121000
Li       6.66903000       3.57923000       5.52324000
Li       9.63233000       4.73746000       9.52662000
Li       1.55567000       5.72268000       5.72417000
Li       7.67153000       7.23919000       6.59050000
Li       5.68554000       8.64219000       1.79357000
P        2.46401000       8.15192000       2.83910000
P        9.31777000       6.05268000      12.02970000
O        0.91929700       7.81838000       6.50035000
O        3.99072000       5.46496000       1.16439000
O        2.09177000       8.32352000       1.38912000
O        5.87245000       5.04909000      11.56530000
O        1.61077000       9.02063000       3.80060000
O        8.94472000       4.56096000      11.76300000
O        2.01496000      10.36120000      11.33510000
O        4.01717000       8.53332000       3.04003000
Li       1.01853000       3.76534000      11.58070000
Li       0.59515200       9.89641000       5.87288000
Li       2.92936000       7.89971000       6.86262000
Li       1.80011000       2.51819000       6.03090000
Li       7.66954000       1.17402000       4.76398000
Li       1.42308000       8.27822000      10.69010000
P        4.21451000       7.59584000       9.66625000
P        0.45549600       7.56086000       7.96606000
O        1.03564000       6.41121000      11.43170000
O        1.91696000       4.25895000       9.83131000
O        5.81245000       7.31012000       9.65926000
O        3.47102000       6.41374000       6.34221000
O        3.79275000       8.87646000       8.80541000
O        1.02380000       8.55257000       8.96984000
O        2.12278000       3.20680000       4.28386000
O        3.71687000       7.66968000      11.14310000
Li       3.93349000       0.62581300       9.20396000
Li       5.91688000       0.39670700       6.74752000
Li       3.35127000       9.29615000       0.31701200
Li       8.62832000       4.76532000       7.38017000
Li       2.89877000       5.32261000       7.78816000
Li       5.09863000       8.39754000       4.80184000
P        7.44592000       3.42559000       2.87682000
P        5.56684000       0.36447900       0.04500550
O        4.31289000       1.35845000       7.03971000
O        8.85390000      10.13370000       4.21159000
O        0.39407100       1.86396000      11.51570000
N        7.99756000       4.44907000       3.92705000
O        6.44849000       1.71675000       0.26346500
O        6.35988000       4.43240000       1.91147000
O        8.54464000       2.58277000       2.14691000
Li       1.93981000       6.15176000       9.86249000
Li       8.01979000       0.73864400       1.16031000
Li       2.82858000       6.87052000       0.30555400
Li       9.22663000       1.71022000       9.92530000
Li       1.55009000       0.42014100       8.09881000
Li       4.59219000      10.27510000       3.30891000
P        6.79150000       3.46172000       8.78146000
P        3.46423000       0.43312700       6.00701000
O        6.40636000       9.36852000       0.02955020
O        9.08756000       0.15355300       7.32159000
O        5.29406000       3.81744000       8.95300000
O        9.36937000       5.24476000       5.87602000
N        7.56540000       4.81452000       8.86194000
O        2.05423000       0.64766600       6.36545000
O        5.79147000       6.58564000       6.98387000
O        6.85833000       2.82348000       7.38564000
Li       5.70274000       5.55522000       8.51139000
Li       7.25408000       6.11816000       3.55978000
Li       7.65118000       7.37055000       1.00627000
Li       4.51010000       2.95250000       4.37500000
Li       4.12363000       3.24594000       7.24529000
Li       4.49877000       6.53053000       2.90579000
P        7.66497000       9.14885000       3.86577000
P        5.64035000       5.45636000       0.94616700
O        4.95588000       4.38751000       5.66422000
O        6.40679000       2.56099000       3.50958000
O        7.64099000       8.88159000       2.35255000
O        9.26027000       6.44816000       1.43647000
N        7.89266000       7.70864000       4.46442000
O        5.90354000       6.85339000       1.56669000
O        4.60815000       0.21458800       1.18197000
O        6.38737000       9.90070000       4.40262000
Li       5.76846000       7.59413000      11.71110000
Li       8.27041000       8.98424000      11.18530000
Li       7.41961000       5.26225000      10.70780000
Li       5.17517000       8.71347000       7.58190000
Li       7.66639000       6.83965000       9.19471000
P        8.29880000       9.64480000       8.28721000
P        4.90954000       5.90110000       5.88249000
O        7.27833000       2.52388000       9.92586000
N        8.60247000       8.08252000       8.03800000
O        6.74068000       9.58669000       8.05173000
O        5.33559000       6.54649000       4.48366000
O        3.98390000       9.35937000       6.09910000
O        8.57852000      10.25820000       9.67451000
