124
Lattice="9.797106593837665 0.0 0.0 0.0 10.542271282437742 0.0 0.0 0.0 12.29388340926147" Properties=species:S:1:pos:R:3 material=LiPON role="Preparation-B construction input" pbc="T T T"
Li       2.49536478       4.45443378       0.00000000
Li       0.04608813       0.81670186       3.07347085
Li       2.49116144       1.71993602       1.55311150
Li       0.04188479       3.55119962       1.52035936
Li       0.04188479       3.55119962       4.62658235
Li       2.49116144       1.71993602       4.59383021
P        2.45584977       4.34480767       3.07347085
P        0.00657313       0.92632798       0.00000000
N        0.52656476       1.65625302       4.86810457
O        2.95235477       0.55281823       3.07347085
O        0.89820634       4.31464180       3.07347085
O        3.34748299       0.95649384       0.00000000
O        2.97584141       3.61488262       1.79463372
O        0.52656476       1.65625302       1.27883713
O        0.50307812       4.71831742       0.00000000
O        2.97584141       3.61488262       4.35230798
Li       2.49536478       4.45443378       6.14694170
Li       0.04608813       0.81670186       9.22041256
Li       2.49116144       1.71993602       7.70005320
Li       0.04188479       3.55119962       7.66730106
Li       0.04188479       3.55119962      10.77352405
Li       2.49116144       1.71993602      10.74077191
P        2.45584977       4.34480767       9.22041256
P        0.00657313       0.92632798       6.14694170
O        0.52656476       1.65625302      11.01504628
O        2.95235477       0.55281823       9.22041256
O        0.89820634       4.31464180       9.22041256
O        3.34748299       0.95649384       6.14694170
O        2.97584141       3.61488262       7.94157543
O        0.52656476       1.65625302       7.42577884
O        0.50307812       4.71831742       6.14694170
O        2.97584141       3.61488262      10.49924969
Li       2.49536478       9.72556942       0.00000000
Li       0.04608813       6.08783750       3.07347085
Li       2.49116144       6.99107167       1.55311150
Li       0.04188479       8.82233526       1.52035936
Li       0.04188479       8.82233526       4.62658235
Li       2.49116144       6.99107167       4.59383021
P        2.45584977       9.61594331       3.07347085
P        0.00657313       6.19746362       0.00000000
O        0.52656476       6.92738867       4.86810457
O        2.95235477       5.82395387       3.07347085
O        0.89820634       9.58577744       3.07347085
O        3.34748299       6.22762948       0.00000000
O        2.97584141       8.88601826       1.79463372
O        0.52656476       6.92738867       1.27883713
O        0.50307812       9.98945306       0.00000000
O        2.97584141       8.88601826       4.35230798
Li       2.49536478       9.72556942       6.14694170
Li       0.04608813       6.08783750       9.22041256
Li       2.49116144       6.99107167       7.70005320
Li       0.04188479       8.82233526       7.66730106
Li       0.04188479       8.82233526      10.77352405
Li       2.49116144       6.99107167      10.74077191
P        2.45584977       9.61594331       9.22041256
P        0.00657313       6.19746362       6.14694170
O        0.52656476       6.92738867      11.01504628
O        2.95235477       5.82395387       9.22041256
O        0.89820634       9.58577744       9.22041256
O        3.34748299       6.22762948       6.14694170
O        2.97584141       8.88601826       7.94157543
O        0.52656476       6.92738867       7.42577884
O        0.50307812       9.98945306       6.14694170
O        2.97584141       8.88601826      10.49924969
Li       7.39391808       4.45443378       0.00000000
Li       4.94464143       0.81670186       3.07347085
Li       7.38971474       1.71993602       1.55311150
Li       4.94043809       3.55119962       1.52035936
Li       4.94043809       3.55119962       4.62658235
Li       7.38971474       1.71993602       4.59383021
P        7.35440307       4.34480767       3.07347085
P        4.90512642       0.92632798       0.00000000
O        5.42511806       1.65625302       4.86810457
O        7.85090807       0.55281823       3.07347085
O        8.24603629       0.95649384       0.00000000
N        7.87439471       3.61488262       1.79463372
O        5.42511806       1.65625302       1.27883713
O        5.40163142       4.71831742       0.00000000
O        7.87439471       3.61488262       4.35230798
Li       7.39391808       4.45443378       6.14694170
Li       4.94464143       0.81670186       9.22041256
Li       7.38971474       1.71993602       7.70005320
Li       4.94043809       3.55119962       7.66730106
Li       4.94043809       3.55119962      10.77352405
Li       7.38971474       1.71993602      10.74077191
P        7.35440307       4.34480767       9.22041256
P        4.90512642       0.92632798       6.14694170
O        5.42511806       1.65625302      11.01504628
O        7.85090807       0.55281823       9.22041256
O        5.79675964       4.31464180       9.22041256
O        8.24603629       0.95649384       6.14694170
N        7.87439471       3.61488262       7.94157543
O        5.42511806       1.65625302       7.42577884
O        5.40163142       4.71831742       6.14694170
O        7.87439471       3.61488262      10.49924969
Li       7.39391808       9.72556942       0.00000000
Li       4.94464143       6.08783750       3.07347085
Li       7.38971474       6.99107167       1.55311150
Li       4.94043809       8.82233526       1.52035936
Li       4.94043809       8.82233526       4.62658235
Li       7.38971474       6.99107167       4.59383021
P        7.35440307       9.61594331       3.07347085
P        4.90512642       6.19746362       0.00000000
O        5.42511806       6.92738867       4.86810457
O        7.85090807       5.82395387       3.07347085
O        5.79675964       9.58577744       3.07347085
O        8.24603629       6.22762948       0.00000000
N        7.87439471       8.88601826       1.79463372
O        5.42511806       6.92738867       1.27883713
O        5.40163142       9.98945306       0.00000000
O        7.87439471       8.88601826       4.35230798
Li       7.39391808       9.72556942       6.14694170
Li       7.38971474       6.99107167       7.70005320
Li       4.94043809       8.82233526       7.66730106
Li       4.94043809       8.82233526      10.77352405
Li       7.38971474       6.99107167      10.74077191
P        7.35440307       9.61594331       9.22041256
P        4.90512642       6.19746362       6.14694170
O        7.85090807       5.82395387       9.22041256
N        8.24603629       6.22762948       6.14694170
O        7.87439471       8.88601826       7.94157543
O        5.42511806       6.92738867       7.42577884
O        5.40163142       9.98945306       6.14694170
O        7.87439471       8.88601826      10.49924969
