124
Lattice="9.90879 0.0 0.0 0.0 10.6625 0.0 0.0 0.0 12.434" Properties=species:S:1:pos:R:3 material=LiPON model=NEP89 temperature_K=900 phase="NVT production" display_name="LiPON｜NEP89｜900 K｜NVT production計算" report_figures="23_LiPON_lithium_MSD; 24_LiPON_transport_comparison; 25_LiPON_temperature_RDF" source_frame_index=0 relative_time_ps=0.0 pbc="T T T"
Li       2.10223547       9.90960561      10.64480470
Li       4.46117722       4.62164955      10.84478749
Li       0.72005450       8.76868234       1.13038963
Li       0.12245606       2.96305654       7.05130272
Li       8.37557754       3.89549039      11.68469149
Li       3.37705096       0.42950599       2.47443755
P        3.83323449       3.65039936       1.01428671
P        0.91051980       0.83786177       0.45053696
N        1.33165915       3.69900738       4.06147415
O        2.39323008       9.51507324       1.94634179
O        4.22674847       2.75714535       2.12895721
O        5.20781993       9.98669028       1.12493690
O        2.43503609       4.45539653       1.30086002
O        0.21008557       2.02694910      12.18897409
O        9.70280089       5.15210279      11.89458748
O        3.78504667       3.19297639      11.92301226
Li       0.98253483       1.81252666       4.47952673
Li       8.82377148       9.71762248      11.37869404
Li       8.67318936       1.01265260       1.88920818
Li       4.75653129       8.34677449       4.98475819
Li       5.26320924       4.63156052       8.47117391
Li       6.73149591       8.18417322       6.80010132
P        2.59511502       2.95659676       9.04282640
P        9.70459907       4.33419149       4.32314455
O        9.80940959      10.28213801       0.52736856
O        5.75904069       8.09055996      10.33029891
O        2.15831310       3.20260978       7.56789163
O        4.20521459       0.44277360       4.17683561
O        1.69334750       3.71184355      10.17431490
O        9.20298341       3.24065702       5.41671923
O        0.50740252       6.29766521       8.49805423
O        4.14122038       3.28084042       9.30423176
Li       7.77934072       0.64207509       6.58553998
Li       5.46778847      10.45938961       3.16303513
Li       1.26661884       4.12343777      11.98662343
Li       1.77655455       7.22223296       5.25352905
Li       7.60210123       6.93003596       9.40094645
Li       0.70306127       3.32386130       1.81229045
P        2.75307433       8.44482798       2.85187897
P        9.69462407       6.67522121      11.99366417
O        8.53561663       7.40325904       7.33260334
O        4.78122295       5.02774218       1.18526134
O        1.82964033       8.63976600       4.10901314
O        6.23467529       5.19321975      11.42023910
O        2.26812004       7.12408761       2.37129101
O        1.15745788       7.00791061      11.52199030
O        2.09936473       0.48882838      11.96289526
O        4.29869360       8.32054188       3.08761028
Li       4.63698144       9.79716116       8.48810574
Li       4.36568755       2.49051312       4.01380827
Li       3.43812778       3.14367270       6.12073577
Li       1.72087136       5.34429430       7.45833398
Li       1.68226070       0.53005720       7.59534880
Li       0.50659353       9.46252049       5.65603088
P        4.26472678       7.80130008      10.34290396
P        9.90361449       7.62714778       7.83140335
O        8.67559362       7.40030364      11.02846217
O        2.54552591       1.44590184       9.11096789
O        3.47137451       8.75067858       9.42725788
O        5.39024034       6.86939066       6.24125076
O        3.83824281       6.28500728      10.08984790
O        0.94310349       8.12478006       6.67648812
O        2.57992946       3.48812435       4.41560450
O        3.73653507       7.98983153      11.86607771
Li       2.08662354       6.79426899       9.56811829
Li       5.93954829       2.43139748       1.51401596
Li       7.11264871       7.89873293      11.42260357
Li       0.61185506       7.19435859       3.45032628
Li       8.21568870       6.82141353       4.81820083
Li       9.19351645       5.83818657       1.82986776
P        7.37059456       4.31757939       2.95547062
P        6.04996936       0.14904600       0.06234241
O        4.07611794       9.48636214       6.19208352
O        7.62507116       9.63612525       2.75915589
O        1.35902436       1.37347111       1.74808701
N        8.88577343       4.08274324       2.88292578
O        5.20035333       0.60595432      11.35880507
O        7.17118517       4.42620000       1.25791682
O        6.41255343       3.38654791       3.73820946
Li       6.54878245      10.06953875      10.01089398
Li       5.51019421       6.22890166       2.77212277
Li       2.64091306       4.85944369       3.37187752
Li       6.82376739       3.16067442       5.49308081
Li       3.57853769       9.82896523       0.23485188
Li       7.99883581       5.20721502       6.93689925
P        7.64318432       3.38714828       8.84542634
P        3.56610961       0.21604768       5.63129015
O        7.05281220       9.79160822      11.83025104
O        9.68348788       0.38430836       7.59085079
O        7.27862856       2.48975737       7.58568861
O        9.90145374       5.82437301       4.65782850
N        7.21406227       4.96754170       8.53761538
O        4.15399831       1.22773270       6.63363516
O        4.21019158       5.72009416       4.39994490
O        9.08452211       3.58351315       8.83377422
Li       3.50365970       1.61170969      11.45256907
Li       1.17797695      10.55038190       3.40170412
Li       9.89915584       4.95638882       9.98441432
Li       7.89393378       8.51646700       1.01687589
Li       3.06916762       8.12675014       7.46965105
Li       5.07231298       8.16202760       1.10899181
P        8.14649547       9.84667877       4.16849298
P        6.20320050       5.49582215       0.51327393
O        4.59114879       4.49383950       6.44339953
O        7.18676006       5.71564837       3.62642679
O        9.15992075       8.81682573       4.49280099
O        9.40172907       7.25300968       0.94280192
N        9.05445234       0.51749216       4.12507379
O        6.48233256       6.96084967       1.09514830
O        6.93136920       1.35485853       0.66070895
O        7.05652856      10.29348547       5.15206824
Li       3.01784699       6.43745801       0.03696476
Li       8.42108429       1.07755814      11.80757601
Li       5.40927199       2.28173114       7.91834184
Li       5.73164944       2.69076850      11.54235863
Li       0.72827405       1.48880036      10.35360962
P        9.10879652      10.13274715       8.69623095
P        4.28896644       5.81141608       5.85031287
O        7.13551011       2.84483246      10.26753188
N        9.78807442       8.77340302       8.93118241
O        7.59411937      10.06882811       8.46935943
O        2.93560371       6.28017909       6.59956205
O        2.06354862       0.43745990       5.36189034
O        9.31457204       0.32266579      10.08269033
124
Lattice="9.90879 0.0 0.0 0.0 10.6625 0.0 0.0 0.0 12.434" Properties=species:S:1:pos:R:3 material=LiPON model=NEP89 temperature_K=900 phase="NVT production" display_name="LiPON｜NEP89｜900 K｜NVT production計算" report_figures="23_LiPON_lithium_MSD; 24_LiPON_transport_comparison; 25_LiPON_temperature_RDF" source_frame_index=30 relative_time_ps=3.0 pbc="T T T"
Li       9.24482407       4.13974839      10.68901254
Li       3.83959466       4.39307797      10.91768914
Li       2.05944495       9.19198909      12.15754113
Li       8.86457036       1.85048581       7.82416930
Li       7.96356998       6.00664960      10.57479343
Li       2.23943760       2.13461264       2.85240923
P        4.04249284       3.70250323       1.11213605
P        1.14870622       1.14100527      12.33892394
N        1.83863916       3.60006704       4.02422952
O        1.90322066       9.44818731       2.38976562
O        4.13292532       2.51357839       2.12725075
O        5.30650380       0.23971578       1.05609597
O        2.61941041       4.41438754       0.98227161
O        0.28668636       2.41827874      12.28805133
O        8.72461378       7.44209963      11.66939483
O        4.66852000       3.17457339      12.27024728
Li       0.84671007       0.88992764       5.91683744
Li       9.77338881       9.11561365      10.69236253
Li       8.34697382       2.28299313       1.42005038
Li       5.43184570       9.16214778       4.08235782
Li       5.19142774       6.02747721       8.54857890
Li       8.48026387       9.44831019       6.08935266
P        1.70537197       2.76635610       8.89559520
P        0.31464923       3.96154296       4.65993296
O        0.43667326      10.35569184      12.36640901
O        5.70754552       7.25525081      10.51457036
O        0.10878539       2.91530319       9.05680445
O        4.41364015       9.65943917       6.01578945
O        2.18773413       3.58518660      10.16433215
O        9.82914970       2.82115534       5.55434940
O        0.85349360       6.39385247       8.16823663
O        2.08906357       3.65854105       7.71942076
Li       6.05870715       1.33777683       7.87624834
Li       3.98438034       0.13409976       2.42981763
Li       1.41003526       4.18634014      12.06557999
Li       3.07490761       8.28688031       6.17679408
Li       6.89470589       7.66858082      12.12238726
Li       0.85711297       4.86204521       2.13775313
P        2.64251185       8.24233399       3.04256012
P        0.00868440       6.69501533      12.18833689
O        9.05889843       7.50913265       6.65716581
O        5.09145555       4.94691990       1.55068876
O        2.22721059       8.27544826       4.52455032
O        6.71693623       5.04193511      11.75290210
O        2.29177308       6.88919142       2.46566446
O        1.17960546       7.67973298      12.19671715
O        2.12268980       0.99871277      11.23025801
O        4.17621769       8.42684252       2.59722450
Li       3.77825709      10.55585203       9.02656540
Li       4.87238301       4.04832730       3.64457537
Li       3.49980946       3.24125878       6.11932820
Li       2.13231245       5.18982206       6.84619698
Li       1.32363476      10.30445389       8.59501253
Li       0.58563960       0.04440153       2.67237620
P        4.15352390       7.38887372      10.56770372
P        0.23839390       7.77278235       7.72116993
O        9.68008464       6.28516834       1.21292984
O        2.35196951       1.39108390       8.77704465
O        3.86589017       8.77393435       9.71086331
O        6.02809890       6.63996171       6.42779221
O        3.29523710       6.21843611      10.19576508
O        1.39469643       8.77922171       7.23615331
O        3.06397661       3.28033321       4.31777744
O        3.73078506       7.67597944      12.17877520
Li       1.69406698       5.17404438       9.67162782
Li       6.23473677       1.45284455       2.85437101
Li       6.23746946       9.22585576      10.43712331
Li       1.34990007       9.65427487       4.72178758
Li       7.74986066       7.24790371       5.27646732
Li       0.65936165       6.92521280       5.25194605
P        7.90484384       4.30712347       3.22279946
P        6.17134099       0.22654086      12.26075414
O        2.46436361       0.50097383       5.41237682
O        7.59519824       0.30829467       2.81215889
O        1.78903073       1.28445516       1.31673267
N        9.41905706       3.97576758       3.28258442
O        5.25122082       0.45455050      11.07584096
O        7.47008959       4.27432921       1.63936930
O        7.04689964       3.10805616       3.69751400
Li       5.38323493       8.48871678       7.06737124
Li       5.68168828       6.20497208       3.00254022
Li       2.55441276       5.32883112       3.72211536
Li       5.83554087       2.28532586       5.47396966
Li       3.59663512       1.28319925       0.25998751
Li       7.04974206       5.00655227       6.58962552
P        6.82326564       3.58832289       9.01632937
P        4.00003586       0.41162162       5.54001327
O        6.84794691       9.49271881      12.15640982
O        8.97855871      10.40422130       7.56117769
O        7.20256605       3.08604406       7.62156904
O        0.75460503       5.25373498       5.32556162
N        6.89195351       5.12863814       8.71945044
O        4.45254627       1.52684162       6.52041136
O        4.54868559       5.66084774       4.37914707
O        7.81992498       3.26751671      10.13069320
Li       3.95980793       1.86900014      10.67586126
Li       0.54258714       8.11869335       1.73142718
Li       0.32028392       4.35704950       7.19597976
Li       8.33556288       7.08810132       2.15754968
Li       2.96983729       7.29088245       8.32411874
Li       5.08352666       8.06334870       1.03508387
P        8.31286494       9.79294186       3.51302334
P        6.63325372       5.26354617       0.85818119
O        4.97797468       4.42148508       6.30715302
O        7.72250028       5.68315071       3.78946739
O        8.86961014       8.81633275       2.34651428
O        0.45658948       5.53556503      11.23122252
N        9.42365197      10.30438919       4.49393019
O        6.62082360       6.73116412       1.14152584
O        7.34974564       1.37511554       0.06999043
O        7.34992282       8.99791904       4.41144909
Li       2.48787566       6.47989017       0.67257682
Li       8.66634141       9.34593507       0.24121937
Li       4.01889790       2.75078463       8.33173125
Li       6.50989434       3.24078570      11.68259398
Li       8.06390049       1.55624556      10.59657761
P        8.11661020       9.56674903       8.57329197
P        4.79558889       5.87099711       5.90004170
O        5.33209431       3.24397734       9.62377999
N        9.28661796       8.41525196       8.96325216
O        6.80201832       8.73195097       8.42655778
O        3.51902280       6.41061939       6.68254709
O        4.81296766       0.70023060       4.21392864
O        7.91252773      10.43382568       9.84867287
124
Lattice="9.90879 0.0 0.0 0.0 10.6625 0.0 0.0 0.0 12.434" Properties=species:S:1:pos:R:3 material=LiPON model=NEP89 temperature_K=900 phase="NVT production" display_name="LiPON｜NEP89｜900 K｜NVT production計算" report_figures="23_LiPON_lithium_MSD; 24_LiPON_transport_comparison; 25_LiPON_temperature_RDF" source_frame_index=60 relative_time_ps=6.0 pbc="T T T"
Li       1.17391718       0.46678210       8.71320945
Li       3.84134669       3.94669820      10.68645123
Li       3.24151909       9.91832481      11.84284444
Li       9.29933230       2.02896115       9.96602799
Li       7.87624958       7.07025322       8.86179748
Li       2.31417865       1.43489124       3.80500942
P        3.67730296       3.48964693       1.34723315
P        0.54123782       0.72915411       0.27373460
N        0.52202814       5.21616980       4.80135432
O        2.71636516       9.77080796       2.27730765
O        3.60805709       2.41540572       2.43605103
O        4.74844466      10.35136872       0.49101495
O        2.36355407       4.34486897       1.35204894
O        0.16305439       2.08066587      12.13390342
O        8.40764044       7.31239325      11.70727557
O        4.02437920       2.91022472      12.36188809
Li       1.33161538       2.02298452       6.38811940
Li       8.62842113       9.81792922      11.20459550
Li       0.88541184       8.75913162      10.49713528
Li       4.88482629       6.38799199       2.59418502
Li       7.87994213       5.16339202      10.73242671
Li       6.41302650       1.63565784       4.55186566
P        2.29219137       2.58557904       8.97630957
P        9.87579578       3.67656851       4.55170215
O        9.45771643      10.27421991       0.34721462
O        5.36981776       7.44546442      10.12471237
O        0.75145857       2.40311635       8.35841130
O        4.87219644      10.38258946       7.07700586
O        2.21155170       3.45328455      10.28853264
O        1.30166342       2.84548679       4.41922544
O        0.86735224       6.08641367       8.38219959
O        3.01117063       3.26495965       7.70793051
Li       6.38528062       0.78868984       7.71587954
Li       5.04695554      10.55879223       2.63559896
Li       1.13278367       3.84063112      12.17269778
Li       1.09493484       9.47250144       5.61563268
Li       6.68496851       7.53901850      11.82685584
Li       0.98802472       3.25982172       2.22536945
P        3.25096035       8.50786867       3.09494321
P        9.62618500       6.43235698      12.17878123
O        8.93085578       6.94199738       6.77867278
O        4.68355391       4.82234926       1.67703428
O        2.71580525       8.73600089       4.51130796
O        5.97900362       5.45106885      11.84104126
O        2.43072770       7.37181679       2.46568544
O        1.02218839       7.23281700      11.70945648
O        1.71723602       0.22834346      11.88731819
O        4.73571460       8.35934692       2.78920418
Li       4.13835454      10.58651169       8.80558291
Li       4.59190438       3.25882487       4.16676047
Li       4.84213874       3.15280016       7.58615187
Li       2.62313383       5.08987266       7.39288243
Li       8.65637511       1.64608656       7.12215157
Li       9.74855892       1.26327866       3.49136104
P        3.88437324       7.57279322      10.49243061
P        0.21897153       7.32203923       7.56624883
O        9.43737131       5.97806602       1.19901797
O        2.72276851       1.15741072       9.29454121
O        3.09803740       8.54124564       9.52555559
O        5.94566897       7.25347477       5.52483273
O        3.43669624       6.11095902      10.35766475
O        1.25208391       8.00703587       6.79272910
O        1.31251229       5.86905134       5.41230529
O        3.71659741       7.97830099      11.99737121
Li       1.83487791       5.92987359       9.89437163
Li       6.46571195       2.31904146       1.35668399
Li       6.40601059       9.12415814       9.88996768
Li       0.61808405       7.18738537       3.37254990
Li       8.06878923       8.48562752       6.42221733
Li       7.71577732       6.38579965       5.00908304
P        7.48427159       4.13165638       2.99098280
P        5.83672699       0.16081759      11.92786283
O        2.59466942       0.74183782       5.79850549
O        8.15028974       0.02937573       2.94046148
O        0.96390091       1.05477108       1.89179984
N        9.03864229       3.62627824       3.15801622
O        5.21779131       0.44741434      10.58626590
O        7.15846233       4.12407753       1.31859829
O        6.38671165       3.23755868       3.72452518
Li       5.60490755       9.12382989       5.62790054
Li       2.50083912       7.09954558       5.41311430
Li       6.43468486       7.92619079       3.62414782
Li       2.06307343       5.57934956       3.41324383
Li       2.89214003       0.95099578       1.31745836
Li       7.11600156       3.51190556       5.66186140
P        6.92670290       3.62181971       9.03399137
P        4.19110292       0.60456830       5.76714095
O        6.85071438       9.66345579      11.92961008
O        9.69977426       0.04215676       7.22416358
O        6.98707578       2.57125914       7.86118418
O        9.10668339       3.56532296       5.92535909
N        7.42789941       5.06202540       8.86722661
O        4.67258048       2.05276795       5.94153808
O        4.06855106       5.63278780       4.46806260
O        7.58423964       3.05024432      10.39546738
Li       2.73800172       1.44953393      10.98890542
Li       1.90157757       8.36302629       0.85744115
Li       9.35658527       4.12287123       7.79279087
Li       8.36011769       7.17976989       1.89739226
Li       3.14667910       7.71903292       7.70083005
Li       5.03856604       8.53595524       0.94377626
P        8.71989350       9.53618828       3.80494510
P        6.04716281       5.36417939       0.94218511
O        5.87056877       4.76002208       6.11949077
O        7.47819956       5.66801734       3.40306162
O        9.21796109       8.39469444       2.93493621
O        9.66157404       5.07891965      11.26347825
N        9.88073217      10.25778944       4.46998150
O        6.30433267       6.77834482       1.38173475
O        6.61580933       1.41742009      12.32239139
O        7.65825810       9.07064327       4.84203635
Li       2.99212335       6.08047097       0.80666635
Li       7.95542933      10.16151397       1.09333963
Li       5.38778911       5.56096292       9.79397707
Li       5.96493308       2.89628953      11.33668746
Li       8.50931391       3.77320628      12.36997793
P        9.15416144       9.84290940       8.42104033
P        5.04267134       5.98048793       5.67914435
O        5.35962180       3.77708469       9.33346741
N        9.56714378       8.35639505       8.70688573
O        7.61489252       9.93153822       8.30107592
O        4.03541385       6.35804771       6.83735351
O        4.86662816       0.28698603       4.42003127
O        9.56752766      10.49997667       9.73482809
124
Lattice="9.90879 0.0 0.0 0.0 10.6625 0.0 0.0 0.0 12.434" Properties=species:S:1:pos:R:3 material=LiPON model=NEP89 temperature_K=900 phase="NVT production" display_name="LiPON｜NEP89｜900 K｜NVT production計算" report_figures="23_LiPON_lithium_MSD; 24_LiPON_transport_comparison; 25_LiPON_temperature_RDF" source_frame_index=90 relative_time_ps=9.0 pbc="T T T"
Li       1.82169331       0.14547515       7.87698958
Li       4.57502866       3.92687425      10.25714205
Li       8.74744679       9.13816624      11.52936402
Li       1.43910174       9.54517326      10.78700587
Li       0.76981490       7.01824655       9.91607529
Li       2.32557359       1.44963970       3.21816763
P        3.59620962       3.57965092       1.00100503
P        0.50415583       0.84691538       0.58985921
N        0.92460405       4.75502839       4.00660132
O        3.09780010      10.35810982       2.68166131
O        3.72491820       2.25041806       1.79238819
O        6.89992865       9.48255600      11.41863083
O        2.34347761       4.35537805       1.05480537
O        0.28696609       2.43493830       0.49420927
O        8.28159493       7.10034671      11.55324639
O        3.78293803       3.06943454      12.05801167
Li       2.05844723       2.75341521       5.86332405
Li       8.55339089       0.69066376      10.65518546
Li       2.31614401       8.59573227       0.39284998
Li       5.65703071       6.98369977       3.30666189
Li       9.62564178       3.83086238      10.03976036
Li       7.99220620       5.90013817       5.37351844
P        1.95796163       2.46234858       9.15030703
P        9.68658108       3.80752559       4.60691945
O        9.07261615       0.14130197       0.11967452
O        5.29213498       7.33258722      10.17073972
O        1.18137846       2.45855408       7.82426239
O        4.81533674       0.27787808       7.46855949
O        1.37473267       2.80548183      10.41853439
O        0.55525158       2.36831386       4.95260289
O        2.11357368       6.91799042       6.59407988
O        2.97852345       3.75621838       8.95036012
Li       5.07698087       1.44293383       8.76202922
Li       4.68467268       7.76868542       1.33165419
Li       1.10821893       3.77917674      12.08190944
Li       0.79031632      10.65120921       5.18438044
Li       8.06082674       7.06453353       2.37590095
Li       8.08220846       2.48333835      12.26715603
P        2.73733084       9.02022309       3.30165889
P        9.66363966       6.72391903      12.10800892
O        0.13497177       5.91698147       7.98043436
O        4.73146765       4.63254308       1.63445202
O        2.03523274       8.96049490       4.66487963
O        6.01702987       4.95783789      11.79687789
O        1.82450691       8.15828158       2.27460685
O        0.62823729       8.10137513      11.93307846
O        1.81590200       0.12706558      12.39998073
O        4.07460248       8.08675825       3.36353836
Li       4.26975135      10.03178539       9.36245179
Li       7.04059579       3.07549913       5.25107307
Li       4.36402346       3.88207881       7.58538110
Li       2.81803173       5.39911597       8.15628068
Li       9.48704003       1.68645078       7.61000780
Li       9.15405439       1.52740245       3.51773351
P        3.71875014       7.49680561      10.44390482
P        0.57240250       7.03309624       6.97576518
O        9.65645692       6.37016534       1.20175915
O        2.67302960       1.07194230       9.30579849
O        3.09635398       8.80743821      10.02445575
O        6.64061970       6.26262048       6.44018489
O        2.63327390       6.44660889       9.84046736
O        9.48896102       6.97413763       5.76133621
O        2.04825609       5.37842570       3.61388069
O        3.41601116       7.54042493      12.05652619
Li       2.94384750       5.59624439      11.64560535
Li       5.96449007       2.24887513       1.68331802
Li       6.16879725       9.47920670       7.00445597
Li       4.81304819       3.64323550       4.37810866
Li       5.06945946       0.35287129       3.18847468
Li       7.66444973       7.97203718       6.00268032
P        7.64941063       4.29788315       2.96777479
P        5.76182071      10.39343005      11.89676908
O        2.66987982       0.36822412       6.22002193
O        7.18281492      10.64351040       2.89743855
O        0.72800056       0.56710014       2.18085648
N        8.85409882       3.44291497       3.23164773
O        4.83928117       9.81192011       0.54751323
O        7.32192217       4.31811242       1.38156661
O        6.38416878       3.70856656       3.57331702
Li       5.00651872       8.92892282       4.70354372
Li       2.90676573       6.70040423       4.74886994
Li       7.69456661      10.53873368       1.00196158
Li       0.14564642       4.32015205       2.10220161
Li       3.49428494       0.44416137       1.07872990
Li       7.94783879       5.02533418      11.06249727
P        7.40400170       3.06867915       9.10542581
P        4.14730532       0.88854559       6.17444436
O        5.04550528       0.24082842      10.57688236
O        9.81161376      10.57656619       7.05856352
O        7.78412534       2.22206940       7.84836762
O        8.83619013       4.15081365       5.78607165
N        8.23666105       4.40722314       9.31633158
O        4.00694459       2.47359908       6.14222690
O        4.63767310       5.72886111       5.32592890
O        7.74432588       2.35238743      10.50790023
Li       2.94280349       1.33158764      11.31876587
Li       0.18778238       8.86645718       1.48761398
Li       7.70413463       5.79301478       8.00198058
Li       0.71300915       7.27672414       3.90580079
Li       3.18442471       8.66942076       6.43972584
Li       6.31367994       7.62575372      11.87148087
P        8.01807971       9.62313568       3.66876564
P        6.09266537       5.19766683       0.93162018
O        4.64308967       5.69747202       7.84830133
O        7.98095366       5.70361983       3.43678530
O        8.61162775       8.72765669       2.61111075
O        0.32464079       5.51139632      11.31658133
N        9.02977042      10.54795640       4.49695159
O        6.18455598       6.74442518       1.28281303
O        6.25369408       1.13933706       0.26811753
O        7.04401927       8.93034819       4.77139561
Li       2.49453014       6.24438391       1.95885967
Li       7.15281724       8.92234475       9.55283624
Li       5.68727784       5.68993881       9.41860033
Li       5.59386380       2.16208422      11.19249727
Li       0.03766497       3.91777797       7.41682632
P        9.26263488       9.43560797       8.05890251
P        5.11998653       6.42439118       6.57373544
O        5.88907671       3.47775156       9.25111719
N        0.34480635       8.26391798       7.97259410
O        7.81768427       8.93388306       7.80642854
O        4.80318187       7.97320862       6.70376916
O        4.89368298       0.34262045       5.02455195
O        9.37786422      10.05027893       9.42066289
124
Lattice="9.90879 0.0 0.0 0.0 10.6625 0.0 0.0 0.0 12.434" Properties=species:S:1:pos:R:3 material=LiPON model=NEP89 temperature_K=900 phase="NVT production" display_name="LiPON｜NEP89｜900 K｜NVT production計算" report_figures="23_LiPON_lithium_MSD; 24_LiPON_transport_comparison; 25_LiPON_temperature_RDF" source_frame_index=120 relative_time_ps=12.0 pbc="T T T"
Li       2.49391633       2.30243482       5.44414570
Li       3.98733574       4.38707586      10.48917859
Li       8.10184240       9.85291061      10.93535320
Li       1.51268695      10.33676955      10.91361021
Li       0.88080464       8.41836749       9.87327730
Li       0.62737084      10.43114889       3.06601432
P        3.48363422       3.86258614       1.13155359
P        0.60533177       0.95620476       0.14493632
N        1.55950612       3.76099076       4.40147443
O        2.93504928      10.37536757       3.36050536
O        3.17715606       2.95278258       2.33925313
O        6.72974780       9.66952698      12.16270704
O        2.74515280       5.21747947       1.03676438
O        9.49650882       0.34612374      11.52356658
O        8.39868587       7.07963024      11.51162402
O        3.59511847       3.31221310      12.12321241
Li       4.77655998       3.38670350       7.36697585
Li       6.83213675       0.28708009       8.63171709
Li       3.14017355       9.61836389       0.43157091
Li       6.34651296       6.47565211       3.24804775
Li       0.05536923       4.46607508       9.39881450
Li       7.77067882       6.35714635       4.99897458
P        2.10865268       2.86602742       8.94408495
P        0.09223079       3.01442643       4.45655729
O        0.14477485       0.62062732       1.60188400
O        5.55325708       7.56388419      10.04913790
O        2.58832316       3.18895184       7.43924669
O        4.85276231       0.22370239       8.07794418
O        0.54809136       2.83322259       8.72601128
O        0.62367194       1.48864085       4.28532207
O        1.77848327       6.88087440       7.10546242
O        2.48878332       4.23216203       9.70052343
Li       1.04609110       0.97989620       7.34008586
Li       5.72814287       9.00095010       1.55451038
Li       0.31022819       1.74152223      10.35972867
Li       8.04442446       0.03080953       5.62553074
Li       8.58902212       6.48690006       2.41149108
Li       8.46510017       3.02929519      12.02537170
P        3.07797871       8.80394352       3.11746276
P        9.74254011       6.44926140      12.06189380
O        9.68314636       5.62285313       7.97826731
O        5.17770853       3.99265125       1.48395070
O        2.33946294       7.98657901       4.30145686
O        5.83308542       4.96832663      11.65597993
O        2.30270254       8.22934414       1.85856717
O        1.01183124       7.47536109      11.67975775
O        2.05454578       0.52070194       0.02462951
O        4.58746725       8.32778978       2.98430327
Li       3.23008756       1.63237175      11.52429078
Li       8.05930262       4.89143115       7.30013957
Li       4.14321309       1.66131647       8.99205233
Li       2.93130025       5.46263374       8.19038759
Li       8.72763271       2.03045631       7.62068935
Li       7.06823157       3.61379118       5.61534366
P        4.03656642       7.82591596      10.54590184
P        0.22667115       6.94887979       7.15772872
O        9.70209950       6.12171441       1.09977910
O        2.56501372       1.61220321       9.72265258
O        3.35493543       8.91300485       9.75294815
O        6.85727939       6.39970877       6.70999332
O        3.45812567       6.45730764       9.97978279
O        9.64639963       6.62284223       5.64434727
O        2.14216494       4.88620436       4.48994986
O        3.82649390       7.89007959      12.10143291
Li       2.41203582       6.03149624      11.59707330
Li       1.91786200      10.50342924       5.01738930
Li       7.90323757       8.07550249       6.78670046
Li       4.42821989       4.54801308       3.78432144
Li       6.47842275       1.37624836       2.45010022
Li       5.43540860       8.82147518       8.45574160
P        7.96299920       3.93726200       2.81563838
P        5.67449900       0.26303266      12.21862308
O        2.86946678       0.02338785       6.48844062
O        7.26841352      10.20443242       2.71894199
O        0.46643557       2.52192153      12.20244705
N        9.40887694       3.28247143       3.00880267
O        4.73121972      10.47802863       0.95408613
O        7.57826361       4.14770577       1.28203301
O        7.08411579       2.85335870       3.41130763
Li       5.62473837       8.39768682       4.79464742
Li       3.03002613       6.37692696       5.43166071
Li       8.09123224       0.27095356       1.02701700
Li       0.91431398       4.06060773       2.25266272
Li       3.68110539       0.91269649       2.21380634
Li       6.28920670       7.37882224      11.85052744
P        6.83241872       3.20614740       8.97031380
P        4.46642620       0.37084115       6.50252285
O        4.93009812       0.77325449      10.95057922
O        9.30402628       0.17608531       7.12918208
O        7.03074821       3.09985900       7.40480547
O        9.04956043       3.27184322       5.82675033
N        7.24855434       4.66689488       9.34966560
O        4.76918655       1.82930125       5.87246505
O        5.22689551       6.31580503       4.75503020
O        7.59894711       2.09402152       9.71502149
Li       1.78668840       3.84988682      11.53441983
Li       0.73157683       8.65766681       0.93730319
Li       7.72820345       6.69740457       9.38808344
Li       0.46407893       7.78928076       4.41249956
Li       2.85297856       8.54689438       6.31269881
Li       4.44869740       6.63830319       0.98878701
P        8.15205863       9.13535323       3.35233559
P        6.15263290       4.82471775       0.68019593
O        4.58640440       5.23671947       7.19964439
O        7.86800570       5.23997815       3.54736315
O        9.12209876       8.36671390       2.24951385
O        0.13320757       5.05049319      11.36839449
N        9.09464790       9.77523042       4.34648012
O        6.09178688       6.31844102       1.18276961
O        6.64510030       1.32937603       0.37765027
O        7.45319744       8.00492486       4.18767328
Li       1.59224537       6.49371520       1.70832924
Li       3.11075131      10.41715896       8.71352076
Li       5.53143518       5.36823953       8.87300337
Li       5.46519713       2.71210184      11.43344730
Li       0.57632823       4.01144673       7.18713372
P        9.31175796       9.81361484       8.26794908
P        5.33969087       6.35386716       6.43098667
O        5.32406884       3.23881078       9.38422696
N        9.58571222       8.31779768       7.75337538
O        7.94425872       9.66810252       9.01577156
O        4.54314541       7.64234297       6.91442126
O        5.36297652      10.05369638       5.74545459
O        0.58889919      10.21676468       9.34289657
124
Lattice="9.90879 0.0 0.0 0.0 10.6625 0.0 0.0 0.0 12.434" Properties=species:S:1:pos:R:3 material=LiPON model=NEP89 temperature_K=900 phase="NVT production" display_name="LiPON｜NEP89｜900 K｜NVT production計算" report_figures="23_LiPON_lithium_MSD; 24_LiPON_transport_comparison; 25_LiPON_temperature_RDF" source_frame_index=150 relative_time_ps=15.0 pbc="T T T"
Li       0.37746053       1.40177494       7.50107425
Li       5.16260212       6.15188538       8.67535228
Li       8.84044611       8.87370795       0.43684477
Li       1.06002443       7.96637577       9.68438673
Li       2.32118374       4.77761829      11.62013159
Li       0.54647080       8.62996541       2.05947947
P        3.26690224       3.50168604       1.33813525
P        0.83219893       0.19624108      12.36361766
N        1.06715390       3.88307266       4.73189098
O        2.98169552      10.44198713       2.54659853
O        3.33359761       2.36847787       2.36398582
O        6.86826286       9.76934844      11.58154979
O        2.04229294       4.42012189       1.55573101
O        0.26395721       9.64310196      11.42731679
O        8.36962225       7.00772515      11.15092266
O        3.53742334       2.90818801      12.33359897
Li       4.69161006       3.53694170       7.75245470
Li       8.79519517       0.40698852      10.84679810
Li       5.25395614       9.05972320       4.63096520
Li       5.79845359       6.84884493       3.13182917
Li       0.82379220       4.98644279       9.35662633
Li       7.54437005       6.92169222       5.13059288
P        2.18649216       2.69551020       9.24214708
P        9.87237031       2.66376432       4.34414037
O        0.17594699      10.46803535       1.33518089
O        5.22405624       8.03707068       9.23158422
O        1.81734049       3.46812381       7.87993886
O        4.28994003       0.27468116       7.70118962
O        1.49092392       3.60170019      10.30436597
O        0.71905491       1.38845109       4.00361952
O        1.44814225       8.30379377       6.74902383
O        3.72222184       2.83351812       9.31344952
Li       3.95982429       9.92931771      12.27081784
Li       2.66824078       3.17059322       6.22073804
Li       0.78139397      10.36257835       9.64994345
Li       0.18266960      10.41390424       4.79159605
Li       7.99574350       6.49682547       1.78054927
Li       6.82155319       2.91568685      11.68549403
P        3.01083958       8.81892740       2.67292542
P        9.47743810       6.37397940      11.91567984
O        0.90736924       6.14045266       7.84814899
O        4.56212574       4.54871431       1.72535616
O        2.13143441       8.46247784       3.94154461
O        5.78639574       4.70243930      12.05152094
O        2.55140535       8.08303645       1.42368479
O        0.91004833       6.54806106      11.15286015
O        2.34180900       0.19932818      12.20362870
O        4.40268736       8.37104636       2.99332781
Li       3.48061080       1.55371430      11.28012423
Li       9.86548469       5.68737511       4.32564080
Li       4.85097536       0.72642020       9.29312723
Li       2.52967565       5.57078542       8.28296903
Li       7.36560901       1.11963053       8.15274925
Li       7.20722412       1.98692318       5.70470810
P        4.01162889       7.71677058      10.20025197
P        0.29489317       7.40643926       7.12055051
O        9.68448136       6.93386885       0.95070100
O        1.59533903       1.29462446       9.05436404
O        2.83150289       8.65529113       9.76963986
O        6.27560716       5.94093986       6.49713356
O        3.67193040       6.15801373       9.95007545
O        9.40943669       6.92229799       5.84281213
O        1.78796895       4.86959650       4.70333783
O        4.49847020       8.16256767      11.76226890
Li       4.36405726       7.45164531       1.13497152
Li       2.66703082       0.96262724       4.32898684
Li       7.02173796       8.81659197       9.96869527
Li       4.75968806       3.58702174       4.55168317
Li       5.35205151       0.77784662       2.65418906
Li       5.27305253       9.22680151       7.45553514
P        7.56183617       3.91434657       3.27373153
P        6.28620230       0.47154261      12.05036181
O        3.07918402      10.52301023       5.50358001
O        7.22256546       0.11433003       3.33102603
O        0.11888858       1.54561179      12.02076455
N        9.00513485       3.15287765       3.16576240
O        5.27850172      10.59589204       0.71063559
O        6.77505106       4.03931863       1.71077440
O        6.74175006       3.43873944       4.52759038
Li       2.85575068       8.65950041       5.87803867
Li       3.16651932       6.18996490       3.78773065
Li       1.29404423       0.56501787       2.55420911
Li       0.36768019       4.08772051       2.01461515
Li       3.66183713       0.85585604       1.31049012
Li       7.13838658       5.58750728      10.78523050
P        7.44211197       3.82550994       8.80170327
P        4.23886038       0.66376420       6.22122894
O        5.43954032       1.25915696      10.91320279
O        8.97792358      10.38116540       6.56068048
O        6.49592954       2.88859660       7.90069811
O        9.11544772       2.57890500       5.77949035
N        8.63585682       4.44103640       7.97112559
O        3.92239936       2.17549719       6.12946533
O        4.62857585       5.65585043       4.60585367
O        8.01734079       3.08414569       9.98679094
Li       9.90598005       3.18169928      11.30536452
Li       6.40676581       8.15943070       0.48087787
Li       7.58789321       4.47128439       6.43910861
Li       2.69335071       9.90661219       7.87715384
Li       7.09144459       9.92270525       5.90685119
Li       8.40729472       1.09523866       1.86451782
P        7.64771945       9.33256752       3.23623442
P        5.85068469       5.01172976       1.02221484
O        3.84086624       5.47867951       6.95631157
O        8.20726287       5.33766145       3.42110624
O        7.98156013       8.73134463       1.83257919
O        9.16366646       4.87219267      12.00964208
N        9.11300461       9.14001501       3.87407293
O        6.05679641       6.45927441       1.38014459
O        7.50464240       1.23432849       0.21372720
O        6.83302437       8.43118419       4.19475213
Li       0.45012121       7.87456425       4.62824060
Li       1.75224970       8.19250748      11.86802090
Li       7.77016119       6.30925590       8.15387233
Li       4.53884506       4.29519409      10.33532041
Li       0.72500398       4.35627095       6.61814189
P        8.69310560       9.66557261       7.90041426
P        4.75677504       6.27069498       6.09870020
O        6.49121208       5.06388569       9.23629689
N        9.38095142       8.19643898       8.15776151
O        7.26365162       9.30555076       7.87813729
O        4.63233395       7.81225420       6.05685460
O        5.61296005       0.24665841       5.59648704
O        8.85700454       0.05792643       9.07236607
124
Lattice="9.90879 0.0 0.0 0.0 10.6625 0.0 0.0 0.0 12.434" Properties=species:S:1:pos:R:3 material=LiPON model=NEP89 temperature_K=900 phase="NVT production" display_name="LiPON｜NEP89｜900 K｜NVT production計算" report_figures="23_LiPON_lithium_MSD; 24_LiPON_transport_comparison; 25_LiPON_temperature_RDF" source_frame_index=180 relative_time_ps=18.0 pbc="T T T"
Li       9.88019737      10.40981780       9.06321939
Li       5.14570413       5.49100713       9.26598875
Li       7.61520583       8.71247522      11.29349322
Li       1.43027466       7.83280897      10.48980679
Li       3.08987514       4.82984281      10.93789434
Li       9.55383919       8.32219404       0.66568132
P        3.24313358       3.60683914       1.68554493
P        0.49191910       0.07651390      11.76067596
N        1.17565648       4.03491259       4.70800336
O        0.89851024       8.26506168       2.73829283
O        2.56311804       2.33811183       2.27889902
O        6.62076269      10.53090530      11.08416372
O        2.89649649       4.88822509       2.37700708
O        0.08244905       9.37460190      11.68812557
O        8.89918605       6.62265931      11.73066165
O        3.29746303       3.60162333       0.11855750
Li       5.21131168       3.39820430       6.71906498
Li       7.93287929       1.05855736      10.12642558
Li       4.96585142      10.64533112       2.11637837
Li       6.84583932       6.60162502       3.70003310
Li       1.12605805       5.26637260       9.38422297
Li       0.72410921       5.04342521       6.72377942
P        2.64197235       3.31085791       8.53962030
P        0.12688283       2.61451466       4.39579731
O        0.07548159       0.78239582       0.76636688
O        4.27641238       9.07380362       9.63371756
O        2.15806589       4.58028011       7.66117547
O        4.62835539       0.36352141       7.52546888
O        2.27442505       3.39458768      10.15286897
O        0.78336115       1.17141098       4.02413962
O        1.54630417       9.86911181       7.79666699
O        4.24360919       3.44544753       8.51886298
Li       2.87254088       9.66981093       0.08015783
Li       3.05683320       4.36361545       6.03604513
Li       0.28846500       0.63183381       6.19620371
Li       6.91405435       9.03854547       5.78593553
Li       9.05054211       6.93192738       2.87201776
Li       7.75587240       2.88869913      11.96205850
P        2.35133427       8.74689115       2.55984343
P        0.01644856       5.66964085      12.36026893
O        0.88069540       7.25541377       8.55064677
O        4.90366152       3.39353271       2.22860022
O        2.79223485       8.05288513       3.90527259
O        6.07940012       4.61849340      12.37194786
O        3.18309677       7.88217876       1.61220170
O        1.22374125       5.96005684      11.42631859
O        1.97007923       0.28787364      11.26366799
O        2.59143187      10.26724835       2.34803229
Li       2.87243813       1.90593870      11.56325374
Li       1.59039603       5.98971278       2.68444959
Li       2.88194881      10.52243426       9.56555266
Li       2.64056966       6.36742970       8.00760293
Li       7.64659678       1.41841086       6.88118214
Li       6.86948916       1.37537625       3.87689819
P        4.23378922       7.81596911      10.57328485
P        0.82767602       8.42741881       7.44224209
O        0.11887269       6.00556887       1.49091015
O        2.02635258       2.13972862       7.85265494
O        3.04363922       8.08929288      11.55602936
O        5.60261104       7.43345353       5.22308373
O        3.73676610       6.59141358       9.64936519
O        1.20068986       7.86601703       6.09669266
O        1.60512529       5.19879217       4.46465572
O        5.69295702       7.41181557      11.30096729
Li       4.13883550       6.50657810       2.84447813
Li       2.96237431       1.14521210       3.67835664
Li       5.89077712      10.13054289       9.36770034
Li       5.17671477       3.66631676       4.07602567
Li       4.92305440       3.11979613      12.05424407
Li       6.43765995       7.19776777       9.02513685
P        8.02364238       4.01309594       3.47748411
P        5.63214091       0.70048730      11.89205542
O        3.96268340      10.33112909       5.14150308
O        7.74499582      10.58328995       2.88524171
O        9.71856613       1.13060230      10.69389946
N        9.16987829       3.05805891       3.09766118
O        4.80073681      10.49695351       0.46230538
O        7.55517094       4.29859098       1.90516831
O        6.92831388       3.24994774       4.24732075
Li       2.23026286       9.55191763       5.37135739
Li       2.46165967       6.85662254       5.22641437
Li       9.64555268       9.85265993       2.91703482
Li       0.11842813       2.80978387       1.47171866
Li       1.31509578       0.85316283       2.12281181
Li       6.95355253       6.21033557      11.77476948
P        7.63953198       4.18588836       9.03063716
P        4.70740621       0.68012659       5.96239877
O        4.66663002       1.44969318      10.93865155
O        6.69235298       8.80860915       7.85394257
O        6.99434018       3.51089993       7.78215405
O        9.29802236       2.37379041       5.76639472
N        9.11738430       4.57274077       8.82141534
O        4.17776682       2.13100302       5.67364338
O        4.71945182       5.00620655       5.52066942
O        7.53676815       2.93901937      10.08070300
Li       0.69439125       2.82528023      11.31919157
Li       5.46480063       8.12822884       0.77290591
Li       7.34809115       4.37781915       5.98044807
Li       4.13862993       8.83589679       7.57577444
Li       4.52543873       8.47738926       4.25557664
Li       7.90447063       1.13818445       1.41447464
P        7.30540846       9.12624377       2.84370632
P        6.00100984       4.52741483       1.50252732
O        5.90594394       6.14076358       7.42666739
O        8.43582525       5.32652764       4.14133332
O        7.69631376       8.32303974       1.44985750
O        9.62344190       4.10973028      12.29304220
N        8.13416874       8.33101691       3.96490109
O        5.86744971       5.99983231       2.06721364
O        6.48356282       1.72736726       0.13144947
O        5.86664366       9.17747442       3.06042280
Li       9.89231590       7.83205454       4.33824423
Li       2.91310957       6.59034155       0.28156629
Li       8.84593525       6.39878789       9.51434799
Li       4.90749075       1.85926186       9.01662204
Li       9.89384097       2.97994217       8.04946780
P        8.13583600       9.15792540       8.11909113
P        4.92403471       6.38461639       6.17674924
O        6.89975016       5.44866265       9.71292060
N        9.23075776       8.78283588       7.04064972
O        8.37122489       8.25238997       9.49786679
O        3.66356201       7.12148000       6.88303282
O        6.26378192       0.58644635       5.51597239
O        8.31047579       0.02311694       8.45336891
124
Lattice="9.90879 0.0 0.0 0.0 10.6625 0.0 0.0 0.0 12.434" Properties=species:S:1:pos:R:3 material=LiPON model=NEP89 temperature_K=900 phase="NVT production" display_name="LiPON｜NEP89｜900 K｜NVT production計算" report_figures="23_LiPON_lithium_MSD; 24_LiPON_transport_comparison; 25_LiPON_temperature_RDF" source_frame_index=210 relative_time_ps=21.0 pbc="T T T"
Li       0.80561274       0.83491268       7.39081624
Li       6.54624054       6.75090195       8.59114751
Li       6.18941004       9.16350237       9.51990869
Li       0.29894777       8.88407897      11.83461358
Li       2.06250998       7.92678726      10.07045647
Li       8.60206377       8.13678486       1.88288451
P        3.51550980       3.76496076       1.61868306
P        1.05447393       0.37328844       0.52691324
N        0.70775877       2.93317190       5.34603987
O        2.08099569       6.57852818       4.69482000
O        3.80775833       2.28573742       1.98028212
O        6.52618685       0.26486882      10.16318405
O        2.34011962       4.29844865       2.55911104
O        9.71205344      10.17774362       0.73259782
O        9.08524227       6.86386929       0.52740238
O        3.62585200       4.23897420       0.21603616
Li       5.88915544       3.96081679       6.39260123
Li       8.16274691       1.23767599       9.68779716
Li       2.22126704       8.22668812       0.51056069
Li       3.37894798       5.11815867       4.08206344
Li       0.54914626       6.78791208       8.97136933
Li       0.11002892       4.14013639      10.27291798
P        2.28964399       3.69788528       8.79789876
P        9.62741969       1.79387073       4.54999136
O        2.06382323       0.12603491       1.65070728
O        4.16316497       8.77478220       9.70479294
O        1.39290197       4.87003491       8.42381790
O        3.87500605       0.33711655       7.16982489
O        2.39118156       3.53885142      10.37496671
O        0.37209036       0.43661414       3.90937235
O        9.71353503       7.43271871       6.49428189
O        3.59300633       3.86685379       8.03505320
Li       4.91392680       7.52846178       1.62807120
Li       3.88723188       8.24215892       7.95080833
Li       0.64417230       9.92186917       2.70204830
Li       9.15310846       9.65900649       5.07368180
Li       9.21740253       6.08123145       2.59354302
Li       7.96680391       3.15591162      12.27569147
P        1.83631922       7.48033498       3.42818949
P        0.03361505       6.11733496      11.96092310
O        0.85121529       9.72495823       6.45843371
O        4.94470076       4.60524673       2.25541231
O        2.04164391       8.89343356       3.92550328
O        6.34595735       4.34621071      12.31129917
O        2.82536404       7.13123198       2.20038143
O        1.17668300       7.11105671      11.71095235
O        1.75758860       0.00275094      11.65061514
O        0.24449247       7.13988398       3.26475238
Li       3.44051147       1.90977236      11.76513551
Li       0.92287961       5.00374526       4.60267247
Li       1.32932119       1.09332976      10.10014635
Li       2.91296013       8.07730392       5.76838792
Li       8.00193746       8.43775358       6.52137964
Li       7.06496098       1.23449086       4.68565009
P        4.48415761       7.56175993      10.66798646
P        0.79262059       8.36701161       7.23582777
O        0.85920255       4.85404212      12.34721705
O        1.65818797       2.39262937       8.30775887
O        4.06222726       7.83415185      12.11165063
O        4.43059856       7.76179191       5.13537335
O        3.44390790       6.35218962      10.13455609
O        2.27620064       7.84581700       7.34783123
O        1.96106041       3.41241334       5.26645544
O        6.02915462       7.36563486      10.68756325
Li       4.81703752       4.38370745      11.02642361
Li       2.35982808       1.44893932       2.86309863
Li       3.63756670       9.98828880      11.48437840
Li       5.23238340       2.94121201       3.76112991
Li       4.78062756       5.32507254       8.72070954
Li       6.17697007       8.76647139       4.58644815
P        8.05089780       3.74769052       3.49193727
P        6.01446468       1.23811674      11.32170434
O        3.92002155       0.02391918       4.78619762
O        6.77661979       0.72149881       2.66595769
O        0.41354900       1.88967301       0.60771524
N        9.07216804       2.62641205       3.35088505
O        4.79601751       0.61517352      12.10590391
O        7.81619691       4.04612701       1.98700116
O        6.83604816       3.29282665       4.24131783
Li       2.04288693      10.26812008       5.06454716
Li       2.30231482       5.88082586       7.34921615
Li       8.02847068       1.82379556       1.59208848
Li       0.62242313       2.93882136       2.29184260
Li       1.90569594       5.75532700       1.25732258
Li       7.18228428       5.68303842      10.84645426
P        7.44236619       3.92085181       8.76958436
P        4.80991294       0.47214874       5.91037711
O        5.57418854       2.54558212      10.59811864
O        7.83377784       8.56049759       8.40162871
O        6.74187377       2.83731862       8.03369715
O        8.74593999       1.27043783       5.69500196
N        8.04385942       4.69563159       7.53218670
O        5.04089050       1.98072503       5.68555865
O        4.73403237       5.29523185       5.42067217
O        8.54839152       3.29744662       9.77130800
Li       1.54984469       3.19659742       0.12896402
Li       7.08998583       7.46176008      12.42922939
Li       7.77044976       0.67582486       7.16767086
Li       3.39123623       3.19919620       6.41335068
Li       4.07160039       9.06913041       3.79141355
Li       4.57866638       0.68977639       1.82675089
P        6.75096202       9.85594648       2.33840349
P        6.29913391       4.70455896       1.36953576
O        6.76594670       6.92417967       5.70854652
O        8.62348608       5.00089766       4.22484842
O        7.03399852       9.30340933       0.92012759
O        9.16395782       5.97668984      10.43623553
N        7.69437245       9.10817457       3.40147717
O        6.46112485       6.30392247       1.35516706
O        7.28573841       1.31358088      12.16303527
O        5.38019504       9.14765508       2.62086766
Li       8.49162780       6.11296185       5.59804975
Li       2.21126078       5.27311231      11.22382920
Li       8.00383212       9.89231419      11.92993037
Li       4.94152476       2.40121996       8.97951093
Li       9.84334510       3.92818656       6.92586950
P        8.92311175       9.33794957       9.08169761
P        5.25771751       6.64363037       5.85406536
O        6.53698030       4.97367517       9.49898849
N        0.47773907       8.73982212       8.77263414
O        8.99102324       9.06358371      10.56532765
O        4.94553883       6.73004260       7.44435174
O        6.26016446      10.39275598       5.86558448
O        9.04056157       0.07499423       8.63604233
124
Lattice="9.90879 0.0 0.0 0.0 10.6625 0.0 0.0 0.0 12.434" Properties=species:S:1:pos:R:3 material=LiPON model=NEP89 temperature_K=900 phase="NVT production" display_name="LiPON｜NEP89｜900 K｜NVT production計算" report_figures="23_LiPON_lithium_MSD; 24_LiPON_transport_comparison; 25_LiPON_temperature_RDF" source_frame_index=240 relative_time_ps=24.0 pbc="T T T"
Li       7.60505629       9.97649104       6.63874602
Li       7.67991064       2.02063413       5.84213588
Li       5.64701571       9.63311707       8.79337701
Li       1.06566909       7.90723300      10.62512630
Li       1.97982850       5.84242488       6.42746234
Li       9.01388706       9.23804764      12.41018922
P        3.86896023       3.86633010       2.04504084
P        1.16166269       0.26674874       0.90124009
N        0.64900810       3.45465952       5.55420258
O        1.83793402       6.61322516       4.65092168
O        4.30540394       2.36640423       1.72217310
O        5.91743710       0.78448838       9.89105884
O        3.09422485       3.96724253       3.36811681
O        1.64257703       9.99895372      12.20952265
O        1.48635089       6.99454790      12.17226029
O        2.99376035       4.27439087       0.83876108
Li       4.29123946       3.88575329       7.06845733
Li       0.61387903       0.82830348      10.61551200
Li       3.23649904      10.36792937      10.53067830
Li       5.83938437       4.04492154       5.28013690
Li       0.82985802       3.33139204      11.59957941
Li       2.13065493       0.56666719       6.44266745
P        2.50435138       2.23620416       8.78707966
P        0.24382778       2.33459787       4.50454095
O        2.43679132       0.27281643       1.94152320
O        3.88651184       8.78024912       9.85626105
O        1.58143655       2.47958534      10.19684219
O        3.99712184      10.41903756       6.48559994
O        3.35974975       0.98212107       8.95509876
O        1.69547824       1.76133634       4.51242639
O        9.66173126       7.34819700       7.06236795
O        3.31263544       3.49307547       8.57843674
Li       5.01509814       7.63314624       1.42117945
Li       3.72364049       6.24812657       8.33746375
Li       8.06252915       1.20915689       0.95880946
Li       6.12662497       9.52372686       4.44955190
Li       8.95986407       6.22904151       2.09525855
Li       7.59776627       3.34089458      11.67559960
P        1.58499134       7.61111482       3.56987151
P        0.12056938       6.06480797      12.06915113
O        1.53928734       9.16503920       6.84185683
O        5.14330986       4.77031254       2.10218920
O        1.85400646       9.09479403       4.02634322
O        6.35140626       4.81425734      12.42203553
O        2.64247186       7.33086060       2.48703297
O        0.43466581       5.16465437      10.83866294
O        0.74717164       1.68832757       0.60399733
O        0.20956587       7.50044368       2.97633857
Li       2.79332509       2.01429077      11.76190828
Li       1.23448503       4.52089994       3.75636909
Li       3.30068115       8.79722600       8.21005016
Li       4.22021765       6.13528787       3.85177325
Li       8.01925651       1.32869479       9.66143020
Li       5.67475993       1.34121748       3.25651001
P        4.47964873       7.59641952      10.81477715
P        0.88162917       8.13458118       7.69558877
O        0.23555580       5.26869318       0.94340496
O        1.48566172       2.00414503       7.59671759
O        3.96394313       7.71079022      12.36582355
O        4.53723260       8.11238966       5.12007237
O        3.98873020       6.20402638      10.20923946
O        2.01798042       7.05303917       8.31657452
O        1.60737935       4.21192649       5.89059807
O        6.12189047       7.69146468      10.82141650
Li       2.32339803       6.08760216       1.20490584
Li       8.98030659      10.49479374       3.55788744
Li       5.01843916       1.58803884       8.19729038
Li       3.07779832       1.75304940       3.44116072
Li       4.66516260       4.44417980       9.61612975
Li       8.16136218       7.27057783       3.82070622
P        8.24612284       3.72261262       3.40513154
P        5.43999593       1.52784661      11.14509116
O        4.54696763       0.39107521       4.28895748
O        6.78184537       0.50306582       1.99015460
O        9.67844534      10.39683442       1.47872647
N        9.51834675       2.92225183       3.22309392
O        4.27014430       0.84937775      11.84365650
O        7.87550377       4.23053846       1.89495508
O        7.25453567       2.82022862       4.13202712
Li       2.99496433       9.06428685       5.50592553
Li       8.68721972       5.44134348       6.07387864
Li       5.81279225       1.72479585       1.09449163
Li       1.58102174       0.12858518       3.65879692
Li       2.31867254       8.44207745       0.69745444
Li       7.46936371       6.21441846      10.41313782
P        7.55710060       3.89849403       8.50109389
P        4.92784851       0.79282656       5.73868273
O        4.80080714       2.91608457      10.85347280
O        7.53910554       8.73177372       9.14431539
O        6.75216368       2.87791624       7.53017038
O        9.19272384       1.29587838       5.11433246
N        8.68521875       4.33327751       7.51597683
O        4.42383745       2.27819992       5.86659079
O        4.81438280       5.54385819       5.90929150
O        8.02117730       3.24132560       9.74869750
Li       0.86535608       3.01110347       1.82203284
Li       7.07902502       7.34182652       0.38179656
Li       0.31532062       4.14441636       9.28770476
Li       2.51171937       2.70895039       5.71851553
Li       3.81682254       9.29654503       3.23071438
Li       3.99530774       0.11759177       1.17460010
P        6.76852164       9.59718001       1.90404444
P        6.53443101       5.15650700       1.43258389
O        6.79073059       7.33204071       5.70986374
O        8.43218674       5.06630975       4.20661885
O        7.24585797       9.20184719       0.54829102
O        8.72507356       6.90547108      11.91296463
N        7.37797093       9.31434004       3.25618821
O        6.86231968       6.58680978       1.83624579
O        6.77868638       1.71014225      11.91582287
O        5.11388411       9.36703394       2.00087469
Li       6.90694587       7.17962543       8.23612194
Li       2.36445635       5.67415385      10.85147372
Li       6.69693697       9.35245191      10.95001813
Li       4.55954694       4.26366086      12.03322261
Li       0.05206605       1.12146053       7.16538746
P        8.85429263       9.57226119       9.22442112
P        5.31303994       7.14804907       6.00418883
O        6.60062405       5.12098762       8.67666427
N        0.21785735       8.59326197       9.10023164
O        8.89385579      10.25872922      10.67433011
O        4.85118781       7.66093945       7.36992519
O        6.41005424       0.42153041       6.01963778
O        8.98391588      10.64558190       8.05087351
124
Lattice="9.90879 0.0 0.0 0.0 10.6625 0.0 0.0 0.0 12.434" Properties=species:S:1:pos:R:3 material=LiPON model=NEP89 temperature_K=900 phase="NVT production" display_name="LiPON｜NEP89｜900 K｜NVT production計算" report_figures="23_LiPON_lithium_MSD; 24_LiPON_transport_comparison; 25_LiPON_temperature_RDF" source_frame_index=270 relative_time_ps=27.0 pbc="T T T"
Li       0.00155273       0.57629139       6.89020879
Li       4.10904586       4.33483528       7.06546604
Li       5.83869254       7.88813933       8.85612839
Li       1.04519177       8.57258618      10.53117627
Li       2.21318225       5.68249807       6.64621158
Li       9.48821680       8.60535714       0.75169810
P        3.85017415       3.61896039       2.10837816
P        1.43604587       0.19437196      12.04358872
N        1.13539855       3.15656207       5.23627467
O        1.67731464       6.50673168       4.45107683
O        4.43491963       2.14009243       2.17134908
O        6.10564321       0.63551557       9.58669756
O        3.05405580       4.09952618       3.33629905
O        1.80567453       0.07115326      10.39641315
O        1.17887195       6.61743385      11.45399786
O        3.21557710       3.77381927       0.72780898
Li       5.26533793       5.17250439       9.38707954
Li       8.65361569       0.22403244      11.79538370
Li       3.94298808       9.60896183      11.13617395
Li       5.17703945       3.51190670       4.70828766
Li       0.50000587       3.07123555      10.94848366
Li       2.88371678       7.96862408       5.69452445
P        2.43749179       3.58485052       9.09368958
P        0.24024293       2.17074352       4.35731727
O        2.69486338       0.44281254       0.47633027
O        3.95393623       8.13057781       9.95198573
O        2.43060393       3.39950908      10.72844391
O        3.95883033       0.12796667       7.64011504
O        1.73740489       2.21281718       8.49950512
O        1.09807992       1.10900730       3.67452571
O        0.02688563       7.21327671       6.58808067
O        3.88774612       3.62036247       8.72033265
Li       4.62192072       7.72236200       1.68547104
Li       3.38405571       0.78764509       9.32579228
Li       9.17184136       1.66680601       1.55607806
Li       6.07858796       9.08147153       6.54176212
Li       9.57245974       5.33499827       1.47393490
Li       8.01118961       3.32300265      11.62346886
P        1.57161959       7.59564206       3.21768393
P        9.58967914       6.11311010      11.47223261
O        0.80701877       9.67804940       6.55069900
O        5.08067271       4.78431321       2.20360961
O        2.76047253       8.59891612       3.53226803
O        6.34792434       4.89264436      12.38071858
O        1.80617214       6.88020865       1.95975448
O        9.05556367       6.35083977      10.10474259
O        0.38382318       1.37487288      12.25253575
O        0.21342535       8.37110625       3.48225622
Li       3.23173058       2.17504590      11.69333348
Li       9.77824119       5.80489540       5.30749137
Li       0.36086036       1.12649961       9.21280890
Li       3.53642867       5.53069496       4.23255897
Li       7.23498314       0.93467507       7.83760579
Li       7.19697547       1.94191207       5.66808733
P        4.57854869       7.12125450      10.98646273
P        0.69327719       8.33238834       7.26184515
O        9.76894749       4.57024610      11.91447051
O        1.73795615       4.87235695       8.70307202
O        3.99764577       7.28269250      12.37390063
O        4.67002064       8.14515027       6.08172278
O        4.02708873       5.68848621      10.71220310
O        2.14709087       7.86795075       7.37967510
O        1.12867871       4.24043552       5.97217832
O        6.12124558       7.34023458      10.87258336
Li       1.13254209       4.63510299       3.55086855
Li       9.21288687       9.95014361       3.82563152
Li       5.33529193       2.50037050       8.18240497
Li       3.75617492       1.10344456       3.49154142
Li       4.75306088       3.79833904      11.72729075
Li       8.52325030       7.26095356       3.49131686
P        8.18175955       4.00938615       3.35256765
P        6.05326110       0.95011906      11.13658591
O        3.55689346       0.18344542       5.14149944
O        6.81179204       0.80022652       2.61318798
O        0.97018528       9.35837332      12.36073100
N        9.41742595       2.96166292       3.13902175
O        5.52509764      10.24083994      11.80540459
O        7.51716289       3.87705428       1.94513786
O        7.07631031       3.58170104       4.35167682
Li       3.47674361       9.05980534       8.08582387
Li       7.32615580       4.46992515       6.05262885
Li       6.07580309       1.72187982       1.28476456
Li       2.01379861      10.15285714       4.77247906
Li       2.09225660       7.84592823       0.29859209
Li       7.23442607       5.61674117      10.76459699
P        8.11500326       3.80097343       8.66568148
P        4.49188817       0.64249719       6.27450944
O        4.80926623       1.95296868      11.31085213
O        7.22209205       9.02867516       8.25004032
O        7.41182518       2.84946284       7.54061929
O        9.15302031       1.33110769       5.37005259
N        8.90320503       4.66130494       7.69313238
O        4.34477914       2.21308761       6.44813986
O        4.01481779       5.61733637       5.77814248
O        9.09105227       3.15003166       9.69465590
Li       1.52085307       2.70394584       0.77256176
Li       7.25285480       7.46680684       0.20328971
Li       9.59591389       6.39566140       8.53555591
Li       2.29355189       1.65528240       6.96106495
Li       4.29564476       9.29739836       3.81824200
Li       4.64354474      10.64887261       0.96037724
P        6.89035448       9.97209541       2.29277589
P        6.44573146       5.09460282       1.37551433
O        6.54850345       6.25154824       5.70284283
O        9.01348573       5.34412435       3.41188403
O        7.89977024       9.61107816       1.11121052
O        8.97971125       6.91545579       0.27628786
N        7.52041017       9.25985302       3.57525872
O        6.77900960       6.55165216       1.81529312
O        7.34300361       1.42645583      11.67519457
O        5.48000860       9.26363464       2.15348087
Li       7.57526612       6.90354563       7.05801459
Li       2.56537703       6.39813313       9.63007807
Li       6.95354637       9.06928140      11.11184429
Li       2.42779459       5.16051032      12.11476574
Li       0.28256392       3.37001715       7.41817010
P        8.63276166       9.55365935       8.68035229
P        5.13748439       6.65982227       6.30895261
O        6.95011129       4.53473265       9.38031885
N        9.86199916       8.45380570       8.68768592
O        8.64544312       9.45158587      10.20675061
O        5.14719510       6.28554307       7.79612641
O        6.02786640       0.29616232       6.08416796
O        9.11571268       0.35083202       8.27043757
124
Lattice="9.90879 0.0 0.0 0.0 10.6625 0.0 0.0 0.0 12.434" Properties=species:S:1:pos:R:3 material=LiPON model=NEP89 temperature_K=900 phase="NVT production" display_name="LiPON｜NEP89｜900 K｜NVT production計算" report_figures="23_LiPON_lithium_MSD; 24_LiPON_transport_comparison; 25_LiPON_temperature_RDF" source_frame_index=300 relative_time_ps=30.0 pbc="T T T"
Li       0.17914227       9.80425415       4.99912087
Li       1.31637911       0.41721600       6.97673450
Li       4.95490310       5.39573280       8.69638699
Li       3.11792811       5.84401487       6.72991632
Li       2.12282971       7.52922821       5.64412500
Li       0.37449199       9.31790229       1.13243285
P        3.67334329       3.87997101       1.86765663
P        0.29722269       0.78342239      12.09576497
N        1.38315720       3.49970203       5.18107184
O        2.08492741       9.26033966       4.65869197
O        3.13855530       2.87759801       2.86462736
O        6.08523177      10.02604704      11.75485495
O        3.09607515       5.28645134       1.90261220
O        1.05650240       1.63149407      11.00748264
O        1.86633459       6.05746465      11.55634130
O        3.36033441       3.45627869       0.33397873
Li       5.29586818       1.23560375       8.65186552
Li       6.85694368       1.33102305       0.27295656
Li       3.38267992       8.95958891       9.93524851
Li       7.30854716       1.42628937       3.74765112
Li       0.27091109       3.34590161      11.08065434
Li       3.12505790       9.75304356       6.06545183
P        2.60407681       3.63607070       8.88146273
P        0.17154347       2.47740568       4.96459398
O        0.82252192       1.34664949       1.03681434
O        4.68277680       7.23327260       9.66937811
O        3.31857515       3.00409661      10.13835780
O        4.76534128       0.02323844       6.64496969
O        1.53095164       4.54414669       9.20970999
O        0.71647625       1.12107760       4.63751843
O        1.56901713       6.84687119       7.26713268
O        2.06770785       2.47261916       8.06316426
Li       4.50847373       6.70542626       2.52724644
Li       2.57513332       9.50979836      12.22443757
Li       9.80007468       1.18219785       2.60554258
Li       6.47484944       9.67039585       5.99022273
Li       9.23921664       7.57227855       2.68503371
Li       7.87006018       3.32282198      11.39683980
P        2.39255103       8.80487479       3.36004119
P        0.40531945       6.09121553      12.17229125
O        2.00857340       9.23472324       7.68170560
O        5.42766136       3.93395959       2.12703625
O        3.87845635       8.46802495       3.07492359
O        6.64330602       4.23020532      12.34154868
O        1.70142243       7.31600254       3.42820049
O        9.11846797       6.79437849      11.42293128
O        8.70974351       1.22233669      11.93188168
O        1.87417462       9.72416140       2.28319810
Li       3.03902248       2.09663436      11.85148828
Li       6.76258853       4.22524421       6.19997143
Li       0.13803397       2.10251683       8.83255131
Li       2.83528931       5.69162928       4.04344183
Li       8.53448090       0.92749078      10.02212884
Li       7.70685455       1.36937021       6.71888974
P        4.91125632       7.05659943      11.22160802
P        1.05840591       8.06372414       8.13748734
O        9.81950672       4.64359399      12.40891138
O        3.67915660       4.40185922       8.08093114
O        3.85410116       8.08156581      11.90412035
O        4.03806542       7.55639546       6.30253859
O        4.66736380       5.52910134      11.44786977
O        1.08061175       7.84272342       9.63712772
O        1.89310858       4.53166811       5.84361534
O        6.35712598       7.49374358      11.32430630
Li       1.45546547       5.91613301       2.35924221
Li       7.68803918       7.08719275       6.31223099
Li       2.30765617       1.29492082       9.75840622
Li       2.53636694       1.46992761       1.61715305
Li       5.32743020       3.67273437      10.85200441
Li       7.10797094       6.45433871       3.49374300
P        8.23731221       4.17722095       3.51795037
P        4.98809033       0.18021253      11.00670943
O        4.40904365       0.63470710       4.19155004
O        7.88475285       0.40931675       2.14007083
O        0.68297961       9.91452182      11.87735457
N        9.17858435       2.78829363       3.68409701
O        4.54248461      10.46182496       9.58564493
O        7.87027209       4.01936208       1.94709574
O        7.07160219       3.87204522       4.52627420
Li       4.75469637       8.91019226       7.90905063
Li       4.70910220       3.44799761       7.11024408
Li       4.97914319       8.95034944       0.91602374
Li       2.43782471       1.79726065       4.27144325
Li       9.74408933       8.44864155      10.95218684
Li       7.48028035       5.83975044      11.25842245
P        7.58165305       3.75710289       8.72570535
P        5.07755161       1.07483682       5.51570761
O        5.48095543       1.62303874      10.92822361
O        7.22140441       9.23526775       7.58614546
O        6.52584357       2.81823687       7.90064951
O        9.23158906       2.51858731       6.24621545
N        8.37217454       4.59385035       7.60510198
O        4.49598790       2.50121835       5.76805565
O        6.34439770       7.60027423       5.09271801
O        8.39365637       2.74960842       9.70852851
Li       0.17690675       3.47070765       1.30135368
Li       7.40726986       7.00538702       0.66980070
Li       9.05324591       6.63588618       9.56498800
Li       4.93842820       3.77242585       4.17767889
Li       5.03009817       9.46519142       3.73324433
Li       2.59889383       7.32433445       0.55932472
P        7.80629901       9.55817065       2.26608587
P        6.58079648       4.72454794       1.29840696
O        5.81631761       5.75404157       6.80866426
O        8.81399978       5.54614306       3.75407355
O        8.49695629       8.81361302       1.10375941
O        0.66734491       7.05040119       1.09968003
N        8.71632566       9.07003009       3.39806964
O        6.51170584       6.15339455       1.88253417
O        3.88205253       0.25336885      12.06332099
O        6.33745751       9.01460158       2.40486760
Li       6.47031998       8.31168075       9.37971090
Li       2.22860745       6.37510872       9.49950019
Li       7.49953622       8.86546012      11.58880904
Li       2.71184013       4.40668776      11.33564611
Li       0.24313663       4.93859522       6.89989448
P        8.57130346       9.42604671       8.24074522
P        5.14756709       6.65221306       5.67010939
O        6.78019061       4.85203876       9.45877917
N        9.57859673       8.55762373       7.43260553
O        8.21320125       8.85590011       9.64736235
O        4.62965098       5.61832914       4.60549274
O        6.53128276       0.83090829       5.24305189
O        9.08149385       0.24662066       8.16755835
124
Lattice="9.90879 0.0 0.0 0.0 10.6625 0.0 0.0 0.0 12.434" Properties=species:S:1:pos:R:3 material=LiPON model=NEP89 temperature_K=900 phase="NVT production" display_name="LiPON｜NEP89｜900 K｜NVT production計算" report_figures="23_LiPON_lithium_MSD; 24_LiPON_transport_comparison; 25_LiPON_temperature_RDF" source_frame_index=330 relative_time_ps=33.0 pbc="T T T"
Li       0.37645288      10.15298652       5.30895622
Li       2.51299769       0.40626113       7.72709748
Li       2.69219230       5.68741776       7.34299684
Li       9.58425696       4.44670812       7.92041541
Li       2.81546091       5.32442306       4.22735561
Li       0.87833892      10.37569718       2.49741349
P        3.78293343       3.50688875       1.71696205
P        0.82387962       0.91674568       0.16037443
N        0.15919054       4.93629696       5.83514921
O        2.01190628       6.95558176       3.76524395
O        3.59550912       2.34889060       2.68179842
O        6.22234724       9.22064003      12.28055422
O        2.80317673       4.61755382       2.07874109
O        0.52393587       2.26771837      11.85591625
O        1.13247807       7.64192098      11.18186297
O        3.52797146       3.04247398       0.23312848
Li       5.02117909       1.76153428       8.33398552
Li       3.15473836       1.33735854       0.63342918
Li       5.10114308       8.19516468       7.63245229
Li       7.97326669       0.90896390       1.38414828
Li       1.96815179       3.70694245      11.84914573
Li       3.04109851       8.90502836       5.73885115
P        2.42932224       3.25466534       8.80078109
P        0.44054620       3.67531682       4.73945770
O        1.13693629       1.22699968       1.62312426
O        4.36973230       7.94482080       9.70535975
O        3.04268149       1.81221283       8.83056302
O        2.78013305       0.76024144       5.64445001
O        2.55843080       3.83008576      10.26692898
O        2.03150215       3.56569629       4.60431951
O        1.70583896       6.90282063       8.39577615
O        0.86509062       3.12461761       8.42962034
Li       4.70343216       5.62777967       2.20545443
Li       3.37572170       1.51462610      10.70817089
Li       5.66916938       1.07051962       2.83075594
Li       1.39486553       6.83083071       5.51635068
Li       8.67739777       7.96360920       1.93823072
Li       9.80577187       3.13333688      10.15928949
P        2.63232008       8.12768486       2.90390620
P        0.10407050       6.55733348      11.90667362
O        1.33699724       8.53315204       6.39301751
O        5.49608432       3.87290303       1.85127804
O        3.92912808       7.57362885       2.42863030
O        6.43539984       4.14204101      11.98943578
O        1.87906803       8.50035117       1.48554172
O        9.44360274       5.74690703      10.64597641
O        9.39066950      10.63574845       0.44138966
O        2.93754845       9.22803591       3.85920701
Li       4.34809915       3.97211706      10.76173788
Li       7.46100861       4.92996416       5.77911032
Li       8.85028527       0.89788041      10.73517231
Li       4.84519403       3.84732513       6.83794782
Li       7.58252741       2.53295388      11.51568104
Li       7.97396096       1.79323906       4.88995557
P        4.84727872       6.90814585      10.74524628
P        1.09948271       8.24156152       7.90493246
O        0.75074208       5.60317445       0.53323384
O        3.06213119       4.04943960       7.59883737
O        4.16118775       7.22847718      12.12577749
O        6.00782293       7.39518333       5.03899658
O        4.34157605       5.60195567      10.14364313
O        1.82402145       9.28576061       8.76226790
O        9.22384489       5.79660975       6.24245430
O        6.44339420       6.79422520      10.57788195
Li       1.08072195       5.56505704       2.67120005
Li       5.52359124       5.42970042       8.41480011
Li       6.71623161      10.50436661       6.63153902
Li       1.87450741       2.52377342       2.95246359
Li       2.74255771       5.83549459       0.70519284
Li       6.65208449       6.93912921       3.17295056
P        8.34346503       4.73322642       3.02932860
P        5.69437276       0.01115722      12.14689487
O        4.92170940       0.51086427       4.43383951
O        7.55716435       0.54453641       3.26690404
O        1.91313890       0.17731325      11.71912415
N        9.85145908       4.09304687       3.13427340
O        4.66758573       0.20001466      10.91640008
O        7.94257948       4.19190575       1.49498831
O        7.27103635       4.31375409       4.11705368
Li       7.36160036       8.00397072       6.36094332
Li       5.49691079       3.24896822       3.79993993
Li       5.43812144       8.14121156       1.20903741
Li       2.89515276       2.92229200       6.24648522
Li       0.95523705       9.46261874      10.73020344
Li       7.43954481       5.17831221      10.67144803
P        7.32915504       3.40649569       8.49844252
P        4.29892804       0.76750634       5.80414583
O        6.85663485       0.93506210      11.89040254
O        7.05025114       9.13224315       8.26582696
O        7.51868447       2.75670919       7.06592058
O        0.05480567       2.26616769       5.25314723
N        7.76923454       4.90446668       8.54214973
O        4.66319160       2.24011264       6.02012011
O        4.45860031       5.31176742       4.69054016
O        8.08919082       2.51579690       9.57887898
Li       0.03907249       3.76091719       1.19198656
Li       6.92711587       7.24382988      12.17871647
Li       8.42020367       6.68503574       8.74925351
Li       3.29357425       0.48536482       3.55888707
Li       5.09469301       8.85665726       4.15480646
Li       3.26631901       9.62694340      10.20691435
P        7.87182116       9.76739422       3.54770336
P        6.57802160       4.64730439       0.95504599
O        5.85139617       5.75594674       6.74205818
O        8.56237624       6.22416726       3.01974499
O        9.42048742       9.43815234       3.31255359
O        8.91549132       7.43893275      12.38853264
N        7.45934071       9.62065963       5.04294143
O        6.25925858       6.17238259       1.22494669
O        4.96177818       0.45893120       0.94824418
O        7.07515833       8.88764883       2.65591340
Li       6.22842729       8.68820499      10.13224957
Li       1.64091065       5.97471966       9.93044470
Li       8.74315101       9.40226367      11.96512523
Li       2.68052416       8.24021995      12.28309760
Li       9.73021927       1.82440360       7.74350273
P        8.51245578       9.59261285       8.35597003
P        4.94477359       6.45000654       5.69534992
O        5.74757896       3.29096610       8.82984809
N        9.37175303       8.22088279       8.07480676
O        8.82529174       9.75118030       9.82082507
O        3.80852728       7.24853625       6.47752813
O        4.87678945      10.47799469       6.91476373
O        8.93653049      10.60977602       7.39025852
124
Lattice="9.90879 0.0 0.0 0.0 10.6625 0.0 0.0 0.0 12.434" Properties=species:S:1:pos:R:3 material=LiPON model=NEP89 temperature_K=900 phase="NVT production" display_name="LiPON｜NEP89｜900 K｜NVT production計算" report_figures="23_LiPON_lithium_MSD; 24_LiPON_transport_comparison; 25_LiPON_temperature_RDF" source_frame_index=360 relative_time_ps=36.0 pbc="T T T"
Li       2.09848470       0.16837935       7.39328982
Li       3.45872017      10.02313819       9.35056165
Li       4.75594801       4.75782162       8.35906523
Li       9.66638562       6.00596560       8.80721607
Li       1.88224080       5.47802411       6.79470687
Li       1.00271954       9.93075067       1.62531445
P        3.78221392       3.85943661       1.32829689
P        0.21765600       1.41672900      12.29140494
N        0.31121082       4.58827254       5.59222871
O        2.52958045       7.57461675       3.93161660
O        3.03970419       2.73623031       1.97856129
O        6.16274074       9.86090905      11.33300458
O        3.65832896       5.24585982       2.11297605
O        0.35338938       2.92095468      12.23416580
O        0.87173914       7.38259642      11.10290210
O        3.52794112       3.93485411      12.28976811
Li       4.82607755       1.72467254       9.36640447
Li       3.09610241       0.55655846       1.41288121
Li       5.31240273       8.15164939       7.44231024
Li       6.92105349       1.88936677       0.73066979
Li       1.29912443       4.07067781      11.47874879
Li       2.56168651       8.10075413       5.94644307
P        2.10602609       3.09755963       8.73663458
P        0.97775001       3.24098273       4.61554650
O        1.01651828       0.94425676       1.04800000
O        4.57861072       7.94868868       9.16674384
O        1.00541456       2.06312973       8.11544790
O        3.23025848       0.89135510       5.90228519
O        3.08317122       2.32072605       9.57527768
O        2.45121279       3.47901034       4.58450791
O        1.30323591       6.85092492       8.05841453
O        1.47855079       4.15875292       9.63501683
Li       2.92961369       5.51292599       3.96878070
Li       2.41381736       1.39777534      11.03115617
Li       2.28676750       0.76668162       4.48700042
Li       9.87924213       7.54850093       4.81633898
Li       7.83110230       7.13963359       1.71800165
Li       0.96332340       3.92624261       1.32081533
P        2.88035586       8.65118634       2.88777649
P        0.02950868       6.53427461      11.99466999
O        0.79649132       8.49996017       6.31228214
O        5.52746677       3.61405475       1.37516365
O        4.45496561       8.49072046       2.90533365
O        6.72821711       3.91578727      11.65995409
O        2.48323196       8.03088277       1.46492690
O        8.96347274       5.79779810      11.00439238
O        8.65721507       0.90919150      12.40927197
O        2.47774186      10.10497144       3.06621637
Li       4.48326719       3.24507441      11.05428394
Li       8.28264672       4.16881437       6.10064688
Li       7.94377782       9.77508166      12.01054105
Li       5.85842997       2.41975156       7.22857789
Li       7.44281144       1.30599462      10.77858268
Li       7.61680900       1.88956458       5.36658512
P        4.83631096       7.04634893      10.33387333
P        0.77760343       8.29159504       7.85659484
O        0.96234242       5.59041618       0.36411334
O        2.98034293       3.94370517       7.71757492
O        4.19151144       7.80106118      11.64301172
O        5.93211338       6.11648108       4.51935633
O        4.12459280       5.75108693       9.98636890
O        1.69572652       9.31416796       8.67979711
O        9.71108071       5.72396112       5.69145032
O        6.27787733       6.80601399      10.73375022
Li       3.28058351       6.33591959       0.54715073
Li       7.70704791       6.87197115       8.39260509
Li       7.03385671      10.25883619       5.69587805
Li       0.65729745       1.46381799       2.67277454
Li       5.19008817       6.32854109       2.54934719
Li       7.60428401       6.64448132       3.93588049
P        8.75686121       4.26373565       3.03052961
P        5.09047042       0.23560634      11.75823855
O        4.56905722       9.45252373       6.06439227
O        7.75487233       0.00084810       4.04310775
O        0.90211251       0.61961045      11.03039002
N        0.34538083       3.54080485       3.10833243
O        3.70477552      10.44566534      11.26904314
O        8.22579862       3.94230246       1.47749884
O        7.63665219       3.87460905       4.03089295
Li       7.54195315       7.71482056       6.18804537
Li       5.03983604       2.26738100       4.47201436
Li       3.64680762       9.09949702       0.59033460
Li       3.50421225       3.18938423       6.23118916
Li       8.43042497       3.91017590      11.62278887
Li       6.81115618       5.21921455      10.22435810
P        7.80839041       3.45548756       8.69453547
P        4.57446141       0.27458623       6.54664122
O        5.66331404       1.64806590      11.38569938
O        7.10418987       8.95634561       7.60024652
O        8.08097303       2.73308969       7.38436272
O        0.55675404       1.72646755       4.88593157
N        8.17787718       4.99952111       8.57274628
O        5.75949757       1.15634678       5.95470618
O        5.19775709       4.13626254       5.95503596
O        8.54350935       2.82806910       9.94505534
Li       0.76129307       7.20135335       2.10842908
Li       5.45692700       9.96527375       2.61656000
Li       6.19796654       7.60656308      12.32894637
Li       9.72106448       9.92417289       5.47367253
Li       4.79462358       7.98751220       4.67218115
Li       3.28435727       6.80654094       8.16159954
P        8.22766199       9.44285256       3.23049536
P        6.67010154       4.46829014       0.69442992
O        6.40102118       6.28740147       7.00061505
O        8.87364365       5.82616115       2.87186520
O        9.61689726       9.21701298       2.92226920
O        9.17812936       7.58629817       0.43383186
N        8.24296115       8.33736481       4.35344577
O        6.28503012       5.97756676       0.95493854
O        5.01118095       0.29190977       0.94190164
O        7.28586939       9.07716921       2.06442395
Li       6.08373704       9.91474497       9.23470108
Li       2.06750441       6.16290329      10.11147520
Li       1.38146689       9.13695276      10.55538221
Li       9.78066872       1.39916893       9.54291334
Li       9.81829735       1.61130126       6.76669566
P        8.35446686       9.72969226       8.06271200
P        5.34233907       5.67195158       5.99681884
O        6.29439729       3.54624802       8.80167997
N        9.20221657       8.37039205       8.31365123
O        8.02301790       0.11909546       9.22332713
O        3.94628216       6.51165665       6.09055310
O        4.87904992       0.34055734       8.14049028
O        8.70766586       0.07672610       6.77119773
124
Lattice="9.90879 0.0 0.0 0.0 10.6625 0.0 0.0 0.0 12.434" Properties=species:S:1:pos:R:3 material=LiPON model=NEP89 temperature_K=900 phase="NVT production" display_name="LiPON｜NEP89｜900 K｜NVT production計算" report_figures="23_LiPON_lithium_MSD; 24_LiPON_transport_comparison; 25_LiPON_temperature_RDF" source_frame_index=390 relative_time_ps=39.0 pbc="T T T"
Li       2.38207127       1.20910983       6.67065056
Li       3.07350906      10.19094415       9.82248518
Li       4.90897982       3.48690202       7.68914662
Li       0.16495590       5.30563490       9.33584252
Li       1.83241402       4.90202513       6.55765162
Li       0.67289852       8.96066998       1.60269738
P        3.54119436       3.76568094       1.43313355
P        0.41734718       0.94716801       0.34267559
N        0.97930450       4.96782743       4.88371800
O        2.64413981       8.58225661       3.57776193
O        3.64883042       2.66262000       2.50652408
O        5.84993350       9.48323481      12.21725999
O        2.32013618       4.76276047       1.49055388
O        0.73648464       2.38377990       0.22626695
O        8.92398230       7.69685036      11.93156939
O        3.81884965       3.23234979       0.01945600
Li       4.96340866       1.60037141       9.38648012
Li       3.57514214       1.02557770       1.06146376
Li       5.66980306       9.83896511       8.55342380
Li       5.87892408       3.01262504      12.08561168
Li       2.33016946       5.29254889      11.11946040
Li       4.06981971       7.40803526       4.43815062
P        2.26770838       2.95072032       8.83175728
P        0.14871047       3.42695808       4.75865507
O        0.90127535       0.42815416       1.79558275
O        4.48593465       8.33033207       9.11592758
O        1.28211837       1.96938654       8.18195643
O        3.75361020       1.04472468       5.16146966
O        3.28391419       2.04528604       9.59084641
O        1.17829304       2.23324077       4.71292815
O        1.32238961       6.69197876       7.96762024
O        1.63423702       3.81928454       9.98675740
Li       2.75241357       5.06556278       3.80442214
Li       2.82717522       1.93447116      11.56004662
Li       2.66474203       9.91328725       4.67509505
Li       0.35924761       3.99570351       1.37620680
Li       8.87687059       6.49729652       2.99307151
Li       8.34369607       2.87267769      12.10912146
P        3.26131539       8.99247378       2.24239507
P        9.80072374       6.51543500      12.40377261
O        1.57006653       8.89937983       6.75233662
O        4.92203791       4.67817757       1.79012914
O        4.68143847       8.20109777       2.16329744
O        6.29403679       4.69497891      11.99905669
O        2.40491009       8.51433642       0.97988773
O        1.20733286       6.57648029      11.67981322
O        8.81398464       1.05279831       0.20165265
O        3.65955113      10.51371593       2.49547164
Li       5.06990151       4.73065011      10.48528382
Li       7.52538658       7.11872977       5.00571461
Li       7.74585943       8.75088965       0.40790115
Li       7.60899881       4.66310086       6.38024197
Li       8.32648561       0.69727145      10.84354898
Li       7.39898416       1.55642508       4.78359261
P        4.56676834       7.11595490      10.17587727
P        1.01122743       8.23638602       8.02000898
O        0.08869732       6.27611034       1.49257232
O        3.00053646       3.84395956       7.75989517
O        4.15487214       7.62155306      11.57065518
O        4.77679453       5.69194127       4.37286877
O        3.62391731       5.91943883       9.82364316
O        1.82297707       8.97177796       9.08807047
O        0.51267021       6.03927882       4.51405348
O        6.01929442       6.69767527      10.24385884
Li       5.42099802       7.81095241       0.65606219
Li       6.78870588       9.18736414       5.98725432
Li       6.96232705       0.80703966       7.47678365
Li       2.52534173       1.43299480       3.40222597
Li       6.18325897       6.39953739       3.18474666
Li       0.70738124       8.08622583       4.71538374
P        7.72090020       4.07856273       3.28467258
P        5.39285719       0.09032058      11.54811166
O        4.57127593       9.30191735       5.81402939
O        7.60803043      10.43343804       2.53920906
O        0.93870911       0.12416478      11.46120573
N        9.19172039       3.40313422       3.41666695
O        3.80397625      10.62422020      11.45510811
O        7.54325213       4.43777930       1.74130875
O        6.77959349       2.98489211       3.71267306
Li       0.16774930      10.24590467       6.37293034
Li       5.29988947       1.49667744       3.88703929
Li       2.96152999       9.20577034      11.81722652
Li       4.11377338       3.22653459       5.10323263
Li       0.23880697       2.81176072      10.74190864
Li       6.30635728       5.84670114       8.34311362
P        7.33157783       3.19980866       9.20432903
P        4.74556860       0.14661206       6.04780531
O        5.95684561       0.30361918      10.12487166
O        7.16300973       9.36370381       7.75299071
O        7.43220257       2.68115020       7.79990383
O        9.07034211       3.14490849       5.88090884
N        8.14086293       4.62933837       9.09736010
O        6.25731909       0.73548290       5.94460641
O        5.25695537       4.20431633       6.29047829
O        8.14783485       2.45228388      10.34272542
Li       2.66415551       6.67197814       0.57709624
Li       7.06450790       0.41966507       1.10635801
Li       7.32880081       5.42473910      10.78523749
Li       9.35872711       1.33389945       3.11555490
Li       5.72333082       9.66784317       3.01888690
Li       3.81209031       7.98826634       7.30755975
P        8.05124514       9.41541482       3.55883904
P        6.25490265       5.17259146       1.01197104
O        6.30403147       6.61211464       6.49762996
O        7.54276817       5.35733003       4.14362424
O        8.49828086      10.23320049       4.84569504
O        9.26882935       5.21808568      11.85624380
N        6.79237151       8.43157651       3.89032286
O        6.65158509       6.69873059       1.14481349
O        5.53364833       1.17479743       0.18235233
O        9.25257551       8.53317688       3.08370151
Li       7.40797564       8.16642260      10.52810938
Li       3.02130229       5.67162903       8.15126016
Li       0.11848659       8.88877989      10.97766734
Li       0.63385038       0.52012368       9.13902479
Li       9.52045841       2.18208747       7.57888023
P        8.57052201       9.52305477       8.43195217
P        5.05991844       5.73560781       5.94811287
O        5.84817315       3.36717125       9.43951463
N        9.34922156       8.26282411       8.09069117
O        8.44085401       9.56210768       9.95098303
O        3.68817618       6.21462765       6.59791538
O        4.45769150       0.35589405       7.64440775
O        9.21006302       0.16887109       7.97445806
124
Lattice="9.90879 0.0 0.0 0.0 10.6625 0.0 0.0 0.0 12.434" Properties=species:S:1:pos:R:3 material=LiPON model=NEP89 temperature_K=900 phase="NVT production" display_name="LiPON｜NEP89｜900 K｜NVT production計算" report_figures="23_LiPON_lithium_MSD; 24_LiPON_transport_comparison; 25_LiPON_temperature_RDF" source_frame_index=420 relative_time_ps=42.0 pbc="T T T"
Li       3.06982475       3.00341644       5.56876567
Li       1.57607156       0.20461725       6.85320057
Li       5.18813773       2.09527078       8.98770913
Li       0.17474170       4.76411120       9.81357803
Li       0.13101234       4.53901147       6.81343551
Li       0.45750360       8.07993539       1.86148679
P        3.66310053       3.32023864       1.76010366
P        0.13978055       1.53796996       0.31488194
N        1.21997794       3.88466371       5.00639716
O        2.07881436       7.64029869       3.09864562
O        3.77032721       1.99972165       2.52265829
O        6.48284085       9.57465142      12.09415746
O        2.68582241       4.45491512       2.25796565
O        0.20594343       3.05335008       0.55538799
O        0.37600630       8.16052987      11.67102878
O        3.35145032       3.01415731       0.20607415
Li       3.65228960       0.14719440       9.47252030
Li       2.85950688       0.72285586       1.05051021
Li       6.49034866       8.29093855       6.92009973
Li       4.10496933       4.30382315      11.77182092
Li       2.09836664       5.83380857       9.87719229
Li       3.06079278       8.95717507       5.80382583
P        2.60209635       3.06156436       9.09905995
P        0.10198177       2.68163884       4.85694367
O        0.34561137       1.03016674       1.76343757
O        3.21884462       8.32840652      10.19457251
O        2.28033148       1.59805465       8.95596350
O        3.15066730       0.63444991       6.05682952
O        4.02549900       3.27649928       9.57112788
O        0.96701195       1.37047711       4.60042456
O        9.33403310       7.01141129       6.47615937
O        1.50904313       3.53470077      10.20470512
Li       3.00941743       6.28071922       4.02022230
Li       2.43352265       1.84453274      11.25480290
Li       2.80044979       0.80520083       4.26342740
Li       1.64649621       3.94057332      12.00259912
Li       8.11922985       6.94641645       1.82710501
Li       6.06313302       2.46108889      12.14567679
P        3.20004012       8.64420903       2.55372059
P        0.19063762       6.61810344      12.07258743
O        1.64573377       8.51417444       7.02380150
O        5.12969158       4.05309748       1.95734884
O        4.46782522       8.52499145       3.36471450
O        6.29450029       4.23760523      12.19184944
O        3.46635931       8.00433310       1.10693400
O        1.65916748       6.04752572      11.90372878
O        8.65031786       1.07148365      12.25045462
O        2.61727161      10.02002133       2.40202218
Li       6.70465236       6.21924969      10.79806913
Li       7.99483866       6.57649214       5.27709509
Li       9.34760252       9.73418236      11.68045341
Li       7.80557118       1.25538248       7.33136704
Li       7.87145529       0.96944563      10.79073338
Li       5.59529892       1.46916626       2.53532624
P        4.41839199       7.38344378      10.03857443
P        0.47428204       7.59445998       7.45484279
O        9.75129093       6.42670609       1.08301590
O        2.28872809       3.70438519       7.75590142
O        4.83871917       6.98727349      11.38971839
O        4.76442394       6.31313038       4.45874675
O        3.87216767       6.05888148       9.20212890
O        0.92352862       6.57425528       8.57440561
O        1.59458953       4.99649237       4.78258075
O        5.64032139       8.00736269       9.22957925
Li       5.31650268       7.56714008       0.69171306
Li       5.55725580       9.60744449       4.54215778
Li       6.11528712      10.06280948       8.83662472
Li       1.09005417       3.77418239       3.06983113
Li       6.47433209       7.04784340       3.91582307
Li       0.46666940       7.79162408       4.26143374
P        7.77646906       3.97315934       3.61157214
P        5.62101771       0.16644938      11.92680875
O        4.90580355       9.36091283       6.14957229
O        8.37277516       8.71314397       2.16209062
O        1.23982189       0.86582040      11.85486249
N        9.22679282       3.21978210       3.56519694
O        4.23490315      10.35925053      11.65704374
O        7.68945085       4.09818963       1.72938595
O        6.76191872       3.05862351       4.10745132
Li       8.83583825       9.43388704       5.82709159
Li       5.38816099       4.78988300       4.02397360
Li       2.80538375       8.92482163      11.91188755
Li       6.14862076       3.09604035       6.32809524
Li       8.39828997       3.79047532      11.98702426
Li       4.85011980       4.64105921       8.86384199
P        7.66811945       3.62326599       9.24318653
P        4.61134263       0.21095568       6.49378164
O        6.09233163       0.88586792      10.61261497
O        7.79165631       8.95966759       7.86283301
O        6.73652609       2.60098158       8.32329332
O        8.90051276       2.44776911       5.87759244
N        8.57557296       4.62208489       8.32524057
O        5.66472768       1.15130890       5.87149073
O        4.64889799       4.54285605       6.58956651
O        8.50529519       2.94374682      10.35563570
Li       2.59647531       6.10933663       1.11889790
Li       8.71094526       1.58419788       2.78754801
Li       7.52443909       6.20445450       7.59692831
Li       0.96215669       0.23943017       3.31107469
Li       7.68258224      10.43819110       1.04216040
Li       4.16788158       8.30616848       7.82058006
P        8.37587996       9.44287224       3.51287587
P        6.37178079       4.87312823       1.14636535
O        6.36557116       6.50783893       6.32909359
O        7.97354505       5.36593863       4.00248553
O        7.59852706       0.09743923       3.37583719
O        9.02477470       6.01330695      11.19920665
N        7.40361341       8.70404896       4.49241306
O        6.48980136       6.40707642       1.43671575
O        5.63997659       1.03323697       0.71269033
O        9.80608969       9.53104071       4.10464824
Li       7.40951795       8.87199712      10.32185334
Li       2.76952853       5.54704742       7.42213007
Li       1.42310696       8.61286599      10.15219868
Li       0.40574033       2.08568860       9.88569474
Li       7.65988433       1.31044342       4.68243606
P        9.00199516       9.79416135       8.38464074
P        4.90411276       6.08120889       6.00049631
O        6.58568182       4.63521317       9.70511806
N        0.09737709       8.64780451       8.56680159
O        8.42301535      10.25402223       9.73907679
O        3.72472923       6.99042675       6.45367516
O        4.62138592       0.33460500       8.02895795
O        9.41415310       0.14917373       7.44638211
124
Lattice="9.90879 0.0 0.0 0.0 10.6625 0.0 0.0 0.0 12.434" Properties=species:S:1:pos:R:3 material=LiPON model=NEP89 temperature_K=900 phase="NVT production" display_name="LiPON｜NEP89｜900 K｜NVT production計算" report_figures="23_LiPON_lithium_MSD; 24_LiPON_transport_comparison; 25_LiPON_temperature_RDF" source_frame_index=450 relative_time_ps=45.0 pbc="T T T"
Li       4.86357768       5.12703787       7.90201018
Li       1.40400356       1.29458092       7.54259921
Li       5.42153986       2.31109381       9.14665579
Li       0.40647890       4.84179843       9.35183906
Li       7.82173167       4.83286573       6.80825226
Li       9.32466512       3.93778505      11.83947062
P        3.84519789       3.59985642       2.10553440
P        0.06929945       1.44752665       0.17087345
N        1.51563556       3.98926870       5.50256930
O        2.26394606       7.29259552       3.11765624
O        3.00144646       2.17364599       2.16287370
O        6.43143065       9.37799675      12.24613895
O        3.98481158       4.35487495       3.46221294
O        0.80983991       2.54468865      11.80955646
O        9.86510031       8.38574196      11.63700927
O        2.95542844       4.43498936       1.16278420
Li       3.74179374      10.62093016       9.90326452
Li       3.20762866       0.26480204       1.27984189
Li       7.14575996       9.81937493       5.80794560
Li       4.16863411       4.97817608      11.40775489
Li       2.35937812       5.98763155       9.38225467
Li       5.36105998       5.96787334       3.15077352
P        2.86064088       2.98601835       9.31884999
P        0.29428914       2.80226051       5.24076917
O        9.43553196       2.00507190       1.54210810
O        3.11354265       8.70834206       9.77633390
O        3.25841894       1.69390290      10.02248003
O        3.02476077      10.63207603       6.54157767
O        2.73724783       4.16454244      10.32434589
O        1.00450493       1.98778750       4.20365776
O        8.69952974       6.72881822       6.21607075
O        1.49444567       2.76079342       8.62957033
Li       3.23272268       6.01963336       4.33535597
Li       2.81910741       1.69327860      12.05172513
Li       3.00478822       1.49578805       4.10114177
Li       1.42403114       4.56263034      11.50045939
Li       8.62111824       5.89914104       2.33268259
Li       6.29916952       2.32350592      12.18610117
P        2.99988291       8.35382502       2.20238866
P        9.58213343       6.72236905      11.64159862
O        1.14059083       7.63964238       6.24465833
O        5.29281655       3.53332690       1.30367610
O        4.52434094       8.11718448       1.96776364
O        7.75994763       3.83165426       0.65164941
O        2.06479438       8.25338806       0.99171271
O        0.82361072       6.16478662      10.72327453
O        8.76080036       1.00903051      11.73871639
O        2.88736833       9.89523040       2.69345307
Li       6.50208212       7.26409426      10.71801205
Li       1.13738867       7.55771270       4.39411576
Li       0.43043995       9.43617685       0.84245377
Li       0.12552540       2.39506553       9.70830144
Li       7.80918807       1.34513909       9.90145714
Li       5.53844717       0.74937309       3.41984826
P        4.20473568       7.64965870       9.83403709
P        0.00450046       7.02132166       7.06702041
O        9.78146761       5.82491253       0.48801862
O        3.93702255       3.36286779       8.20103853
O        4.37701528       7.03607274      11.34864713
O        5.87719340       7.03472673       4.48586813
O        3.84817346       6.53048444       8.72499457
O        0.80955098       5.83226804       7.81937227
O        2.00099107       5.16381582       5.30660029
O        5.59695980       8.25881658       9.34210696
Li       4.20291500       6.66166608       0.76489721
Li       5.46300800       8.93288903       3.53875463
Li       5.40844672       9.18420425       7.65615007
Li       0.79745306       2.63281715       2.42654267
Li       7.69083826       6.58440719       4.55630023
Li       3.23517420       9.47680177       5.16824572
P        7.62376426       3.39471095       4.37181522
P        5.78767692       0.09822649      12.21580770
O        4.83873257      10.50186548       4.83515668
O        9.65085311      10.11583972       4.15862399
O        1.17756255       0.41797121       0.54959245
N        9.14799908       3.68923092       4.34855451
O        4.26788254       0.12445158      12.08116254
O        7.28092015       4.42845166       3.12239787
O        7.00477001       2.10735918       3.75442244
Li       0.46766676      10.50210844       6.15974955
Li       2.89724391       3.51545893       6.68278052
Li       2.53856756       8.59690375      11.57388198
Li       4.99376722       4.05043986       5.36129817
Li       7.01870131       5.24178316      11.57980832
Li       5.90392222       2.70675187       6.91764812
P        7.15595126       3.86135158       9.62849123
P        4.47780169       0.60010259       6.09489311
O        6.29283561       0.77307826      10.87329508
O        8.49282353       9.99051703       6.93064854
O        6.23845686       3.72389528      10.87607599
O        0.06873913       1.98446451       6.56587437
N        7.30354877       2.70654002       8.64487665
O        4.23236833       2.09638686       5.61765448
O        4.50713095       5.54335103       6.15653095
O        8.66737981       3.96451856      10.09801647
Li       1.60106566       5.98628286       1.92004374
Li       7.70213898       1.88497337       1.87501849
Li       6.72674988       6.81959681       8.49788213
Li       1.09040937       0.22506980       2.99273980
Li       7.13489893       8.06883648       1.11872452
Li       2.44624528       8.92375442       7.65667705
P        8.61485161       9.39192630       3.35401740
P        6.70381459       4.43826629       1.58805131
O        6.14459363       7.31570170       6.86526891
O        6.73654617       3.83241229       5.58190792
O        8.77839289       9.52816441       1.77787451
O        8.22121536       6.55578173      11.05531495
N        8.70542390       7.84333406       3.45699551
O        6.29325139       5.92014057       1.12336448
O        6.18458584       1.04052994       0.93916469
O        7.16480937       9.54382197       3.93822087
Li       6.62813802       9.72869128       9.89701948
Li       2.46939155       6.45799934       6.88871417
Li       0.99808964       8.32260952       9.42270281
Li       8.50000873       9.70682806      11.16230897
Li       8.43564618       1.01221612       6.35105480
P        9.23278527       9.46349443       8.16602121
P        5.17716507       6.99718614       5.82396186
O        6.54380694       4.97190573       8.69705727
N        9.46625806       7.91756708       8.28142231
O        8.26363111       9.82054114       9.32647149
O        4.07645164       8.07652697       5.95729494
O        5.54067026       0.49626031       7.28969046
O        0.77549208      10.18219889       8.14748841
124
Lattice="9.90879 0.0 0.0 0.0 10.6625 0.0 0.0 0.0 12.434" Properties=species:S:1:pos:R:3 material=LiPON model=NEP89 temperature_K=900 phase="NVT production" display_name="LiPON｜NEP89｜900 K｜NVT production計算" report_figures="23_LiPON_lithium_MSD; 24_LiPON_transport_comparison; 25_LiPON_temperature_RDF" source_frame_index=480 relative_time_ps=48.0 pbc="T T T"
Li       4.52802590       4.48478194       8.76199389
Li       0.23075382      10.16163607       6.01943660
Li       5.15614194       2.92928964       6.54007758
Li       9.17907994       3.44837367      11.59629166
Li       0.93113874       4.79119036       7.40953901
Li       9.44599836       4.69950625       2.00306711
P        3.89914951       3.75626047       2.08162198
P        0.06637307       1.22130508       0.18588277
N        1.17934737       4.86207450       5.05351193
O        2.26948497       7.66734153       3.58709375
O        3.84747972       2.23545637       2.07208778
O        6.43095433       9.97733644      12.08631033
O        4.17532560       4.62356910       3.29289502
O        0.62162303       2.76615473       0.38260427
O        0.64468160       8.19441835      11.58198652
O        2.83871777       4.38295525       1.28002869
Li       1.78923922       1.00700337       7.34572228
Li       3.08093392       0.66925020       0.98288507
Li       7.33584796       6.08571862       4.20446053
Li       2.09685728       6.50802911      10.24821991
Li       9.83364017       5.35962739       9.35404433
Li       4.89840276       6.29142652       3.01761050
P        2.25681164       3.01322121       9.04748994
P        0.36538875       3.31026890       4.80724789
O        0.96940474       0.59966631       1.31661960
O        3.11805407       8.55733814       9.53276010
O        1.99131822       1.55861904       9.32093285
O        3.22683813      10.63964291       7.35072643
O        3.14812259       3.57169568      10.20823873
O        1.08038614       2.46680547       3.90855881
O        9.32598578       6.99738759       6.36929028
O        0.84615188       3.69158318       9.13584479
Li       1.96547243       5.48709838       3.12561916
Li       5.06257300       2.68090430      10.56340838
Li       4.45816560       1.05854802       3.33971874
Li       1.45286986       3.81175156      11.66703064
Li       8.20805855       6.88996268       1.83523706
Li       7.36014875       2.41569508       0.40141667
P        2.96077358       8.54353809       2.46740038
P        9.78184658       6.92497024      11.79557462
O        1.25812887       8.64652214       6.62849426
O        5.24214771       4.24182404       1.12209702
O        4.47432277       8.25709524       2.53684907
O        7.73225363       4.37824566       0.54812226
O        2.38734565       8.16978685       1.10692388
O        0.52404629       5.72433593      11.03017501
O        8.52379569       1.02426216       0.71473640
O        2.79524330      10.03050454       2.58399923
Li       1.45790328       9.12404648       9.19429348
Li       0.28609280       6.66632531       4.50884226
Li       0.85833387       9.25149579       1.03416085
Li       9.64527917       1.49612346       9.68370660
Li       9.03819930       9.50812100      11.31465109
Li       7.15498028       0.40276332       5.43695255
P        4.18318511       7.37658500       9.96441084
P        0.36144844       7.54946209       7.30418086
O        0.10014856       6.56496783       0.84431066
O        2.74134815       3.32362288       7.66733822
O        4.07813869       7.34357349      11.54656637
O        5.59717455       6.64012138       4.77319111
O        3.95664583       6.13676095       9.22730245
O        1.14180776       6.56829704       8.24805401
O        2.12976416       5.62118873       5.56046743
O        5.59640419       8.02951362       9.60793125
Li       4.87863256       4.98131040      11.35930498
Li       5.59120822       8.91094325       3.97447121
Li       6.02679941       8.79106236       7.90403618
Li       1.68672603       2.40488140       1.96514746
Li       8.04494736       5.20138399       6.73604522
Li       3.06893024       7.42115480       5.34378424
P        7.69243602       3.31915085       4.15810144
P        5.33275935       0.38403726      11.70317404
O        3.95415815       9.90619705       5.11995220
O        9.67836882       9.90325219       4.18387907
O        0.41204976       0.47916982      11.31836204
N        9.14375177       3.54324324       3.58242068
O        3.96589842      10.40806917      12.01246263
O        7.00607625       3.35486039       2.75080678
O        7.41185706       2.06626832       4.97170819
Li       7.64509315       8.02092295       6.21240278
Li       3.03033143       3.25897858       5.21122293
Li       2.83758464       8.70776235      11.65228057
Li       5.30660218       4.79327491       4.62184173
Li       7.34494789       5.64396530      11.42710524
Li       6.74685090       1.18314192       8.29258809
P        7.36150427       3.84747350       9.22283097
P        4.22893664       0.27765059       6.19773876
O        5.30771221       0.61322300      10.20188301
O        8.00518961       9.73570731       6.98297812
O        6.30865161       4.33211140      10.29663103
O        0.18414959       2.62715640       6.17428365
N        6.78658221       3.08728243       7.98598036
O        4.04787682       1.68983436       5.71433192
O        4.86551703       5.18571994       6.80317619
O        8.12101961       2.66887568      10.22142329
Li       2.33146746       5.98483849       0.22755614
Li       7.43213024      10.58420260       1.63136669
Li       7.74653757       6.80193192       8.71034791
Li       1.06582931       0.43435233       3.17886904
Li       5.40796516       8.48873777       0.73045724
Li       2.98632109       8.77049924       7.36960967
P        8.57064971       9.17170851       3.44345873
P        6.75193824       4.49007196       1.59276184
O        6.48297700       7.10906043       7.19165076
O        7.15456163       4.50555794       4.99010280
O        8.76253788       9.22760181       1.86058877
O        8.34222110       7.04620921      11.28387217
N        8.47746674       7.58201563       3.82510909
O        6.54178001       5.90173395       2.22894183
O        5.59098829       1.82175927      12.26151923
O        7.13970430       9.65959112       3.69098262
Li       7.25617596       0.88443147      10.71726919
Li       3.02373236       5.84110337       7.31737093
Li       4.01661721      10.40375519       9.52477361
Li       6.75263917       8.71619153      10.79932703
Li       8.78013004       2.36539659       7.63253648
P        8.75053242       9.91372747       8.27977806
P        5.29315633       6.60109743       6.29613384
O        8.17394654       5.00956469       8.61834294
N        9.60805396       8.53981608       8.36877565
O        8.07224898      10.15415731       9.58581411
O        4.18127113       7.64168430       6.70122941
O        5.76774529       0.32811912       6.72249484
O        9.70450152       0.35702457       7.92619782
124
Lattice="9.90879 0.0 0.0 0.0 10.6625 0.0 0.0 0.0 12.434" Properties=species:S:1:pos:R:3 material=LiPON model=NEP89 temperature_K=900 phase="NVT production" display_name="LiPON｜NEP89｜900 K｜NVT production計算" report_figures="23_LiPON_lithium_MSD; 24_LiPON_transport_comparison; 25_LiPON_temperature_RDF" source_frame_index=510 relative_time_ps=51.0 pbc="T T T"
Li       5.62899681       5.30263693       8.90654377
Li       0.49254613      10.19730508       5.87854315
Li       4.96087678       1.73946882       9.41275102
Li       8.91579330       4.22944803      11.79129032
Li       3.11488046       6.58413266       8.30564840
Li       1.26753251       3.27119480       1.82177560
P        3.89600026       4.37415050       1.69139796
P        9.86677111       1.56268489       0.22407589
N        1.54908240       4.42448912       3.96510857
O        2.20374187       8.48008733       3.73962342
O        3.04903868       4.07322091       0.43161718
O        6.18503859       9.60328178      12.24264186
O        3.78652853       3.06474222       2.46414794
O        0.36291124       3.04313838      12.05512468
O        0.82732206       8.37322193      11.55595069
O        3.53743983       5.75007553       2.19893916
Li       2.92441226       3.08859530       6.06100370
Li       3.06895665       1.13196654       1.01405735
Li       7.68770579       6.50986693       5.23752862
Li       1.27532678       7.56295802      10.06990797
Li       0.11237927       4.69381403       9.45430505
Li       5.02294350       6.84145387       2.72986118
P        2.46222044       2.43756790       9.27634229
P        0.80261210       3.14908703       4.69418351
O        0.16737031       1.59171443       1.71052735
O        3.39041029       8.13191406       9.65036594
O        1.50031963       1.25080385       9.31042114
O        3.04326867      10.59167570       6.71293888
O        3.21726345       2.16777488      10.55400378
O        1.27046160       1.71892484       4.73615618
O        9.10678209       6.74196723       6.88805605
O        1.57953461       3.69789187       9.16897566
Li       3.12321827       5.74820896       3.96890887
Li       4.13850059       3.55324013      11.24704178
Li       6.04440305       1.10601358       3.94112072
Li       1.53186779       4.19936464      11.03810408
Li       8.75073116       6.30231437       2.86661705
Li       6.52550563       3.00745482      11.40471530
P        2.98253022       9.06241080       2.54887143
P        9.81277848       7.02567882      11.83192915
O        1.10691571       7.98524954       6.34923731
O        5.42904434       4.31424942       1.26212135
O        4.46142723       8.63612857       2.67394358
O        7.21775657       4.66268118      11.94114405
O        2.21075893       8.67830884       1.34018515
O        0.12795148       5.86425640      10.83522253
O        8.39189198       1.36849116      12.11393089
O        2.86200533       0.04050565       2.69482180
Li       8.09860423       9.77460007      11.88057419
Li       1.33521600      10.47940106       3.23435655
Li       9.23038241       1.14035757       3.60024239
Li       9.82618215       1.42996066      10.25759762
Li       0.43353275       9.23138672       0.88308400
Li       7.32410434       0.37834585       6.39532850
P        4.21789573       6.95251975      10.42766906
P        0.36724469       7.42449975       7.50265423
O        0.06070303       6.65237664       0.81511001
O        3.48622438       2.58069282       8.10311937
O        4.20648874       7.40829435      11.95007721
O        5.13265827       6.76009544       4.65690101
O        3.76858285       5.48967910      10.03504569
O        1.18320307       6.43829865       8.35275403
O        1.11470957       5.51481989       3.46274601
O        5.71414886       7.24081013      10.07966776
Li       2.87807631       6.19956746       0.34673171
Li       5.24068225       8.73829130       4.20336729
Li       5.75888112       8.30508008       7.08536588
Li       3.21403350       1.42959405       3.95326105
Li       8.64738188       4.74397979       6.69287055
Li       1.59992454       4.65034722       7.64307552
P        8.00887189       3.65327509       3.66427596
P        5.19889192       0.16959354      11.94587687
O        4.78931723       9.30935730       5.74893203
O        9.41695300       9.90815669       4.28409783
O        0.92739177       0.48197128      12.10532024
N        9.47468334       2.99496850       3.69182743
O        3.74540074      10.29949714      12.12203093
O        7.81544271       4.42818616       2.20441679
O        7.04780803       2.43570672       3.46369221
Li       0.56775899       7.36866851       4.67616505
Li       5.36162803       3.55875575       3.98592310
Li       2.65743236       8.78561003      11.86816985
Li       5.68284371       2.65926526       6.85430503
Li       7.27395843       5.95302392      10.69403686
Li       5.79312000       9.88714188       8.81586711
P        7.62144526       3.56357740       8.94000725
P        4.49547059       0.11153889       6.20189339
O        5.38784108       0.39709066      10.38179870
O        7.41239468       8.90603291       8.32470281
O        6.27382547       3.14195559       9.74613521
O        0.64248694       3.65197081       6.15034964
N        7.63215730       2.96113430       7.43677171
O        4.59861369       1.16478553       5.04773309
O        4.53416257       4.28760412       5.50273587
O        8.98157269       2.91553787       9.48201239
Li       1.71059710       6.79415847       2.13301396
Li       7.51472993       8.08677952       0.80675445
Li       7.52764267       6.90492737       8.15779439
Li       7.15467750       2.04299076       1.71999193
Li       4.94888121       8.55158447       0.80559724
Li       2.17967323      10.12078571       8.55621065
P        8.31999369       9.11922888       3.53470156
P        6.78233556       5.12855459       1.00120849
O        5.52828910       6.27000233       7.22249140
O        7.79247574       4.57516066       4.84557229
O        8.65843190       9.01918486       2.02209552
O        8.48043586       7.59540411      11.63302007
N        8.51366353       7.75424283       4.14644169
O        6.68990535       6.54681418       1.42489191
O        5.44677178       1.30131863       0.45955424
O        6.93764013       9.60356394       3.91882000
Li       7.37463554       1.26669288      10.01681554
Li       3.13765977       8.50250572       5.53583309
Li       2.31059825       0.44990557      10.97054842
Li       6.71744561       8.25783620      10.94216999
Li       9.64846109       1.84734625       7.81420763
P        8.75364952       9.73022707       8.36229416
P        4.64935786       5.92808316       5.91770644
O        7.73516764       5.18426062       8.80916418
N        9.84751344       8.61282656       8.42900596
O        8.69404113      10.53849636       9.75042860
O        3.24326209       6.41449139       6.21182897
O        5.54962454       0.57186233       7.26410806
O        8.94258989       0.09368801       7.22810761
124
Lattice="9.90879 0.0 0.0 0.0 10.6625 0.0 0.0 0.0 12.434" Properties=species:S:1:pos:R:3 material=LiPON model=NEP89 temperature_K=900 phase="NVT production" display_name="LiPON｜NEP89｜900 K｜NVT production計算" report_figures="23_LiPON_lithium_MSD; 24_LiPON_transport_comparison; 25_LiPON_temperature_RDF" source_frame_index=540 relative_time_ps=54.0 pbc="T T T"
Li       4.61849796       4.56100902       8.85491735
Li       1.37344609       9.73406751       5.21773762
Li       6.35637483       3.11670707      11.37871784
Li       0.35328421       3.44683437      10.71337099
Li       2.97588366       6.21249765       8.30657346
Li       1.12879222       4.09302781       1.22534235
P        3.69372603       4.12667274       1.13538835
P        0.77189070       0.61012082      12.08853938
N        0.19890325       4.70695337       4.31860660
O        2.72463220       7.81241662       3.65840775
O        3.82920583       4.67499397      12.18043563
O        6.88082850      10.09617343      11.57617200
O        2.71062182       2.85755490       1.02965673
O        0.05371223       1.95781514      11.63798655
O        1.52091415       7.12138942      11.36891646
O        3.09604385       5.33718482       2.12357650
Li       3.08632088       3.27498090       6.18943704
Li       2.88675911       0.88328774       1.39685406
Li       7.54974631       6.38921542       4.77494568
Li       0.56861121       8.17609779       9.83291449
Li       9.72893047       5.36932324       9.21858540
Li       3.61338024       6.84708398       0.72210668
P        2.43356812       3.33711225       8.70726840
P        0.28268931       3.08090042       4.97995667
O        0.96186115       0.60195324       1.23742272
O        3.89161839       8.86945508      10.55119271
O        1.48243021       1.97803116       8.44790547
O        2.54565430      10.58518810       6.01515758
O        3.80703805       2.81193160       9.18267595
O        1.77337130       2.67625682       4.79090705
O        8.66003764       6.86922449       6.42397980
O        1.74157402       4.13233336       9.90709466
Li       4.76215493       5.55375040       3.48230175
Li       5.57008621       5.49211856      11.38375847
Li       5.74485260      10.01697658       3.52144974
Li       2.94363074       2.73080876      11.22396772
Li       8.64127462       6.48128818       2.14412962
Li       8.60003493       4.40241253      12.01649930
P        3.38337014       8.82051386       2.68033251
P        0.31173118       6.69676576      12.31446158
O        0.74065637       8.32259723       6.17758006
O        5.27074501       3.72861691       1.67058146
O        4.87220600       8.30733179       2.89027057
O        7.12036257       4.99393459       0.47342755
O        2.85205151       8.64020497       1.20267524
O        0.32664819       5.09275796       0.06530961
O        9.90203970      10.00541649      11.88076751
O        3.15899874      10.28237342       3.05603030
Li       8.57252969      10.02774412      10.69635447
Li       0.21150716       1.61762305       2.84130610
Li       6.86216171       0.17716883       5.95816374
Li       0.76202947       0.68741492       9.65695066
Li       1.05384233       9.27788458       1.58711350
Li       5.89179420       8.50188203       7.14863712
P        4.64363008       7.50469320      10.40307482
P        9.79276560       7.71654065       7.27960271
O        0.40184529       7.15984361       1.32501040
O        2.44458419       4.38463805       7.49015246
O        5.25003792       7.23499233      11.89471596
O        5.87940840       6.76588294       5.70670365
O        3.70705502       6.35464952       9.77639976
O        0.63055202       6.77792587       8.19050874
O        0.10611932       4.96423071       3.05826334
O        5.78828975       7.78328064       9.41347002
Li       2.26179438       5.52875272      10.99797610
Li       5.77986758       8.26732798       4.71331940
Li       3.27010656       8.57293003       8.63683775
Li       2.46024970       1.16613016       4.09018868
Li       7.93447432       3.98099482       6.68852779
Li       0.43238640       5.45166311       6.40722318
P        7.54549011       2.64874301       4.06154034
P        6.14049650       0.68784924      11.91631162
O        4.93151585       9.81509191       5.65070592
O        9.71284739       9.88023465       3.98229074
O        2.22567604       0.49604104      11.52919865
N        9.04979646       2.13752970       4.18749612
O        5.30824890       0.39462980       0.78754086
O        7.52929092       3.50304005       2.65911608
O        6.60264391       1.34283221       3.90467174
Li       1.20334158       6.78613377       2.89577509
Li       6.46776931       2.03690244       1.67803022
Li       1.88322388       8.83298949      12.04998711
Li       5.47959415       2.92913445       6.63851723
Li       7.65100445       7.03492836      10.25656414
Li       5.74298885       2.09820191       9.47406030
P        7.38297121       4.18184335       9.24795137
P        4.04744052       0.01475678       6.60664311
O        5.06324279       1.03259336      10.67206220
O        6.91929215      10.04610918       7.66755103
O        6.04937531       4.38976078      10.00574802
O        9.64421146       3.32150994       6.44311845
N        7.06346628       3.03281953       8.25156311
O        4.32749361       1.40859134       6.66082255
O        3.75393649       5.52760924       4.98475797
O        8.38783290       3.70550225      10.27873273
Li       2.16064163       5.09501029       3.80839273
Li       5.55895545       7.09333940       1.33076651
Li       7.02158390       6.45156105       7.18777544
Li       8.25422183       9.39241409       0.23134554
Li       4.33746399       9.51165710       0.13784084
Li       1.29364941       1.16896506       6.73926797
P        8.58126470       9.01655487       3.54775307
P        6.72219110       4.64987366       1.84088750
O        5.13210793       4.92798267       7.22320682
O        7.01930895       3.39507120       5.28346698
O        8.11448403       8.87921940       2.13954773
O        8.92231649       7.24116417      11.58911524
N        8.84669887       7.48017637       3.85271768
O        6.20358460       5.87256611       2.68904121
O        7.15813250       1.79956219      12.20691954
O        7.43232891       9.34580920       4.54928372
Li       8.50740632       1.84164541      10.76044925
Li       2.43205175       7.28724259       5.44806327
Li       3.27683081       0.08224032      10.04889319
Li       5.60358541       9.80149776       8.94495353
Li       8.98434586       2.18833194       8.37176434
P        8.49170218      10.33159364       8.04508612
P        4.59084739       6.05242366       6.22808897
O        8.02205281       5.39358779       8.63283650
N        9.20973815       8.93974383       8.03328348
O        8.54658904       0.53175836       9.33368711
O        3.74503077       7.03515165       6.99704256
O        4.07204720      10.13235884       8.04443744
O        9.02783687       0.52719306       6.93134655
124
Lattice="9.90879 0.0 0.0 0.0 10.6625 0.0 0.0 0.0 12.434" Properties=species:S:1:pos:R:3 material=LiPON model=NEP89 temperature_K=900 phase="NVT production" display_name="LiPON｜NEP89｜900 K｜NVT production計算" report_figures="23_LiPON_lithium_MSD; 24_LiPON_transport_comparison; 25_LiPON_temperature_RDF" source_frame_index=570 relative_time_ps=57.0 pbc="T T T"
Li       3.24215893       6.77535431       8.19170263
Li       0.53720677      10.42002657       5.94222545
Li       4.87331798       4.59465894      10.97235523
Li       1.23257291       3.57905107      12.07659434
Li       1.75263409       5.47028768       6.73390476
Li       1.37879818       2.50131941       2.42505622
P        3.75791668       4.23394105       1.59874485
P        1.26823644       0.65478885      12.42624644
N        0.96767536       4.06203799       4.92855950
O        2.74971558       7.39218394       3.95551203
O        4.01911048       3.24905584       0.37220635
O        6.70014997       9.48326433       0.65629848
O        2.92312143       3.39793797       2.58583658
O        0.68561788       1.88333987      11.68411609
O        1.21988993       7.25274371      11.51038518
O        3.17663917       5.50490222       1.10863919
Li       5.92007328       6.06892804       3.19513974
Li       3.56620058       0.45982076       1.91247582
Li       7.97967666       6.05552257       5.06254887
Li       1.53365290       6.01213832       9.96539346
Li       6.88932352       6.36498592       8.44368507
Li       4.74651877       6.94164296       0.71986703
P        2.24730594       3.55839516       9.30449929
P        0.00907681       2.71798977       4.79025693
O        1.13009211       0.85488866       1.53128514
O        3.48435246       8.57679105       9.28224625
O        0.69607027       3.80194198       9.08510059
O        2.99917600      10.55884990       6.61179116
O        2.67596399       1.96155521       9.31837348
O        1.13688876       1.64304843       4.78233402
O        9.27217721       6.29822593       6.78038855
O        2.53623611       4.19587745      10.69495852
Li       6.92228666       8.13196269       2.28556944
Li       7.74974763       5.49633471      11.01996593
Li       5.56004249       9.06951607       4.21913192
Li       3.40251758       1.77103504      11.15407618
Li       8.69045306       5.70232171       2.37970864
Li       4.53270254       2.23479821       8.57120905
P        3.44669353       8.55148648       3.04413054
P        9.82804870       6.72390221      12.22899445
O        0.75028582       8.28320931       6.40133258
O        5.35697958       4.70962226       1.94295142
O        4.83857241       8.19207212       2.43038845
O        6.48910399       4.68687348      11.98697612
O        2.57882964       8.79501638       1.81652558
O        9.54076649       5.28342658      11.72023377
O        0.45395762       9.88967462      11.99264658
O        3.19700781       9.81623660       3.94366605
Li       0.66969969       8.62575337      10.15955426
Li       8.12058071       3.14052069      12.17832369
Li       6.51179059       0.66598163       4.25302844
Li       8.28985145       0.51652690      11.12964217
Li       1.17081179      10.59977028       3.59648427
Li       2.68735450       8.70459918       5.67014647
P        4.21565121       7.64477404      10.29723449
P        0.23203693       7.34058074       7.58537660
O        0.00196066       6.94840806       1.26530470
O        3.00482808       4.16225880       8.07171753
O        4.22930225       8.19974151      11.73009893
O        5.74406836       7.30383548       4.83918619
O        3.60562221       6.19175605      10.13192712
O        1.38618347       6.75327576       8.37890388
O        1.27095092       5.21611035       4.63184283
O        5.64311136       7.27379867       9.77016769
Li       2.88060017       5.92902123      11.87629913
Li       0.71289011       7.24877420       4.72711934
Li       2.64371697       9.62031505       8.09481268
Li       5.50690289       2.26113979       1.87046215
Li       7.28576593       3.96485938       6.13587894
Li       9.04923415       4.43071149       7.99014479
P        7.80660093       3.32723618       3.27295208
P        6.20293270       0.17794442       0.13728877
O        5.51149268      10.50912590       5.69907780
O        9.61116550       9.72006480       4.53197744
O        2.79490887       0.34070489      12.18879097
N        9.21774673       2.70778038       3.31167204
O        5.16448473       0.48730691       1.27206514
O        7.74983497       3.91505878       1.71413167
O        6.74219420       2.28932259       3.52405861
Li       0.88314162       8.97506514       0.98323028
Li       4.92557589       4.49061477       7.82742678
Li       8.68981584       9.02211483       0.44051513
Li       3.12072668       5.21952697       4.03385692
Li       7.10523748       8.61993152      11.06032685
Li       2.48488957       1.90038162       6.73064673
P        7.13239207       3.23507803       9.15404683
P        4.57599249       0.39491905       6.77198422
O        5.43754773       0.30395822      11.16286900
O        8.24326704       9.91095337       7.16827937
O        5.60382902       3.47805177       9.37857457
O        8.91108462       2.32952005       5.90232335
N        7.04772255       2.79925351       7.63665151
O        4.42796964       1.87599113       6.53141555
O        4.62244706       5.09406372       5.17194566
O        7.85969104       2.17383696      10.04441028
Li       1.84066659       6.67215159       2.06662456
Li       4.01571474       9.50201966       0.64267823
Li       7.57441986       8.59040746       5.83043005
Li       8.93519909       0.88871240       1.80538028
Li       2.52536092       9.05140916      11.44346229
Li       0.36517388       1.76305778       9.71096204
P        8.61943078       9.15283726       3.51285922
P        6.63332582       4.95636985       1.01605686
O        6.39803682       5.92595201       6.83560959
O        7.47793286       4.58854600       4.16898862
O        9.17916544       9.49700624       2.11444098
O        8.63546448       7.51271722      11.65939523
N        8.42569990       7.58942936       3.53464414
O        7.12795775       6.31165139       1.24005172
O        7.42623495       1.08072353       0.28208223
O        7.26382227       9.73106598       3.67251383
Li       6.61040852       0.53707092       9.75607400
Li       4.99926132       3.13743833       4.76739416
Li       4.39001557       9.93910980      10.17940482
Li       6.06284584       8.63457780       7.93419861
Li       7.62926980       1.13695076       7.14222512
P        9.06971594       9.67766137       8.47702368
P        5.15099704       6.39832855       5.90673954
O        7.83462888       4.62242494       9.38017127
N        9.34747235       8.06118393       8.65474364
O        7.98776626      10.03982830       9.61434106
O        4.12077012       6.91078755       6.82284295
O        4.86939719       0.16975384       8.28779935
O        0.48759111      10.46383339       8.38493227
124
Lattice="9.90879 0.0 0.0 0.0 10.6625 0.0 0.0 0.0 12.434" Properties=species:S:1:pos:R:3 material=LiPON model=NEP89 temperature_K=900 phase="NVT production" display_name="LiPON｜NEP89｜900 K｜NVT production計算" report_figures="23_LiPON_lithium_MSD; 24_LiPON_transport_comparison; 25_LiPON_temperature_RDF" source_frame_index=600 relative_time_ps=60.0 pbc="T T T"
Li       2.75566216       6.04443347       8.47078362
Li       8.31470452       0.73539192       5.42045488
Li       4.93424524       5.09087467      10.72159244
Li       0.22363221       3.03984930      11.64808902
Li       2.76630523       3.96965608       6.49442468
Li       8.51319147       0.42674708       1.67507178
P        3.78340884       3.90288098       1.06558796
P        0.88914904       0.47362115       0.10189038
N        1.31233560       4.01305793       4.75878684
O        2.44507860       8.18209397       1.46709229
O        3.80776943       2.61947639       1.90137669
O        6.94885119       9.61984853      12.01430597
O        2.51619407       4.77497926       0.76492073
O        0.14808616       1.26947374      11.49768344
O        1.25037301       6.94278135      11.71678509
O        4.10199092       3.55158628      12.09788761
Li       4.55040075       6.76077429       3.28019811
Li       3.27239848       0.54782481       1.33336869
Li       9.52343108       5.92402018       4.60043390
Li       2.71206892       4.97692955      11.28241977
Li       7.39820927       7.06261253       8.74284158
Li       5.76873118       8.29903723       1.51265826
P        2.44647624       3.04279630       9.25079791
P        0.33918263       2.77910038       4.42222323
O        1.55500649       1.46398551       1.12707277
O        4.09607412       8.68946904       9.43865717
O        1.72736887       3.64772273      10.48450949
O        3.23074774       0.40067357       6.60119086
O        1.33027153       2.81072928       8.16058262
O        1.40903987       1.85216684       3.74042052
O        9.83034823       6.08834454       6.72823126
O        2.97573796       1.74175076       9.56646994
Li       6.59622025       6.64899207       4.17078634
Li       7.56045281       6.16519773      11.12740476
Li       2.57164064       9.37509126       7.47804227
Li       2.85905001       2.39168862      11.76817973
Li       8.15725392       7.08342808       1.94044371
Li       5.07826600      10.27210562       9.02478177
P        2.98504893       8.62455964       2.92434814
P        9.83993809       6.37400019      12.40244752
O        1.32358706       8.17175560       6.91291390
O        4.74349900       4.80018842       1.86488188
O        4.56578378       8.70232162       3.05460149
O        6.50018289       5.21012865      12.41011278
O        2.21859416       9.99180808       3.10998176
O        9.57961595       4.78894509      12.07071839
O        0.10410117      10.13853697       0.97888560
O        2.49098248       7.42335098       3.71370894
Li       1.44845582       8.03020652      10.21167313
Li       7.58886114       3.40286461      12.35405732
Li       4.57491208       9.31896661       4.72696024
Li       8.37540214       0.69544655      10.67297188
Li       0.77176686       8.99684380       5.08612306
Li       2.47470413       6.97681235       5.58265651
P        4.50789408       7.58717084      10.37675150
P        0.33196962       7.20362524       7.64087094
O        0.00918068       6.32239592       1.61520677
O        3.48642356       4.04346848       8.68375346
O        4.48871473       8.05190724      11.77715014
O        5.38303125       5.81274662       5.10352507
O        3.51630220       6.38891979      10.06183977
O        1.05120466       6.72274405       8.84265134
O        1.91006807       5.17634427       4.70285376
O        6.06252735       7.24493679      10.07907702
Li       3.07460431       6.76283156      12.39992618
Li       0.06885878       4.24336112       1.23008787
Li       6.99506048       1.01408638       8.58343924
Li       5.60423999       2.04172001       1.54308488
Li       9.44295840       3.69051566       7.13423981
Li       0.18466190       4.72769033       9.97357060
P        7.87018137       3.08975389       3.29101821
P        6.26231247       0.32301719      11.99235755
O        4.86479737       0.84786288       4.79866073
O        9.31618027       9.98747528       4.05950111
O        2.14586518      10.44821705      11.92338346
N        9.31960646       3.38865590       3.12047875
O        4.96109142       0.23375901       0.47527656
O        7.32176021       3.93711474       1.88937665
O        7.46608384       1.57453046       3.08342379
Li       0.84448571       0.46436325       2.69398470
Li       5.49086748       3.87496409       7.82866939
Li       8.58033179       8.92732473       0.26637467
Li       5.03152959       3.34061056       4.74378909
Li       7.10746910       8.80738305      10.37964089
Li       1.22011943       1.03324593       6.91004191
P        7.41850365       3.79483219       9.08107273
P        4.54880399       1.09003640       6.36999978
O        5.88882966       0.70988406      10.49016109
O        8.75274344      10.25601600       6.87271279
O        6.03259487       3.80908092       9.79209475
O        9.53807427       2.31965910       5.71647355
N        7.36404107       3.93682773       7.47680393
O        4.63967519       2.59994532       6.54794961
O        3.48163626       6.15768230       6.77224541
O        8.13430889       2.31881570       9.18115801
Li       2.22321873       6.24858151       2.36295032
Li       0.70005573       8.60051979       1.84183571
Li       6.84817296       9.67396491       6.64313999
Li       3.13674789       0.58077018       4.12118803
Li       3.56861216       9.38318774       0.13109240
Li       0.13359203       1.80520692       9.37181444
P        8.20773724       9.01340766       3.63435172
P        6.35356732       5.15053463       1.42306642
O        6.19969548       6.48106529       7.40762172
O        6.99373747       3.85842987       4.38712225
O        7.80176373       9.26190275       2.18564758
O        8.63320253       7.24492844      12.07134044
N        8.37537872       7.47050574       3.95311568
O        6.67699702       6.45034848       2.16525082
O        7.32588582       1.40268906       0.02757300
O        7.27859748       9.55347435       4.80316527
Li       6.97816019       2.80088741       6.00312669
Li       7.44199946       5.57352326       6.44611244
Li       1.78595964       0.15435433      10.09523923
Li       4.99344863       2.31053160      10.18104454
Li       5.92685655      10.65669842       3.08242100
P        9.22424399       9.64048439       8.28862689
P        4.97796137       6.58511193       6.37716810
O        8.27035715       4.93154620       9.70367768
N        8.97406528       8.03931802       8.03279474
O        8.24309341       9.83395233       9.37132274
O        4.89578637       8.08442532       5.93946107
O        5.54338952       0.42733708       7.31830725
O        0.76019472      10.22007407       8.75004742
124
Lattice="9.90879 0.0 0.0 0.0 10.6625 0.0 0.0 0.0 12.434" Properties=species:S:1:pos:R:3 material=LiPON model=NEP89 temperature_K=900 phase="NVT production" display_name="LiPON｜NEP89｜900 K｜NVT production計算" report_figures="23_LiPON_lithium_MSD; 24_LiPON_transport_comparison; 25_LiPON_temperature_RDF" source_frame_index=630 relative_time_ps=63.0 pbc="T T T"
Li       4.22027596       4.07996789      11.05208933
Li       8.01037987       0.19801152       5.10021916
Li       6.13290326       5.84360569       9.02764415
Li       0.40084684       3.08790884      10.99843940
Li       1.76848526       9.24945039       5.47348108
Li       6.05345755       3.37750624       0.01873309
P        4.09065159       3.77915367       1.66383371
P        1.28617303       0.09359143      11.34804855
N        1.75922218       3.67865906       4.58029226
O        2.53632954       8.14217117       1.51050219
O        4.44681902       2.72832520       2.84333588
O        6.97068850       9.80184764       0.13976616
O        2.64273766       4.23901594       2.06706750
O        0.00697274       0.89880590      11.41295685
O        1.86570224       5.75218583      11.87986158
O        3.92016360       3.13754111       0.31517078
Li       3.27212317       5.04888076       3.75342408
Li       3.71113376       9.86721878       0.77995628
Li       9.59552443       4.86985842       2.52550706
Li       1.85980645       2.35436153       0.79040365
Li       7.63135677       7.49295694       8.04384448
Li       5.21187387       0.44344387       3.44550623
P        1.97040270       3.40598042       9.04144238
P        0.66104176       2.71750202       3.94743343
O        2.18195511       0.10292163      10.11538801
O        4.57240305       8.61887897       9.74590620
O        1.02842147       4.29915647       9.81742949
O        2.27633484       0.09667232       6.13964109
O        1.32154466       2.21328316       8.36843304
O        1.26562707       1.77558077       2.69895694
O        9.40221219       6.20133040       7.39750038
O        3.17588732       2.83618013       9.92502652
Li       6.60419172       7.76411240       3.11069838
Li       5.77804739       7.91823827       0.93185861
Li       3.20325036       7.52177751       8.81796348
Li       3.59299318       1.74612738      11.66393415
Li       8.29421991       7.88886190       0.51586881
Li       5.29311480       9.14519467       7.95524193
P        3.28185421       8.61178639       2.84446232
P        0.45173969       5.59149460       0.02378927
O        1.54237876       7.77124614       6.73402436
O        5.05639859       5.14162005       1.56031410
O        4.73465347       8.22958360       2.71107746
O        7.26925975       3.96318067       1.05291209
O        3.18425351      10.21819645       3.18641435
O        0.03962441       4.12527039       0.20712151
O        2.20485816       0.54759083       0.24098171
O        2.51989398       7.88797849       3.92671009
Li       9.83624288       8.16396608      10.37708728
Li       7.47983850       5.91083149      11.78550393
Li       1.85554565       0.70059286       4.09980356
Li       8.28096219       0.16059609      11.03740203
Li       0.47201833       0.45798422       5.91919475
Li       0.87685016       6.87235920       4.92640818
P        5.02391071       7.24263731      10.55224924
P        0.41697548       7.39167076       7.69286841
O        0.28148070       6.35753114       1.45454005
O        2.57860018       4.40238936       7.91548301
O        4.53840537       7.76136500      11.97670942
O        4.58465422       5.32559537       5.89886339
O        4.12999710       6.03093988      10.06198039
O        1.18331277       7.11307767       9.05459000
O        1.59972504       4.96080957       4.78222440
O        6.55057250       7.06674985      10.36416926
Li       2.24267812       5.84044914      10.13946997
Li       8.39593918       2.72498776      12.05378021
Li       5.84331067       1.36404403       8.96097213
Li       6.47449968       2.51919058       2.03915416
Li       7.89644876       5.26460455       6.98879491
Li       9.44535883       5.46997685       9.68369097
P        7.81894556       3.79638701       4.04291140
P        6.04731750       0.41466263      12.42155377
O        4.81581777      10.51108195       5.37063674
O        0.07527448       9.88387535       4.38038731
O        0.88260399       9.28636423      11.73350202
N        9.21603497       3.34654501       3.34049174
O        4.98370886       0.45810521       1.10708340
O        7.11674107       5.11050141       3.20958795
O        6.96834879       2.55637407       3.86020310
Li       1.46082722       9.98885557       2.09773993
Li       2.86864825       5.73965509       6.49358182
Li       9.38690061       0.37324814       1.05954517
Li       4.39688559       3.78912374       7.59651356
Li       6.32517130       9.42509259      10.02951865
Li       2.26900658       2.96237587       6.33278683
P        7.11295072       3.54856885       9.80088908
P        3.89951869       0.64693913       6.28916757
O        5.50660245       0.39582084      10.97849342
O        7.24667463       9.27095349       7.36477202
O        6.58617786       4.42171868      10.87032637
O        0.14247503       1.81463002       5.18798385
N        5.89561478       3.08679541       8.90760587
O        3.88794159       2.13520896       5.80746865
O        6.55280204       6.32637849       7.40990064
O        7.91364644       2.34176110      10.24216370
Li       2.30248525       6.34005395       1.36647816
Li       0.68760981       8.03512416       1.14232758
Li       6.60060059       8.91944673       5.38180214
Li       5.23518462       3.12094372       4.55630559
Li       3.99015938      10.28102463      10.02856877
Li       9.33671896       1.59799677       9.15074089
P        9.02363761       9.09455652       3.48551772
P        6.67550312       5.15958043       1.63144684
O        5.98658875       7.37404703       5.13898996
O        7.96929979       4.12907205       5.52574766
O        9.42249466       9.37138524       1.87912985
O        9.34569057       6.46725264      11.66201878
N        9.44704383       7.52216324       3.85867693
O        6.98468054       6.58173012       1.00029952
O        7.15431841       1.58884780       0.37711967
O        7.46231976       9.51754242       3.74976731
Li       8.61867082       2.77070438       6.64047522
Li       7.84625085       6.96402461       4.78052240
Li       2.32043965       7.97084606      11.79730797
Li       1.82138411       0.59955490       8.39210296
Li       3.60261123       1.37143767       2.20292121
P        8.46485319       9.72929931       8.19242294
P        5.26958696       6.65913111       6.38027168
O        7.94368774       4.51935579       8.78875859
N        9.32925477       8.49700876       8.18125728
O        8.26462014       9.92729186       9.66656380
O        4.38966561       7.58742546       7.28379345
O        4.40860417       0.54818244       7.73235803
O        8.90008560       0.29569299       7.47025172
124
Lattice="9.90879 0.0 0.0 0.0 10.6625 0.0 0.0 0.0 12.434" Properties=species:S:1:pos:R:3 material=LiPON model=NEP89 temperature_K=900 phase="NVT production" display_name="LiPON｜NEP89｜900 K｜NVT production計算" report_figures="23_LiPON_lithium_MSD; 24_LiPON_transport_comparison; 25_LiPON_temperature_RDF" source_frame_index=660 relative_time_ps=66.0 pbc="T T T"
Li       0.71216698       3.30415108      11.64858066
Li       6.13521263       2.56989180       1.44661275
Li       4.95618776       5.31038015       8.96074910
Li       8.29011648       1.19705042      11.19430642
Li       5.39870278       9.28754597       7.73043390
Li       4.87559805       4.85223983      11.35462728
P        3.86050219       3.61660094       1.48717609
P        1.30817185       0.25678893      11.72095211
N        1.60422423       4.23553316       4.33444602
O        3.28840701       8.42280866       1.98172609
O        4.27925358       2.47221490       2.69461193
O        7.36001522       9.40382667      12.43296285
O        2.39959222       3.53665394       1.11711514
O        2.44318194       0.15535033       0.30502083
O        1.19798130       6.64670096      12.03345001
O        4.54027961       3.12019634       0.13909582
Li       3.72263572       5.76689352       3.52889039
Li       1.12448611       8.14980505       1.51214869
Li       0.55159352       4.22043939       1.87044176
Li       6.69492082       7.46160851      12.37806318
Li       9.87965095       5.12847400       9.64013929
Li       4.05140289       8.45879810       5.94944640
P        2.17379641       3.97701611       9.18547313
P        0.66684615       2.86650979       4.00645849
O        0.29257824       1.52688317      11.77786299
O        4.14389171       8.53230507       9.34687137
O        1.53036643       4.33665767      10.67529702
O        2.54550974       0.23238399       6.39611815
O        1.03823893       3.16348693       8.44726091
O        1.43615251       1.95177488       3.04516237
O        9.44886825       6.16119270       7.17098251
O        3.20489990       2.92267938       9.61111123
Li       6.71657352       7.87289257       3.78011161
Li       6.35012169       9.17500776       2.04208014
Li       2.82836412       6.89629256       8.00183342
Li       2.81267907       3.46931854      11.57876491
Li       8.38858678       6.50774182       2.85521546
Li       7.82544130       5.23680443       7.28593666
P        3.46791065       8.97723984       3.37844029
P        9.82458715       6.24057875       0.33223630
O        1.52729281       7.87315971       7.17574034
O        4.45825815       5.20329234       1.93016266
O        4.93067386       8.84600896       3.93236521
O        6.00820468       5.44517248      12.39977020
O        2.94216748      10.42356092       3.47853605
O        9.52130265       4.78780557       0.00627712
O        2.12371368       0.26501328      10.40421172
O        2.58131190       8.22753970       4.40607563
Li       8.93874912       8.18068831      10.59412853
Li       7.75466507       5.41857318      11.56580870
Li       1.83441580       0.55547505       4.47324081
Li       5.16392173       2.33962317      10.92184544
Li       1.62407178       9.54723773       5.86018147
Li       2.47044430       6.62939443       5.70646257
P        4.84601988       7.72061126      10.48663299
P        0.25287202       7.28956851       7.94412108
O        0.28641463       6.44991827       1.94497843
O        2.84906567       5.06199548       8.16207566
O        4.30401399       8.05829453      12.00894150
O        4.59258273       4.86853251       5.07624805
O        4.30034763       6.30117061      10.48569718
O        0.78364094       7.06089106       9.42564562
O        1.78946263       5.55070529       4.31332440
O        6.31376362       7.69801234      10.30686502
Li       2.28039847       6.15615924      10.70864487
Li       7.97827581       3.25891559       0.17074565
Li       4.77798302       2.86077339       8.51179634
Li       8.55203982       1.37241099       2.96753450
Li       8.46876890       6.64930980       5.59985357
Li       0.04839735       1.98736025       9.43667499
P        7.86976523       3.88111630       3.64055775
P        6.52910301       0.08038154       0.24354129
O        4.91666169      10.04863984       6.17307473
O        9.87053610      10.31140935       4.59571848
O        0.38166901       9.60494953      11.78049308
N        9.30503194       3.40725036       3.10675909
O        5.66215736      10.60350835       1.47884709
O        7.01229275       4.28617400       2.05692807
O        6.94467084       2.91487061       4.26513843
Li       1.46008896       0.43849284       1.98673944
Li       3.15401443       3.51219829       5.46136081
Li       8.89369883       9.21945493       0.59638164
Li       6.19389285       2.01566262       6.01394257
Li       6.46511826       9.47828217      10.21044395
Li       3.81747710       1.09480873       1.52184972
P        7.16452461       3.64390302       9.28238539
P        4.04672185       0.53785251       6.66134442
O        5.58955599       0.15497543      11.50419571
O        7.57157700       9.67925381       7.06661509
O        5.69316095       3.71367683       9.77323312
O        0.32505141       2.26514652       5.35053050
N        7.03141178       2.98561298       7.89662577
O        4.29550766       2.00651730       6.13028118
O        5.95126307       5.09102739       7.17211690
O        7.91549885       2.59375184      10.17336598
Li       3.07396336       6.99184969       0.38108870
Li       0.71388544       7.17854399       4.29576644
Li       6.92024451       9.70360008       5.24469076
Li       5.23675230       3.44516254       4.23706092
Li       4.11810933      10.40977991       9.74049030
Li       8.76474287       1.91126934       6.49291852
P        9.16589000       9.49208899       3.60435118
P        6.05015768       5.52538495       1.50785412
O        6.25297988       6.83753187       5.39031152
O        8.02973595       5.09172942       4.55600065
O        0.01962862       9.31652932       2.28300488
O        8.52723490       7.04803174      12.20739017
N        9.04706329       8.01208608       4.02857051
O        6.34419148       6.90483543       2.12499536
O        7.42565537       1.48735380       0.33753939
O        7.62935631       9.72425575       3.57364509
Li       5.27797177       0.05290988       3.22265401
Li       0.96661486       4.00826933       6.66575035
Li       1.61428473       8.62879304      10.04523715
Li       1.05812634       1.33248403       6.79930894
Li       4.12031788       9.73787926       0.17278642
P        8.61240975       9.90300212       8.12816911
P        5.17716664       5.96218214       6.11418774
O        7.84004764       5.13087657       9.55770224
N        9.44816516       8.67650611       7.97702224
O        8.27189223       9.82972389       9.64803423
O        4.09746618       6.84395924       6.78174595
O        4.40107438       0.75700937       8.29727753
O        9.29486176       0.62555800       7.87815424
124
Lattice="9.90879 0.0 0.0 0.0 10.6625 0.0 0.0 0.0 12.434" Properties=species:S:1:pos:R:3 material=LiPON model=NEP89 temperature_K=900 phase="NVT production" display_name="LiPON｜NEP89｜900 K｜NVT production計算" report_figures="23_LiPON_lithium_MSD; 24_LiPON_transport_comparison; 25_LiPON_temperature_RDF" source_frame_index=690 relative_time_ps=69.0 pbc="T T T"
Li       0.60881226       1.40556147       8.78401959
Li       8.12059165       0.60238110       3.31944445
Li       7.23741411       7.06398067       8.76882616
Li       8.56500739       1.00806653      10.71474923
Li       5.05786925       9.53905638       8.03204849
Li       3.72496686       2.65760016      10.20053175
P        3.95295938       3.65018670       1.14649216
P        1.19240174       0.98927428      11.75692759
N        0.77501006       4.10133579       4.63312074
O        2.62004363       7.75110206       1.96024023
O        4.33508318       2.43502230       2.06720210
O        7.99650180       9.79043212       0.33498827
O        2.43559911       4.08609870       1.32369790
O        0.75424591       2.03983121       0.39306335
O        1.28132165       6.67196727      12.07083791
O        4.43407571       3.55442863      12.00205871
Li       0.84483604       7.79084320       2.28851347
Li       2.41418454       6.10460057       0.97251202
Li       1.02986203       4.56140381       2.63621820
Li       7.22423807       8.86778337      11.30330582
Li       9.44855847       4.42867367      10.33386966
Li       3.33265380       8.74205617       6.06167379
P        1.82275255       3.60996938       8.85090684
P        0.00536007       2.60151992       4.65794795
O        0.28081281       1.24908331      10.58059398
O        3.94541543       9.16762345       9.67048762
O        2.16586031       4.06466828      10.29935181
O        2.97834372       0.14459296       6.50585892
O        0.31636604       3.85543816       8.72714980
O        1.02279482       1.69767783       4.09323845
O        9.60117380       6.11470788       6.99513698
O        2.39642929       2.09602320       8.56321503
Li       6.54560082       6.39355433       3.89011686
Li       6.40842291       9.85583789       3.37265557
Li       5.04739751       4.89791212      10.60067444
Li       1.40265870       3.76202139      12.02823507
Li       8.88195144       5.84164012       3.75187054
Li       8.14515525       5.16412938       6.76753776
P        3.32363494       8.78199760       2.89619275
P        9.87181911       6.21152290       0.23886949
O        1.35826909       8.04373154       7.25945108
O        4.78733647       4.93564662       1.84000400
O        4.84838678       8.77738409       2.57668698
O        6.82625800       4.75123886       0.15463968
O        2.52842728      10.01526937       2.36906224
O        9.72538272       4.77870886      12.12555412
O        2.68775100       1.11606961      11.47796813
O        3.04177617       8.42696967       4.44785117
Li       0.05151220       8.91550859      11.13940114
Li       7.16951589       6.03348331      11.10632614
Li       2.53719106       0.29729447       4.01110859
Li       6.24624757       2.95046168      11.99070527
Li       1.21308234       9.89145599       6.55815448
Li       3.72831528       6.07913315       3.99760120
P        4.47407967       7.90255725      10.48711607
P        0.28959088       7.20708009       8.06989365
O        9.84558953       6.21445922       1.78133888
O        2.48368535       4.59399847       7.86262491
O        4.24427180       8.18182178      12.06207954
O        4.55892679       5.62121150       6.00868805
O        3.86542512       6.57557966       9.85707265
O        0.79238481       6.93443872       9.49379055
O        1.91618018       4.57809731       4.88271940
O        6.20999307       7.72608348      10.44383468
Li       1.95574805       5.88948721      10.50067508
Li       9.02199083       3.10414124       0.96555120
Li       4.85258767       4.46460670       7.94489180
Li       0.76959767       1.24256638       1.98164333
Li       8.16751801       7.55890719       6.51978354
Li       9.19447899       0.52544266       6.13058198
P        7.42694692       3.43160091       3.90415919
P        7.00485076       0.31064826       0.62086828
O        4.32427504       0.62419029       4.37357427
O        0.64784974       9.81859744       4.74261959
O        1.11658632      10.26160061      12.39157041
N        8.72521393       2.61799864       3.57093286
O        6.83276661       0.42454790       2.16766734
O        6.99784104       3.98129388       2.48513329
O        6.58533828       2.33436134       4.60852844
Li       2.38477166       8.31091984       0.24085507
Li       3.40990161       4.27358440       6.18636053
Li       8.22533958       7.97465849       1.38757171
Li       5.82780311       3.81892753       5.85178774
Li       6.65437214       0.54213921       9.12955721
Li       4.61277595       0.71935432       1.31299312
P        6.92222296       3.38797638       8.99798657
P        4.25624131       0.92491906       5.98397691
O        5.69929629       0.17700384      12.24294148
O        7.29546903       9.76860188       8.01716646
O        5.44838975       3.19095091       9.34942309
O        9.69255465       2.27132600       6.19683361
N        6.94197763       3.57269231       7.32952458
O        4.06274141       2.44873107       5.80649658
O        6.75578225       6.36619750       7.11677792
O        7.74735314       2.09174874       9.29577632
Li       5.70974667       7.95273129       1.23014936
Li       0.94456055       6.97101982       5.11335799
Li       6.59318608       9.77733355       6.04419986
Li       5.45763783       1.69763714       3.22872581
Li       2.51728749       9.59686479       8.70588676
Li       7.11398118       1.63307124       6.67516069
P        9.16842932       9.24572468       4.40838499
P        6.32507884       5.21653600       1.52474050
O        5.90241471       7.78801098       5.21113504
O        7.49010272       4.70884288       4.76921216
O        9.01877620       9.15588815       2.78217603
O        8.69565772       7.10643072      12.12283137
N        9.25470960       7.79685091       4.92824307
O        6.79307607       6.57817878       2.03308463
O        7.66622136       1.59451785      12.40634776
O        7.91506028       9.95240728       5.06295891
Li       2.93554459       2.67689194       3.69656173
Li       0.56458360       4.16305946       6.64602706
Li       3.10278513       7.01036148       8.23348823
Li       1.87388161       1.70509359       6.58288218
Li       3.98386394      10.50263881      11.59457851
P        8.62922787       9.51926621       8.52151099
P        5.41018368       6.94229963       6.44179026
O        7.52288519       4.62118660       9.84169490
N        8.84065641       7.96406889       8.28560353
O        8.61527205       9.62487130      10.07583927
O        4.44383219       7.92445855       7.31678201
O        5.44360338       0.70781167       6.85492954
O        9.68260741      10.32541682       7.69060552
124
Lattice="9.90879 0.0 0.0 0.0 10.6625 0.0 0.0 0.0 12.434" Properties=species:S:1:pos:R:3 material=LiPON model=NEP89 temperature_K=900 phase="NVT production" display_name="LiPON｜NEP89｜900 K｜NVT production計算" report_figures="23_LiPON_lithium_MSD; 24_LiPON_transport_comparison; 25_LiPON_temperature_RDF" source_frame_index=720 relative_time_ps=72.0 pbc="T T T"
Li       3.86363837      10.32675979       9.53095134
Li       8.52494974       1.58459133       2.19342738
Li       7.18678843       6.97009676       8.43281904
Li       1.98864424       1.00583562       8.53835583
Li       4.98382191       8.67556156       7.99826958
Li       3.79005311       1.72106879      11.42534039
P        3.68307832       3.65556415       1.23123763
P        1.74791873       0.21554204      11.52691813
N        0.92597280       4.61755955       4.14969822
O        2.57520817       8.63213903       1.86493595
O        3.78154485       2.58446850       2.45588070
O        7.19293462       9.41884243       0.54745613
O        2.23519327       4.12473975       1.22313326
O        2.99331769       0.34742004       0.03282486
O        1.24738790       6.87854646      11.71934672
O        4.36689306       3.40296718      12.35868788
Li       5.20936687       5.38310309       3.69065489
Li       2.62333582       8.52281464      12.38327421
Li       0.21173773       4.21751055       1.69017527
Li       7.03396338       9.50343864      10.38293673
Li       0.46174984       5.40753747       9.90448271
Li       2.47613055       6.33632298       5.46167379
P        2.47055807       3.43931992       9.28095500
P        9.90580283       3.25800736       4.69361851
O        1.00271155       1.50767943      11.50665977
O        4.24947000       8.42610377       9.52883915
O        2.02946765       4.15346750      10.56564606
O        2.41554584       0.30960889       6.51800822
O        1.34533636       2.58183064       8.59743308
O        0.92701462       2.10160170       4.68543972
O        9.20391065       6.50047068       6.95464320
O        3.55218576       2.37451827       9.76905463
Li       7.22068604       7.42063552       0.88632188
Li       5.57603278       0.02005041       3.29978081
Li       5.17653095       4.42358038      11.26962804
Li       1.18317363       3.58231033      12.02386023
Li       9.02027028       6.46328471       3.50165231
Li       8.02850171       4.89445990       6.53655660
P        3.27871942       9.06973766       3.12415877
P        0.03861001       6.43709453       0.08619161
O        1.26539763       7.91706545       6.46336699
O        4.41487609       4.89835770       1.90519822
O        4.80869252       9.03590196       3.28064435
O        6.46925493       5.11082337       0.18237216
O        2.85350339      10.60452570       3.21931408
O        9.66050328       4.85248897      12.27770695
O        2.11992704      10.44798856      10.03982077
O        2.57867898       8.35745432       4.28190297
Li       8.81895466       9.08019073      12.01105949
Li       7.56460056       5.73949348      11.20449392
Li       1.13013996       0.50489863       3.61541753
Li       5.92454021       2.40050934       1.94886265
Li       1.29330097       9.36914846       5.27353011
Li       6.49141730       8.00734162       3.71938756
P        4.72497271       7.43582653      10.66070672
P        0.25707403       7.50699218       7.52817129
O        9.87525062       6.54293040       1.57844894
O        3.14753810       4.47231776       8.33405702
O        4.29110623       8.01745432      11.97233725
O        4.40526627       5.14974354       5.42646518
O        4.37000806       5.87875393      10.52828755
O        1.05726264       6.95719579       8.67647249
O        1.82803176       5.39221082       3.87977984
O        6.31209388       7.56896929      10.65296061
Li       2.61293298       5.53545562      11.30536511
Li       7.86712113       3.75387181       0.44981208
Li       5.13110116       4.95877274       9.09377576
Li       9.38708822       0.60268264       0.04212428
Li       8.12123491       7.36822926       5.72473062
Li       7.02062536       1.08984498       5.10225712
P        7.48016434       3.78293641       3.89133030
P        6.58219095       0.21562411       0.31104941
O        4.80452759       0.02327000       5.40683655
O        9.62487967      10.18737182       4.72159324
O        0.80720136       9.64526237      11.92082035
N        8.75189302       3.06064505       3.63496236
O        5.77649860       0.66941031       1.53619075
O        6.96275469       4.21059122       2.37217074
O        6.42639536       2.76148182       4.47838382
Li       1.09248020       8.73782391       9.97669372
Li       1.86568521       2.31281282       6.55349628
Li       0.49496308       8.85489019       1.45393925
Li       5.14866314       2.37805317       8.39507929
Li       0.07412232       1.96197115       9.55438486
Li       2.96715768       1.18721282       1.80082882
P        7.45401132       3.78548179       9.35804335
P        3.91275419       0.63966054       6.49356153
O        5.90741992       0.25665742      11.30901267
O        7.08415969       9.42765123       8.04409849
O        5.99452025       3.52848357      10.08631498
O        9.47286148       3.56341469       6.07250263
N        7.34741237       3.26070384       7.90721500
O        4.00384127       2.16959554       6.38449789
O        5.88685599       5.41420510       7.38785223
O        8.52737119       2.91675673       9.91847854
Li       5.02243465       8.17968352       1.54016566
Li       1.90568956       6.59664303       2.42306576
Li       3.08959722       8.52053879       6.30469952
Li       4.62515395       2.44812063       4.22640590
Li       7.43056042       1.46920735      10.72008481
Li       6.54389571       9.10152160       6.01088994
P        8.40834660       9.52713091       3.80543054
P        5.99245874       5.26167144       1.58292400
O        6.11712538       7.27045361       5.70958004
O        7.63650319       5.06982518       4.72298801
O        8.82399938      10.26306408       2.39805015
O        8.65862129       7.16394675      12.01723492
N        8.50708418       8.05538949       4.12619739
O        6.17271984       6.55924907       2.19736984
O        7.65044715       1.30200049       0.36977544
O        7.03190617      10.02954963       4.26969775
Li       4.88498757       3.68304103       6.78088463
Li       9.11723453       2.68398659       7.69559891
Li       3.26292368       6.29218072       8.49848678
Li       0.13013567       0.46327934       6.10797510
Li       4.38737139       9.79146537       0.09292567
P        8.52873829       9.87736552       8.43030782
P        5.19200031       6.21346725       6.38107727
O        7.96025349       5.25048954       9.51915092
N        9.43157771       8.65761424       8.26222174
O        8.59099989      10.19261173       9.96545992
O        4.03390586       7.08615633       7.09114997
O        4.49895756       0.06904527       7.84290389
O        8.95218151       0.46323752       7.57194102
124
Lattice="9.90879 0.0 0.0 0.0 10.6625 0.0 0.0 0.0 12.434" Properties=species:S:1:pos:R:3 material=LiPON model=NEP89 temperature_K=900 phase="NVT production" display_name="LiPON｜NEP89｜900 K｜NVT production計算" report_figures="23_LiPON_lithium_MSD; 24_LiPON_transport_comparison; 25_LiPON_temperature_RDF" source_frame_index=750 relative_time_ps=75.0 pbc="T T T"
Li       0.63755386       9.82321465       6.71312996
Li       6.86479945       0.65105113       5.15340415
Li       7.52591104       6.85872036       8.72498294
Li       9.49863917       3.88041190       1.29933159
Li       5.79758728      10.06960103       9.34549580
Li       3.77008203       1.13718877      10.87079569
P        3.91178852       3.82913031       1.26166548
P        1.31418309       0.32451115      11.91644915
N        1.34444634       4.33379172       4.36212512
O        2.14903784       7.79843380       2.21964924
O        4.15644765       2.65071579       2.22054569
O        7.03599784       9.54857566      12.40827689
O        2.34088826       4.05636495       1.31704102
O        2.62396041       0.06609099       0.36836045
O        1.28656300       6.47969923      12.01351622
O        4.39749396       3.31525650      12.29387813
Li       5.45724972       6.28347045       3.51837835
Li       2.89842623       7.51466765       0.60233213
Li       6.33755351       2.93799494      11.90402269
Li       5.41306062       1.96064564       9.63789060
Li       9.80646987       4.56291983       9.84357923
Li       9.61356912       6.03371578       3.90825509
P        2.53011418       3.41684391       9.24093117
P        0.48647484       2.94320798       4.23919905
O        0.58376959       1.57623907       0.01282264
O        4.23575196       8.78773358       9.39653467
O        1.75810655       4.21348550      10.37896583
O        2.61765691       0.04775065       6.34886070
O        1.43008383       2.55955471       8.27317924
O        1.18458333       1.78563960       3.49963873
O        9.66502005       7.38591465       6.47584675
O        3.70299810       2.61544489       9.87759122
Li       9.27887245       0.72510903       1.35330700
Li       6.06262791       9.99228733       2.83931240
Li       4.68016929       4.27999036      10.74757517
Li       1.56037737       3.38612235      12.03249628
Li       8.74900069       7.73717025       1.81658792
Li       6.62065091       4.06688876       6.29504942
P        2.97215963       8.59163800       3.28859032
P        9.82303095       6.14805493       0.16456244
O        1.71819349       8.40371369       7.68912343
O        4.86001113       5.12703594       1.47720656
O        4.52784850       8.20033514       3.19616706
O        6.72316261       4.78496405       0.19644396
O        2.65545817      10.10516204       3.08228684
O        9.49359243       4.75011569      11.94877670
O        1.48924420       0.43411320      10.30404761
O        2.65932350       8.07763223       4.72665242
Li       7.48524538       8.37291766      11.38280442
Li       6.76585367       5.97771230      11.23893691
Li       1.78629305      10.37565049       4.59341114
Li       3.29867572       6.25305226       5.39034192
Li       3.10885213       1.75009393       3.90911269
Li       8.01258966       8.29382082       6.13903563
P        4.69564735       7.60007283      10.35800751
P        0.52268998       7.51094346       7.81078800
O        9.79202209       5.99995061       1.80542370
O        3.24975245       4.37549476       8.28210212
O        4.47717868       7.94826427      11.93843525
O        4.98510485       4.87407608       5.61564793
O        3.92075423       6.34955834      10.10392396
O        0.92098428       6.08495352       8.38302301
O        1.37943980       5.44695372       4.99230738
O        6.29164683       7.46017121      10.13934582
Li       1.87567706       5.97201620      10.32585111
Li       5.97426914       2.01647867       2.24278055
Li       4.84830434       5.75882307       8.58959933
Li       1.74384187       2.23993000       1.64631182
Li       8.21607463       5.66056489       6.69329123
Li       0.89690228       7.54895625       5.07755994
P        7.68054253       3.59306069       3.99005680
P        6.45876534       0.25180553       0.16196394
O        4.93504425      10.37610804       5.51309250
O        9.83493714      10.13494046       5.00792016
O        0.34692497       9.80434792      12.29053855
N        9.01491066       3.14032231       3.36817472
O        5.58249025       0.23629888       1.42978701
O        6.67398234       3.79603663       2.78751659
O        7.00166814       2.64212278       4.98334697
Li       9.81025788       8.80623612      10.89415123
Li       0.96694659       5.18563680       6.80424370
Li       1.00575034       9.32249822       1.48613768
Li       4.70113588       3.22152535       7.03768166
Li       8.86569278       2.22315717      11.73857247
Li       3.58667427       0.57257575       1.78522713
P        7.30920882       3.78051702       9.03122747
P        4.12438458       0.67046813       6.30220581
O        5.71234948       0.52141802      11.26404791
O        7.22757332       9.30024385       7.37614696
O        6.37758620       4.89189004       9.71059809
O        0.08827540       2.75829587       5.69862646
N        6.36383897       2.97307689       8.13190882
O        3.87874748       2.14419363       5.63484038
O        6.59679084       6.23194719       7.22848243
O        7.84453918       2.94912483      10.26193851
Li       6.03300647       7.85873188       0.54040079
Li       1.80628263       5.29538712       2.74505567
Li       3.33588002       8.75915653       6.30955636
Li       2.75259119       6.21551429       8.25642183
Li       9.08572825       1.60435922       6.66553334
Li       5.50075577       8.73603639       4.68426277
P        8.89669749       9.44466256       3.94306985
P        6.41960204       5.05553002       1.61265486
O        6.12680374       7.11843152       5.07606805
O        7.90094620       4.99942907       4.75377223
O        9.43797236       9.75772033       2.49608054
O        8.85964237       7.25665249      12.13298120
N        8.88230847       7.86813015       4.12038412
O        6.83484713       6.46754059       2.04553952
O        7.55087966       1.41912949       0.24228932
O        7.43892257      10.00131513       3.99894492
Li       4.74796572       3.31554878       4.76084490
Li       0.02342235       1.34631774       9.29901599
Li       1.96596344      10.31086301       8.50368002
Li       1.89301019       1.95053418       6.67651167
Li       4.21180107       9.87522322      12.18831042
P        8.35660899       9.57191289       8.35744896
P        5.45548557       6.23732146       6.14942988
O        8.49951716       4.48056889       8.27835173
N        9.22571146       8.19349167       8.65045739
O        7.92843175       9.79238614       9.84041300
O        4.23975980       6.90662068       6.93018151
O        4.75632683       0.76617711       7.72376593
O        9.24409887       0.14204219       8.02095291
124
Lattice="9.90879 0.0 0.0 0.0 10.6625 0.0 0.0 0.0 12.434" Properties=species:S:1:pos:R:3 material=LiPON model=NEP89 temperature_K=900 phase="NVT production" display_name="LiPON｜NEP89｜900 K｜NVT production計算" report_figures="23_LiPON_lithium_MSD; 24_LiPON_transport_comparison; 25_LiPON_temperature_RDF" source_frame_index=780 relative_time_ps=78.0 pbc="T T T"
Li       1.71275547       0.94438726       8.30231938
Li       6.97200119       0.15396173       5.13289141
Li       7.93247489       6.05186476       9.23582006
Li       8.62591521       4.38240674       1.33475251
Li       7.19611821       8.64267305      10.50054753
Li       4.18718040       1.76831808      10.78394752
P        3.74538161       3.47869661       1.11611463
P        1.29240025       0.25012933      11.51514167
N        1.07052721       4.46210862       3.80070318
O        2.27256525       7.36072948       2.38742944
O        3.77769571       2.37133210       2.10720334
O        7.07799775       9.54652456       0.16382952
O        2.22552066       3.96420365       0.97153518
O        2.28594762       0.40099316       0.23259485
O        1.22498086       6.77429830      12.29455237
O        4.32919663       3.27675721      12.09849787
Li       5.74929287       6.79780005       3.65904270
Li       3.33293567       6.28941528       4.37204771
Li       6.29246864       3.00325668      11.82237117
Li       8.71976319       0.08951712      11.31967670
Li       9.68699931       4.87253146       9.82269191
Li       0.85819549       7.04410804       3.89918036
P        2.38044157       3.65627369       8.85174124
P        0.27511461       3.00113445       3.85761115
O        0.26213224       1.35926513      11.36606274
O        4.24844648       8.73297339      10.03986886
O        1.75453883       4.29467330      10.16930965
O        2.29335233       0.34053391       5.35739880
O        1.40201754       2.68024516       8.16247795
O        0.85524685       1.82314725       2.94085113
O        9.79442973       6.79547616       6.84601324
O        3.62717259       2.86977623       9.22583253
Li       9.02697038       9.17562607       0.24855249
Li       5.66592905       9.80837470       3.02125325
Li       4.02191003       4.44540873      10.73056618
Li       1.14231435       2.33135383       1.15737767
Li       8.18886878       6.25580959       2.99726291
Li       5.27468922       4.17035787       6.66232938
P        3.08866143       8.38424580       3.18785070
P        9.67383457       6.39108744      12.24887385
O        2.19545111       8.08859325       7.69081367
O        4.52960951       4.81934474       1.87621986
O        4.62790573       8.32326511       3.18506422
O        6.78464657       4.58226928       0.63595098
O        2.55774103       9.79883489       2.54476970
O        9.37647279       4.95288869      11.52027676
O        1.95127229      10.63234938      10.15298342
O        2.64171769       8.30575748       4.64702194
Li       6.73336739       7.45618457       0.39825353
Li       6.90676172       5.45984816      11.46712129
Li       1.40515238       0.05830706       3.65386756
Li       2.52772434       6.39484872       6.80349594
Li       5.37754342       1.34764890       3.36314677
Li       7.93898151       8.14527392       5.48370706
P        4.61907224       7.41209790      10.94934748
P        0.56439037       7.56040188       8.02784657
O        9.19896003       6.12667329       1.26632504
O        2.69481428       4.73533476       7.77633781
O        4.28099407       8.16100453      12.29029252
O        4.50143026       5.75824213       5.94152055
O        3.72719385       6.27646790      10.53165656
O        0.36925831       6.81300049       9.39491229
O        1.61390474       5.42728493       4.40502426
O        6.18377864       7.17806811      10.93328400
Li       1.83731272       6.03571112      10.84291621
Li       8.52307683       1.36534693       2.19768435
Li       3.89458115       5.83244088       8.81198630
Li       3.55959763       0.61991950       1.62535128
Li       8.18962195       5.68544302       6.80855057
Li       1.86003238       9.25678382       6.34008481
P        7.51677670       3.42378436       4.30478650
P        6.44840060       0.33409871       0.42145314
O        4.88470375       0.25698700       5.25669848
O        9.70505931      10.15180147       4.59066979
O        0.57932858       9.61445803      11.84158982
N        8.68344984       3.21477047       3.23405977
O        5.61029852       0.13385934       1.81477531
O        6.53936098       4.43793718       3.34163941
O        6.84515722       2.22109612       4.68104108
Li       0.58894687       8.36757837      10.40445025
Li       9.45821559       3.68034951       6.54480368
Li       1.34953270       9.38334757       1.14232122
Li       4.83254953       1.79246464       8.29606705
Li       1.27421161       4.13491674      11.96472598
Li       3.92589518       9.98539850      11.58168150
P        7.20986603       3.42992198       9.03998456
P        3.67284922       0.98922805       5.83607344
O        5.52182188       0.55064131      11.61881591
O        7.50478705       9.82428527       7.14066619
O        6.04738402       4.06099088       9.90592151
O        0.50022693       2.56003633       5.26849059
N        6.38332186       3.01108746       7.78579549
O        3.77685541       2.57132609       5.57546144
O        6.17930520       6.01816333       7.68344216
O        7.60957030       2.04717753       9.74769233
Li       4.93701094       7.62256153       1.60923628
Li       1.43152664       5.72715958       1.85810836
Li       5.99581745       8.71318615       8.14009517
Li       2.90160362       9.56051985       8.91144643
Li       0.19817361       0.69470361       5.92281880
Li       4.94891416       8.93089819       5.37210672
P        8.87024243       9.53078647       3.45519755
P        6.12545844       5.06344352       1.95978805
O        6.80590286       6.86944855       5.26825975
O        8.11812908       4.28226391       5.39628360
O        9.50573639       9.90563761       2.02847917
O        8.86387749       7.45058982      11.57465344
N        8.81533056       7.98250053       3.64010895
O        6.46154410       6.60662272       1.97671760
O        7.45586009       1.53224613       0.69900677
O        7.40807377      10.03775460       3.52209992
Li       3.00336891       3.47708642       3.82837669
Li       9.78643513       2.51284617       9.55241629
Li       6.34979464       0.26148923      10.22511237
Li       2.24158465       3.63742250       6.10878659
Li       2.84434473       7.15461281       0.51942709
P        8.73300464      10.01430763       8.22480228
P        5.64123613       6.65345724       6.33448779
O        8.34232325       4.36313361       8.67857034
N        9.43509272       8.68543039       8.36342662
O        8.18803348       9.98932451       9.65853857
O        4.93568280       7.93280582       6.93115312
O        3.61682913       0.85347421       7.40642549
O        9.85312806       0.28790193       7.63863030
124
Lattice="9.90879 0.0 0.0 0.0 10.6625 0.0 0.0 0.0 12.434" Properties=species:S:1:pos:R:3 material=LiPON model=NEP89 temperature_K=900 phase="NVT production" display_name="LiPON｜NEP89｜900 K｜NVT production計算" report_figures="23_LiPON_lithium_MSD; 24_LiPON_transport_comparison; 25_LiPON_temperature_RDF" source_frame_index=810 relative_time_ps=81.0 pbc="T T T"
Li       0.39893276       1.22587844       6.98871406
Li       6.51390916       1.96415946       6.06286424
Li       9.59944423       8.27764068      10.62171666
Li       8.30482126       3.47058067       1.28760756
Li       7.20892669      10.39679685      10.53306736
Li       3.54281739       2.30169821      10.82844618
P        3.59964667       3.79767185       1.15883251
P        1.58752115      10.63540850      11.64667203
N        1.11727095       3.66725465       4.52603548
O        2.11690270       7.88970952       2.43413092
O        3.94486711       2.67223033       2.15893809
O        7.27097974       9.80139230       0.20270525
O        2.15669642       4.17935399       1.18890209
O        2.31653558       0.06685047       0.51391543
O        1.40672088       6.13952374      11.73446708
O        4.20547806       3.39177308      12.28558477
Li       5.44005867       6.75344393       3.77594653
Li       2.70615156       7.11100813       5.77642736
Li       6.10585832       2.99152328      11.63677132
Li       9.27461261       1.00107297       9.81254495
Li       1.43738034       5.71873012       9.83703076
Li       0.59593161       7.10809121       3.62967686
P        2.62197428       3.69084090       8.78548612
P        9.67443200       2.91629050       3.95793204
O        0.36190765       0.95902418      11.64393295
O        5.51510443       8.83155230       9.87323309
O        1.75916990       3.86460895      10.20241622
O        2.44902845       1.22104948       5.52568640
O        1.82720228       2.52284913       8.10754483
O        0.31588581       2.11821213       2.75008419
O        9.72056083       5.72682241       7.97926058
O        4.00945842       3.23673839       9.35232858
Li       9.00877266      10.41093153       0.45760299
Li       5.01153796       1.19928282       3.46988544
Li       5.48890069       5.16663523       9.47954730
Li       1.28082277       0.06912982       2.10851232
Li       8.59623027       6.00829341       2.85582186
Li       3.67156355       4.36113319       5.93234519
P        3.04576835       8.76059295       3.36862937
P        0.07566665       5.81550682       0.01210638
O        0.94160725       7.39085317       6.31111469
O        4.31885332       5.18829609       1.58870582
O        4.50137406       8.34642239       3.37173861
O        6.69069289       4.56621693       0.78107953
O        2.80986868      10.31360662       3.02149229
O        9.66910213       4.30931069       0.12927974
O        2.63759440       0.07331328      10.46500912
O        2.26424708       8.53005453       4.67332480
Li       7.52219413       7.50069898       0.71906390
Li       7.64807486       5.19322610      11.25144428
Li       1.66307007       0.00296796       4.29095291
Li       3.39313649       6.95763241       8.52511706
Li       2.62003964       2.68682285       3.62951642
Li       8.01962301       7.00795585       5.62135794
P        5.13679993       7.73459146      10.85200982
P        0.35106702       7.14648834       7.79861583
O        0.01233383       6.39675726       1.48679405
O        2.68906012       4.87372395       7.73968133
O        4.96358654       8.34948741      12.31559456
O        4.46580856       6.06154238       5.81672507
O        3.88419686       6.98026377      10.42856711
O        1.46528181       7.62615821       8.57012133
O        1.89495166       4.67577563       4.07975854
O        6.27969657       6.79635101      10.73024360
Li       2.59290211       4.60938675      11.50825376
Li       7.18090726       0.71853484       2.99319681
Li       7.03067771       7.76073082       9.17420564
Li       4.03403638       1.22373920       1.01663816
Li       6.66735148       4.80345606       7.10680194
Li       0.50967724       9.07949381       5.49003075
P        7.15704498       3.93617223       4.04186124
P        6.52157182       0.57628114       0.37895670
O        4.61114828      10.56809194       5.13972130
O        9.77615141       9.80451267       4.20249116
O        0.94937073       9.30074448      11.80749622
N        8.51780396       3.85021085       3.21273084
O        5.83461982       0.70662284       1.89981117
O        5.97538928       4.32309204       3.16481154
O        6.74648219       2.47974783       4.33907844
Li       2.45679991       8.24354134      10.94548637
Li       0.17821945       5.04518120       5.88413132
Li       0.96066626       8.24270021       1.05552634
Li       4.97151806       1.89366642       8.50847700
Li       0.24929298       3.15415165      11.11315481
Li       4.44427003      10.13860145      11.46828615
P        7.44611434       2.85211201       9.13954116
P        3.86776855       0.98169023       6.13282123
O        5.44584531       0.88208774      11.80152391
O        7.52676634      10.07408344       7.23440839
O        6.86429711       4.05080393       9.89708033
O        9.37138130       2.04287739       5.15567847
N        7.08303198       2.94307513       7.61240072
O        4.59192890       2.35854827       6.31570368
O        5.86226271       6.33101740       7.96129536
O        6.89141994       1.42506725       9.43286184
Li       5.80815905       8.88267874       2.03767182
Li       1.93690646       5.89584993       1.82367682
Li       5.74961235       9.19299459       4.61165164
Li       2.37397372       0.21103973       8.77858895
Li       8.43960721       0.33214193       5.18819203
Li       2.53653552       9.27953523       6.82585769
P        8.73116509       9.01729004       3.44353239
P        5.90409957       5.28735069       1.77889735
O        6.29445347       7.91846583       6.07321294
O        7.18039495       4.94048383       5.28826267
O        9.06765407       8.88549467       1.92534998
O        8.86494347       6.52051019      11.64255578
N        8.71006250       7.53318334       3.82527366
O        6.38491131       6.74468587       1.93457737
O        7.52281588       1.73855991       0.21592116
O        7.40644340       9.64445839       3.54466512
Li       0.25556635       2.26172249       0.64072474
Li       0.08534993       3.88129174       8.42659880
Li       5.64179370      10.10224286       8.09843586
Li       1.72630871       2.93316429       6.18046743
Li       3.96846479       6.91819570       1.26578679
P        8.85139580       9.63311414       7.90106842
P        5.22435295       7.13008730       6.77922805
O        9.01587842       2.74789135       9.40625974
N        8.92919784       8.05403437       8.27414221
O        8.68438578       9.99299799       9.37321675
O        4.04143245       7.89348268       7.30747715
O        3.87504228       0.23577677       7.52505070
O        0.16617016      10.15791802       7.21686605
124
Lattice="9.90879 0.0 0.0 0.0 10.6625 0.0 0.0 0.0 12.434" Properties=species:S:1:pos:R:3 material=LiPON model=NEP89 temperature_K=900 phase="NVT production" display_name="LiPON｜NEP89｜900 K｜NVT production計算" report_figures="23_LiPON_lithium_MSD; 24_LiPON_transport_comparison; 25_LiPON_temperature_RDF" source_frame_index=840 relative_time_ps=84.0 pbc="T T T"
Li       2.67112267       3.47869591       4.06884554
Li       4.82865135       3.45925622       4.46242271
Li       8.57442863       8.91237564      11.21641370
Li       7.98590001       3.16016210      11.99282570
Li       5.52212220       2.37168803       8.22188031
Li       3.89201383       1.49083073      11.43786225
P        3.44501650       3.43426069       1.62812590
P        1.37080377       0.25883690      11.28115191
N        0.87906334       4.63392486       4.46173406
O        2.38393979       7.80782633       1.71247820
O        4.03103985       2.71667264       2.92675907
O        7.49652671       9.57452582       0.16792724
O        1.91883059       3.91113495       1.91204701
O        2.69298706       0.29544301      12.12609481
O        1.01732531       6.70951892      11.45564174
O        3.59965486       2.91083025       0.22131547
Li       5.37340908       6.33553221       3.25494073
Li       1.01332713       8.45391076       5.70703858
Li       5.68331830       2.90140698      11.50062709
Li       8.67030260       0.79046349      10.64437995
Li       2.77550575       6.11963764      11.02164619
Li       0.83661429       0.63459061       6.38249298
P        3.07539897       3.25678638       9.24362189
P        0.27896058       3.07316360       4.39962287
O        0.47170215       1.50788472      11.59877732
O        4.77985291       9.20260390       9.82542477
O        2.43849883       3.76087856      10.50208963
O        2.62778791       0.04003294       6.36732386
O        1.96748944       2.66023913       8.24036364
O        1.35490239       2.08623737       3.90669638
O        9.06805026       6.74529081       6.81940041
O        4.12344907       2.14296973       9.58676795
Li       7.90847126       7.50566686       2.15345687
Li       6.03009063       9.32405399       3.12660057
Li       3.90257814       6.73473007       1.04855338
Li       9.62021546       3.44912343       1.56284967
Li       8.62434612       6.80849699       5.11686297
Li       5.35399238       5.31353396       8.83712755
P        3.12033625       8.60348958       2.89526970
P        9.64593456       6.14339664      12.04315322
O        1.38938098       7.80138592       7.39409918
O        4.32249829       4.91490378       1.31722736
O        4.61446751       8.31083101       2.79553057
O        6.35397282       4.49440188      12.36635168
O        3.00592016      10.17171014       2.56197652
O        9.72963166       4.55798365      12.01352995
O        1.69231056       0.10946199       9.79069888
O        2.51010746       8.25072982       4.25029711
Li       6.68010174       5.83879015      11.30158768
Li       0.62352538       4.33969653       9.90174397
Li       1.22386644       0.18969046       3.63401355
Li       3.17891871       6.38466273       7.96020879
Li       6.12160925       1.04699296       3.94536504
Li       7.02862832       7.17302868       7.54815003
P        4.44930760       7.80085362      10.40684600
P        0.12180006       7.05133231       7.91830883
O        9.68345310       6.64678997       1.15160197
O        3.87254212       4.35199494       8.56148292
O        4.37442672       7.91021696      11.87863675
O        4.30740874       5.29050346       5.18978907
O        3.30817857       7.18996409       9.55304392
O        0.49101561       5.75588536       8.68164376
O        1.00843895       5.83648243       4.99370791
O        5.75464592       6.82338479      10.16170129
Li       1.49013465       3.09352767      12.14069648
Li       7.91856262       1.65225927       2.88301622
Li       8.13256875       6.73416390       9.62619971
Li       4.05918701       0.50208822       1.15695485
Li       7.29526875       4.41309981       6.77243284
Li       3.52584368       8.96356720       5.61008327
P        7.46862989       3.79025959       3.79036042
P        6.78774916       0.39496291       0.58569559
O        4.68797365      10.53575359       5.05210394
O        9.87547774       9.77649130       5.02387661
O        0.56397606       9.64031591      11.86589154
N        8.82871165       3.23777338       3.35606544
O        5.99621298       0.33191039       2.00824249
O        6.47998589       4.02775139       2.47421369
O        6.80721957       2.57229887       4.61282648
Li       9.69115475       0.60602694       0.72935730
Li       0.88130676       3.71833944       7.38900620
Li       6.27064660      10.56084328      10.41393361
Li       4.21967247       4.13287813       6.58625730
Li       0.57189364       1.28821661       8.93233046
Li       2.50219396       8.98779920       0.29229665
P        7.94660468       3.10849066       8.89476757
P        3.96518088       0.77537926       6.17942301
O        5.62705520       0.62465886      11.96636202
O        7.43461450       8.96432445       7.52342802
O        7.49461097       4.57191359       9.11068464
O        0.11981265       2.45601875       5.82056989
N        7.33291324       2.61613876       7.45649390
O        4.01284531       2.31077261       5.92989617
O        5.86611191       5.70761383       7.01369764
O        7.12315960       2.25553946      10.10820435
Li       5.86405538       7.83641533       0.60620551
Li       0.76523232       8.10323889       1.52505854
Li       6.42347060       9.55330058       5.57958579
Li       4.07798490       0.39480362       8.93892059
Li       8.12340410       1.51567289       6.03737722
Li       0.92095161       8.18579704      10.31527648
P        8.81891110       9.70842675       3.94490673
P        5.94619059       4.99400163       1.34897766
O        5.98454972       7.22180809       5.01522930
O        7.65346053       5.05258253       4.65901316
O        9.61047266      10.06159096       2.60249202
O        8.38382251       6.85991002      11.45238986
N        8.19940720       8.31436638       3.77028520
O        6.40557781       6.44544709       1.41871836
O        7.87202804       1.41321775       0.45840917
O        7.65221380      10.62984074       4.22210017
Li       3.82039979       0.89058755       3.38888100
Li       1.79716073       9.77089117       8.08938596
Li       6.03432301       9.95627072       8.20573525
Li       2.67756762       6.70979217       5.22878031
Li       1.25366175       5.64560803       2.63866732
P        8.62909391       9.47725046       8.42023239
P        5.07813171       6.45940737       5.88428898
O        9.55856897       2.89911774       8.86074064
N        9.19903800       7.98801564       9.02145051
O        7.87385135       9.99394565       9.71768879
O        4.10311235       7.46808388       6.61470012
O        4.92111939       0.43955009       7.37747675
O        9.44120000      10.46905794       7.82354075
124
Lattice="9.90879 0.0 0.0 0.0 10.6625 0.0 0.0 0.0 12.434" Properties=species:S:1:pos:R:3 material=LiPON model=NEP89 temperature_K=900 phase="NVT production" display_name="LiPON｜NEP89｜900 K｜NVT production計算" report_figures="23_LiPON_lithium_MSD; 24_LiPON_transport_comparison; 25_LiPON_temperature_RDF" source_frame_index=870 relative_time_ps=87.0 pbc="T T T"
Li       3.27145833       6.04890046       7.82406200
Li       5.14223553       3.83406299       5.82895248
Li       7.30863991       8.43328682      10.77071971
Li       8.59516177       2.84242088       0.55855431
Li       5.42897808       8.74408215       7.33213049
Li       1.66587955       2.96892245      11.25297296
P        3.45063575       3.86913952       1.71603814
P        1.33533887       0.10365866      11.54374824
N        0.89714782       4.22915080       5.36963813
O        2.07100228       8.51043657       1.77710711
O        3.69567465       2.54750260       2.55188452
O        7.04792570       9.35898721       0.34837788
O        2.36028545       4.77368972       2.36148397
O        2.36345794       0.56125172       0.16203199
O        1.26071850       6.13892204      11.79484413
O        3.00386293       3.81420203       0.20534565
Li       5.73272979       6.37250201       3.61438770
Li       3.92646916       8.82438660       5.01642790
Li       5.69088782       2.90200065      10.79456185
Li       8.83853701      10.60831856      11.40407331
Li       2.37208235       7.96086418       0.06892041
Li       3.08329871       0.21284897       8.92857813
P        2.85669170       3.21375675       8.80583489
P        0.47491368       2.82696867       4.54897152
O        0.53206544       1.38202986      11.00547134
O        4.14474681       8.67003794       9.74004625
O        2.13177435       4.03849554       9.88882620
O        2.51274963       0.26122053       5.76174184
O        1.72873624       2.57048066       7.82891039
O        1.42109419       1.87108643       3.85047865
O        9.06888589       6.86641246       6.61716797
O        3.56255614       1.98781139       9.40873245
Li       8.16033262       6.22180747       2.60598784
Li       8.03182188       7.70507345       0.63993759
Li       1.20133424       6.89183760       1.49126544
Li       0.50439016       4.60569166       2.18951298
Li       7.80852836       8.27902863       6.04913208
Li       5.24847200       5.34704864       8.95644557
P        2.88086214       8.81436440       3.04239194
P        9.68567785       5.78532901      12.06971665
O        1.41808719       7.45343079       7.93442125
O        4.89658995       4.73684736       1.90556189
O        4.44887637       8.39892571       2.98786795
O        6.05879597       4.38367847      12.10179463
O        2.73970300      10.31940370       3.02239260
O        9.32167551       4.36205694      11.76174022
O        2.06651209      10.05005596      10.35852773
O        2.20248291       8.33699955       4.25520414
Li       8.02658087       1.65439337      10.17045243
Li       0.33691382       4.40660145      10.08694233
Li       1.36756585      10.44464832       4.30101367
Li       1.72388358       6.34336012      10.09654949
Li       5.46548143       1.89806383       3.00026082
Li       7.22777204       6.76530959       8.71401787
P        4.47905151       7.37747924      10.58282847
P        9.75924780       6.98414278       8.03300454
O        9.42778411       6.09043903       1.13540951
O        3.78953486       4.13741980       8.01783370
O        4.43636496       7.94803545      12.01822070
O        4.52845260       5.32181722       4.91768670
O        3.69796833       6.25447646       9.91567600
O        0.03348584       5.64563457       8.65373372
O        1.43747490       5.38706548       5.69614372
O        5.89112028       6.89226661      10.28271122
Li       3.25638439       4.97402713      11.29120400
Li       7.51540141       0.74753662       2.69613135
Li       6.92407877       5.59460266      10.88749131
Li       3.99274502       1.40078610       0.72796228
Li       7.63573962       5.46692769       6.20132664
Li       6.00855541       9.32219288       3.77445455
P        7.71418200       3.67200234       3.54854432
P        6.52110631       0.26778040       0.28079652
O        5.14510154      10.52872399       5.26700393
O        9.77347675       9.46375487       5.33255541
O        0.26848094       9.73418430      12.06094661
N        9.30421418       3.54392328       3.44088388
O        5.86821458       0.62717802       1.73237261
O        7.49044875       3.90451115       1.89523384
O        7.00660004       2.45561126       4.01344022
Li       0.60068117       9.51837630       1.50354873
Li       0.15190696       3.85561382       7.41866277
Li       0.83339832       0.61783877       6.32697544
Li       5.10700244       2.46820227       7.74559208
Li       0.48690416       1.42796302       8.79765883
Li       3.88870199      10.04747313      11.54142544
P        7.32364921       3.24912893       8.48951413
P        4.05425318       0.48824659       6.10812113
O        5.41653875       0.49198292      11.55584352
O        7.31211266       9.19126272       7.48426826
O        6.95233765       4.57722899       9.17426795
O        9.48393105       2.00166362       5.53660326
N        6.96484152       3.26450728       6.98879380
O        4.18958159       2.12546818       5.82145496
O        5.91320647       6.02675342       7.13112214
O        6.40636284       2.30981401       9.32075879
Li       5.52442694       8.57646904       0.96883293
Li       1.81447305       1.26358478       2.16607808
Li       1.53799123       8.40373484       6.37708093
Li       5.57342198       9.97841764       9.67365518
Li       7.63181952       1.72800672       5.76061023
Li       0.45611059       8.83712460      10.04715825
P        8.95273531       9.40107734       4.00806733
P        6.25106011       4.93082980       1.06537147
O        6.05674944       7.48628315       5.06049534
O        7.45150807       5.01663433       4.38710390
O        9.72616100      10.05496807       2.89415265
O        8.73568193       6.82889193      11.40990712
N        8.51645749       7.83321968       3.76224685
O        6.72551364       6.38704238       1.30713754
O        7.62108617       1.18351209      12.33991651
O        7.60354145      10.11113828       4.35117059
Li       3.23090513       1.44001957       4.07057610
Li       2.33508942       3.46557696       6.23507176
Li       2.81787667       8.88796224       8.55707094
Li       2.54651133       6.07090800       4.17645510
Li       9.78319558       6.95498462       4.71832968
P        8.49030387       9.38040079       8.52863651
P        5.19127948       6.44335038       5.83254082
O        8.88102630       2.93701490       8.70950981
N        8.90513005       7.91570196       8.90667189
O        7.80671975      10.08499302       9.70346183
O        4.01922849       7.42570752       6.42867078
O        4.41051059       0.03960384       7.56578048
O        9.70204149      10.14368744       8.05084316
124
Lattice="9.90879 0.0 0.0 0.0 10.6625 0.0 0.0 0.0 12.434" Properties=species:S:1:pos:R:3 material=LiPON model=NEP89 temperature_K=900 phase="NVT production" display_name="LiPON｜NEP89｜900 K｜NVT production計算" report_figures="23_LiPON_lithium_MSD; 24_LiPON_transport_comparison; 25_LiPON_temperature_RDF" source_frame_index=900 relative_time_ps=90.0 pbc="T T T"
Li       2.59312756       5.87274015       6.67164928
Li       4.80872122       2.51926391       8.46232744
Li       8.25271807       9.14207012      11.60932426
Li       6.33355432       2.71817863       0.05876151
Li       6.54060352      10.61484284       5.93019343
Li       3.49579013       1.11696160      11.51895177
P        3.91778422       3.47966647       1.40955777
P        0.87415282       0.67774210      11.47349407
N        1.49452217       4.09074060       4.17797308
O        3.19391266       7.49484844       2.05353249
O        4.07893269       2.35670198       2.49133845
O        6.37591490       9.08815274       0.10941202
O        2.52702222       4.14817304       1.53358195
O        9.83623950      10.25372712      12.17634460
O        1.57670868       6.61840462      11.89071518
O        4.53900332       2.95583719       0.11340873
Li       5.33136691       8.67153443       4.31947168
Li       3.20210275       8.20615741       5.73294520
Li       4.95253218       4.01016418      10.98553382
Li       9.38231657       0.45554361       1.46025611
Li       2.69974086       8.59408298       8.39668829
Li       2.88770201       0.65948660       9.23558145
P        2.34075514       3.44914978       9.18805458
P        0.62972226       2.51655272       4.13585769
O        9.85084999       1.80557626      10.82330481
O        4.45614077       8.85862389       9.23454819
O        1.36479780       4.10601755      10.10014245
O        2.50631121       0.69189402       6.01449354
O        1.64301047       2.16721493       8.49620932
O        1.69010609       1.54985297       3.48955426
O        1.43580654       7.74260365       6.70277307
O        3.58686862       2.94505697       9.97550731
Li       7.46278837       6.40713622       3.73694387
Li       8.11217239       8.01080602       1.09011823
Li       3.20976834       6.57456225       0.18736812
Li       1.87045311       5.63488995       2.63307812
Li       7.79518291       7.63046942       5.89473326
Li       7.51224043       6.86919620       8.60238261
P        2.98434209       8.69197619       2.93033697
P        0.16420606       6.25839414       0.12396151
O        0.83943488       7.13320491       9.08250551
O        4.83059910       4.70657532       2.09352835
O        4.23698629       9.46316206       3.33768487
O        6.25909910       4.95050438      12.31928735
O        1.89859248       9.69692665       2.30328482
O        9.60428128       4.74866479      12.20275818
O        1.51633592       1.41734648       0.27225770
O        2.27130813       8.03552154       4.15232539
Li       7.88536409       1.07125148      10.95730217
Li       9.85735538       5.07050366       8.97636801
Li       0.87479082       0.00343890       3.48328781
Li       2.04543994       5.77921355      10.22066325
Li       3.21870022       0.15878779       4.00826610
Li       7.75371104       5.58470275      10.99711602
P        4.53353834       7.45350618      10.03236420
P        0.33150474       7.14155392       7.62978586
O        0.41421412       6.50457576       1.64836900
O        2.60296096       4.33472512       7.96036799
O        4.20862558       7.65290336      11.49090444
O        5.76240295       6.65542560       4.56523830
O        3.53491731       6.48631260       9.48406424
O        0.07090061       5.63699532       7.18736407
O        1.94615886       5.14313099       4.88245750
O        6.04135274       7.06774708       9.79152073
Li       1.63616551       4.27121587      12.06440111
Li       5.75195377       1.81336149       3.10225822
Li       5.99312127       7.40169701      12.02306815
Li       2.63594865       0.87536852       1.68111157
Li       6.59700655       2.89907472       5.93149421
Li       5.28181649       8.81102846       1.89533782
P        8.03766801       3.80203371       3.51175440
P        5.88103014      10.52913274      12.31183182
O        4.40430894       9.64254050       6.13858354
O        9.55257731      10.04727869       4.71713366
O        1.97041447      10.41494001      10.62469205
N        9.18266589       2.82913005       3.14672330
O        4.39837208      10.60216012       0.36480479
O        7.46895373       4.33670468       2.11185761
O        7.13720661       2.82676012       4.18441063
Li       0.67088185       8.45914247       1.45503512
Li       8.14815891       5.32481041       6.84236992
Li       9.51584738       1.77865016       8.54404095
Li       5.79304550       0.34367195       8.74062231
Li       9.31270329       3.51722028      10.71054044
Li       4.31463462       5.32770627       8.24482624
P        7.36771520       3.61930861       9.17839703
P        4.08949729       0.42411390       6.36395207
O        5.85460003      10.65755510      10.72895456
O        7.02062536       9.60828074       7.67012741
O        8.15652490       4.87963333       9.48365385
O        0.14200942       2.32313804       5.58168287
N        8.25350332       2.92817826       7.99143968
O        5.02958539       1.40638873       5.77582277
O        4.74417378       4.75010482       5.97870024
O        5.89591731       4.04574870       8.69926801
Li       2.78816389       9.20859909      12.11066978
Li       0.10689124       3.35785576       1.34466857
Li       0.74736378       8.36235985       4.88063442
Li       6.53329929       9.05604234       9.79760247
Li       0.87355224       0.24891557       6.34091373
Li       0.39455491       8.69309020      10.66885319
P        8.53433488       9.08332874       4.00194686
P        6.29415541       5.16045847       1.41452758
O        6.61173786       6.24427329       6.78623558
O        8.34845212       4.90091797       4.56596966
O        8.50001758       9.59066962       2.51166415
O        8.88443884       7.22784300      12.16747113
N        9.12118456       7.66102935       4.11940406
O        6.36980384       6.58968812       1.94384477
O        6.86771543       0.94828414       0.29829012
O        7.08393398       9.15099257       4.59340547
Li       1.36800015       3.38888126       6.73566840
Li       3.88873536       3.22803012       4.84853445
Li       5.20010066       8.76279797       7.73490169
Li       4.28073424       5.99422766       3.29174950
Li       0.21404855       6.02747525       4.80914523
P        8.57518161       9.44912203       8.06330037
P        5.29106369       6.18934209       5.94630777
O        7.34809424       2.73710039      10.44139836
N        8.92575836       7.91845440       7.51479619
O        8.46261858       9.05927514       9.64213282
O        4.21893846       6.97467911       6.73681915
O        4.34964978       0.62430511       7.92216852
O        9.66197038      10.49253309       7.61760178
124
Lattice="9.90879 0.0 0.0 0.0 10.6625 0.0 0.0 0.0 12.434" Properties=species:S:1:pos:R:3 material=LiPON model=NEP89 temperature_K=900 phase="NVT production" display_name="LiPON｜NEP89｜900 K｜NVT production計算" report_figures="23_LiPON_lithium_MSD; 24_LiPON_transport_comparison; 25_LiPON_temperature_RDF" source_frame_index=930 relative_time_ps=93.0 pbc="T T T"
Li       2.32544405       5.45543861       5.98171900
Li       4.67210505       4.61113720       7.76866727
Li       8.75700850       8.13933446      10.40327575
Li       8.37619126       2.39077827      11.45144230
Li       8.24355017       0.91668867       5.37851914
Li       5.61327148       1.94128509       8.91048057
P        3.81380240       3.57006404       1.42078131
P        0.87606888       0.43674902      12.11990985
N        1.32889908       4.23524913       4.58058445
O        1.96627572       9.23149745       1.79254740
O        3.96077692       2.46732856       2.49783450
O        7.58864001       9.94029356      11.65753045
O        2.34535332       4.13430408       1.27268707
O        1.16084364       9.58949061      11.61627957
O        1.26058712       6.41271736      11.21904122
O        4.40866711       3.22136462       0.02684284
Li       5.28075256       8.96456633       4.23320290
Li       3.33653164       8.30086846       5.97851976
Li       2.81263679       5.37016773      12.05723872
Li       1.49664070       0.22995533       5.05298780
Li       5.14845744       8.13695257       7.97745448
Li       1.69447408       9.90034497       8.02376643
P        2.53426762       3.15145509       8.80008139
P        0.42924964       2.82282762       4.37341055
O        9.86647841       1.03894330      11.04545344
O        3.74149186       7.95804787       9.39006428
O        1.68230518       3.75892029       9.96924483
O        2.85761031      10.55013560       6.47864199
O        1.74132020       1.94090628       8.25883395
O        1.37944010       1.71220472       3.93792549
O        1.18713134       7.88733309       8.04259065
O        3.84711681       2.73262869       9.49742507
Li       4.17463752       6.43551250       3.61361507
Li       5.47690223       8.36702302       1.70313161
Li       2.34147622       8.21481185       0.31589692
Li       0.61285058       8.03264712       3.35164255
Li       7.27784202       6.22660155       4.17024983
Li       7.20673415       6.00773279       8.77125980
P        2.99060093       8.79471009       2.83936018
P        0.29261319       6.22479219      12.41621840
O        9.01902504       6.52580733       8.94866488
O        4.81601766       4.94754253       1.90080824
O        3.61298377       7.50374100       2.21259469
O        6.40643385       5.33798056      12.27806531
O        4.18566889       9.79683884       2.99503016
O        0.02133567       4.66848796      12.39847924
O        0.09318909       0.55412751       1.04333470
O        2.22970449       8.68266275       4.22306298
Li       8.33856661       0.35650725      10.26001656
Li       6.85640690       7.38320015      12.26021122
Li       0.32058413       8.24248820       5.64917209
Li       8.04598025       5.41997293      11.38316890
Li       5.04449035       0.81951896       3.36802872
Li       5.12483000       4.36376265      10.66615852
P        4.48580879       7.09452500      10.40565403
P        9.81322171       6.91681354       7.78515849
O        0.70210908       6.74335719       1.38733258
O        2.75399517       4.16331836       7.55104475
O        3.83710101       7.52827088      11.72159941
O        5.60371537       7.00254066       4.92078340
O        4.26642340       5.62743352       9.96422733
O        0.14919786       5.79806749       6.72735252
O        1.61680016       5.33564372       3.99773679
O        5.92571426       7.50685931      10.47348163
Li       1.67483409       3.09552910      11.58065831
Li       5.81160931       2.42044248       1.55041357
Li       2.08762001       5.87648454       2.27905581
Li       2.50965605       1.13730732       1.72138424
Li       8.28649786       3.89962205       6.37580220
Li       3.73138547       9.82940875      11.96727248
P        7.74081938       3.49391998       3.13819111
P        6.53415267       0.11120009      12.35634280
O        5.00036769       9.25920045       6.28053549
O        9.53194576       9.95829415       4.65629549
O        2.21201066       1.16703804      12.33850549
N        9.29936688       3.05220877       3.11678756
O        5.82984078       9.86149119       0.83393667
O        7.49396846       4.33741951       1.70037845
O        7.03137210       2.12492829       3.04804955
Li       9.68164032       8.89778423       0.80087626
Li       0.33565327       5.16419237       9.87549369
Li       0.44872737       2.13283009       9.54201572
Li       6.05504271       2.81248804       5.49696926
Li       0.19516903       0.09720261       2.90267344
Li       3.03970515       6.42431467       8.47630353
P        7.71135308       3.35567560       8.99998675
P        4.42854605      10.65725512       6.74791057
O        5.34376214       0.25414540      11.26476873
O        7.84770123      10.52502198       6.80996015
O        9.25430480       3.48019014       8.67663548
O        9.71134927       2.41245079       5.76964074
N        6.90484271       3.28462974       7.63219934
O        5.06947330       1.26827024       6.01689492
O        5.23004196       4.65201642       5.91074672
O        7.25370163       4.33246527      10.05280415
Li       3.93458346       1.69410034      10.93468826
Li       0.69806917       3.64270736       1.85640567
Li       9.62023970       5.75302158       4.49569174
Li       5.80844770       9.70795416      10.11279204
Li       0.52055022       4.02452953       7.55518904
Li       2.00793122       8.15861425      10.20429144
P        8.48291504       9.09406599       3.93310550
P        6.37347776       5.37369485       1.42089248
O        6.22964556       6.67883425       7.36599260
O        7.56629640       4.30307860       4.39236588
O        8.72636224       9.47608487       2.35497300
O        8.83895372       7.18722657      12.12754242
N        8.57454823       7.63068290       4.21173555
O        6.74670948       6.81183724       1.94859540
O        6.82253147       1.58598520       0.27513694
O        6.96794361       9.41313958       4.09167489
Li       0.19674201       1.47089145       7.36517884
Li       3.38757444       2.77279461       4.27817065
Li       7.15938643       8.37053114       5.72243697
Li       8.41619399       0.84380212       1.75045989
Li       8.89291209       6.94147807       2.17869090
P        8.63643566       9.61891161       7.75799180
P        5.26465151       6.17053437       6.23812815
O        7.43971929       2.06142536       9.72653110
N        8.91934274       8.22821598       7.13087321
O        7.80211878       9.53998721       9.07490157
O        3.80195435       6.57316830       6.67475925
O        4.85700265      10.65132150       8.22793373
O        9.84065988      10.41439102       8.23532341
124
Lattice="9.90879 0.0 0.0 0.0 10.6625 0.0 0.0 0.0 12.434" Properties=species:S:1:pos:R:3 material=LiPON model=NEP89 temperature_K=900 phase="NVT production" display_name="LiPON｜NEP89｜900 K｜NVT production計算" report_figures="23_LiPON_lithium_MSD; 24_LiPON_transport_comparison; 25_LiPON_temperature_RDF" source_frame_index=960 relative_time_ps=96.0 pbc="T T T"
Li       5.33627296       3.71345902       7.50612967
Li       7.80725877       1.50380070       6.61292923
Li       2.29688358       7.61972701       8.73720547
Li       5.78971470       3.14390251      11.21778859
Li       9.38141011       1.16085046       2.35752969
Li       5.78006574       1.03793499       9.26616634
P        3.54417538       3.06097551       1.86101937
P        0.85818219      10.63913415       0.09491718
N        1.03573985       4.21221804       4.13623771
O        1.54349396       7.45852706       2.66509878
O        3.07873185       2.31948455       3.15921902
O        7.22182230      10.65299381      10.19861332
O        2.34435762       3.48259854       1.01977873
O        9.77223845       9.50634580      12.00908833
O        1.02775287       6.87940072      12.30568679
O        4.44927222       2.10046529       1.12998649
Li       4.57372186      10.40160059       3.18786109
Li       2.34146888       8.92855897       5.95119871
Li       3.37433937       5.38553330      11.40457684
Li       2.67014617       2.16846355       6.56530346
Li       4.91081411       8.23475887       7.82946107
Li       6.64489730       8.85601564       9.82659943
P        3.03187334       3.20960135       9.44909321
P        9.85766236       2.92995235       4.52418731
O        0.25743538       1.36796433      12.13175725
O        3.82818582       8.61266744       9.47175510
O        2.41021791       3.96670931      10.67852543
O        4.70315795       1.84529180       6.12043182
O        2.66769452       1.66206626       9.59332561
O        0.52563129       1.53410863       4.55068207
O        0.91629122       6.61692854       8.57910352
O        4.57495985       3.21298520       9.62107273
Li       2.40273669       6.44034215       5.18128672
Li       5.22700647       8.00753740       0.48529115
Li       2.32920372       6.38820484       1.15433364
Li       0.28174643       8.34654435       1.32312237
Li       5.12769218       6.53065541       3.63999884
Li       7.89708269       4.23869139       6.14600554
P        2.48950944       8.48480317       3.33933050
P        9.69812037       5.90315273      12.36448543
O        8.80046251       8.09797633       9.10632347
O        4.40206999       4.37334296       2.43460048
O        3.54139750       7.48883182       3.84176486
O        5.38870355       4.43205969      12.30709325
O        3.15360133       9.57936250       2.33696963
O        0.10060404       4.68135658      11.49704710
O        0.71202561      10.42925216       1.61933987
O        1.60244900       9.21160404       4.39367269
Li       8.68935019      10.22921011       9.21768272
Li       8.22248931       9.44864527       0.36600299
Li       7.31663442       9.21033101       6.18294326
Li       6.80991796       5.99081224      11.43115849
Li       6.30060069       1.45778372       4.07091479
Li       5.31295453       5.37172792       9.57786175
P        4.27006666       7.40916181      10.36836121
P        9.81990576       7.68116322       7.94132351
O        9.51364450       5.37579252       1.34905656
O        2.28126126       3.73942585       8.20632325
O        3.94188965       7.98591603      11.81014306
O        4.29574646       5.27646528       5.52914257
O        3.54841452       6.14401693      10.01359566
O        9.14181877       7.07461697       6.69060762
O        1.01058844       5.48030241       4.63032032
O        5.80282788       7.16218585      10.17806742
Li       1.51585472       3.03545353      11.94265143
Li       6.05287833       1.53900366       1.28216065
Li       0.36601927       6.10439897       3.00557045
Li       2.16391423       0.79313122       3.61108017
Li       7.87841556       7.10677069       5.04559139
Li       3.31125826       9.16131480       0.68424919
P        7.51942971       3.80924085       3.39878673
P        6.51559913       0.12470158      11.56055121
O        4.34169833      10.19600236       5.06828135
O        7.34047843      10.59320736       2.47333940
O        2.47202143      10.31608076      12.13543825
N        8.74385649       2.86747816       3.37339899
O        6.13418023       9.47695845      12.19559373
O        6.73909099       3.61725023       1.98991531
O        6.68204193       3.21774904       4.51434803
Li       0.36383501       8.48373579      10.70401629
Li       1.13362259       5.31944206      10.03075654
Li       1.10485672       1.35881131      10.38247866
Li       0.47835334       2.44379323       7.99138717
Li       9.41260900       0.02238356       4.98786854
Li       3.53226759      10.48821613       8.35263959
P        7.68146170       3.57035291       9.04300293
P        5.17165320       0.35900887       6.10041579
O        4.98858661       0.57470201      11.16101245
O        2.08408149       0.46546385       7.06356070
O        8.22904256       4.63489257       7.90996541
O        9.55862148       3.52126169       5.94058379
N        6.75134727       2.65943293       8.22229454
O        6.55470194       0.27503270       5.42991485
O        5.29111049       5.98187559       7.80287865
O        7.06329835       4.33072369      10.19863512
Li       3.66828478       1.46700509      11.84952583
Li       0.50125989       3.50753469       2.09003010
Li       0.09526639       8.30779641       5.25086069
Li       7.55375511       6.40300286       7.98990181
Li       0.20771596       5.00703887       6.82712459
Li       2.47336174       5.61669465       7.61593698
P        7.55790500       9.16434398       3.05233312
P        5.61971275       4.77198978       1.32910556
O        5.87163981       7.07033171       5.74390378
O        7.91033292       5.23375522       3.81448600
O        8.40386087       8.32199316       1.98121522
O        8.44778056       6.83534734      12.01950447
N        8.45595434       9.11835264       4.38396921
O        5.95216591       6.21692039       1.47140250
O        6.99510210       1.40042316      12.28399857
O        6.22390065       8.30401234       3.25883089
Li       3.86817261       9.92418445      10.63849914
Li       4.93165415       3.28064480       4.66253319
Li       4.87714126       8.52189927       4.91454807
Li       8.44767476       2.10648461      11.49815054
Li       7.58126107       6.76959688       1.25850636
P        0.88804205      10.40932943       7.70978586
P        4.79728011       6.39102771       6.46103588
O        8.75043847       2.52803440       9.54513332
N        1.00504961       8.85554497       7.54992295
O        9.53058412       0.17497332       6.85492507
O        3.43171986       7.41743599       6.63680582
O        5.04277380      10.35760278       7.48866254
O        0.70595789       0.05707244       9.15781910
124
Lattice="9.90879 0.0 0.0 0.0 10.6625 0.0 0.0 0.0 12.434" Properties=species:S:1:pos:R:3 material=LiPON model=NEP89 temperature_K=900 phase="NVT production" display_name="LiPON｜NEP89｜900 K｜NVT production計算" report_figures="23_LiPON_lithium_MSD; 24_LiPON_transport_comparison; 25_LiPON_temperature_RDF" source_frame_index=990 relative_time_ps=99.0 pbc="T T T"
Li       5.55752672       1.89764662       8.95943323
Li       7.52069050       0.45470226       4.90902774
Li       3.24662509       8.80316503       7.63891685
Li       5.48881885       2.51340579      12.17125177
Li       0.50703684       4.80618799       2.43376319
Li       1.60582326       1.53314902       6.46343441
P        3.59715215       3.42574646       1.96938620
P        0.61662779       0.46248333       0.68719115
N        1.00242144       3.73858829       5.51130743
O        2.78414087       7.74088608       1.82019412
O        3.59676966       3.11828683       3.53751487
O        6.53517429       0.53771098       9.73553066
O        2.17851138       3.96810821       1.52289299
O        0.58536149       9.70614468      12.41229959
O        1.34257578       6.73198739      12.00455790
O        4.19371995       2.27867337       1.25118136
Li       5.36760795       1.89684672       3.20036432
Li       2.11992595       7.08883497       5.62699081
Li       2.52172312       5.64435267      10.83530885
Li       2.09059960      10.39804850       4.52298331
Li       6.09707507      10.14073398       8.32149107
Li       7.84020483       6.81944717      10.34947925
P        2.84233612       2.83244221       9.48954377
P        9.89071005       2.54264946       4.64880574
O        0.37048564       1.80654835      12.25108183
O        3.30894889       9.03112170      10.41594761
O        1.89937378       3.80920297      10.34787716
O        3.96851726      10.56107267       7.65468990
O        2.90783545       1.51519508      10.34485883
O        0.67628223       1.26658233       4.11219119
O        1.09527748       6.14249546       8.39802268
O        4.18051796       3.60349033       9.33094076
Li       3.08924178       4.93793196       4.09582579
Li       6.22316414       6.55998421       3.78460137
Li       4.46624781       6.85347355       1.29611777
Li       1.15385423       8.30735241      10.29510246
Li       2.23078702       5.83793711       1.17913749
Li       6.13975597       3.49944271       6.02750807
P        1.74052314       7.62177428       3.01944820
P        9.71280271       6.22143986      12.30716377
O        8.75305030       7.27501781       8.92175859
O        4.54694773       4.59104829       2.00564565
O        1.75393232       6.10101394       3.42382530
O        5.81446916       4.52107092      12.16615246
O        2.24294003       8.37899324       4.29627047
O        9.48795216       4.92208202      11.50331893
O        9.15961403       0.35120521       1.45684935
O        0.30610495       8.16544632       2.79142784
Li       0.17585559       2.40299434      10.26965420
Li       8.84088517       8.80286901       0.52945865
Li       6.49714633       9.08082676       5.70358840
Li       8.23329934       3.47332439      11.86401993
Li       3.28566198       2.61007397       5.18858635
Li       5.37041384       4.92766068      10.37014791
P        4.49439413       7.91010043      10.35490896
P        0.16636411       7.23231895       8.11700755
O        9.72311762       5.93111617       1.40886385
O        2.15960236       2.45522448       8.11290636
O        5.00760197       7.65654008      11.77783190
O        4.46351047       6.47050806       4.58517038
O        4.05551908       6.47978653       9.79475263
O        9.78308081       7.42633574       6.57514342
O        1.94204926       4.57331599       5.59884886
O        5.58822412       8.54709468       9.47546702
Li       3.42178570       0.87080164       0.17334867
Li       7.32998581       1.25436755       1.07295990
Li       9.20185009       5.26434214       5.31265791
Li       4.40086360       9.47399452       1.42244857
Li       8.06542765       6.46436228       6.85961322
Li       6.67032774       8.10350541      12.38570622
P        7.75371731       4.15737316       3.63248404
P        6.73147493       0.42342586      11.27587461
O        3.76989446       0.42850576       5.28472952
O        6.27834715       0.19118967       2.47283467
O        1.97131136       0.34234939       1.49808024
N        9.31898034       3.49194914       3.48978555
O        7.56954703       9.84968497      11.44220253
O        7.21800750       4.08731410       2.00076037
O        6.68135798       3.42735068       4.35103079
Li       9.20757962      10.14042246      10.89410083
Li       0.23800924       4.99614155       9.89426562
Li       1.41507796       0.12788289      10.99357463
Li       2.40878168       0.69484403       8.33507883
Li       9.80221373       9.98026742       2.91833286
Li       7.66295971       1.22491315       7.66534706
P        7.72877310       4.25057116       8.36892098
P        4.55936802       0.74737344       6.57960784
O        5.24851306       0.20889882      11.83204665
O        0.97774602      10.51984841       6.90660706
O        8.08011607       4.67989870       6.87652345
O        8.64931606       1.89724268       5.20293394
N        6.77164676       2.98282580       7.85626425
O        4.42300021       2.29335610       6.78461005
O        4.67755945       4.86527096       6.36161579
O        7.11896506       5.43712283       9.18318121
Li       2.20361379       8.42826325      12.26969701
Li       1.16461021       3.52238603      12.22752389
Li       0.16865661       8.48038664       5.13169278
Li       6.94040528       7.83452780       8.44238067
Li       0.27186649       4.00608721       7.48446224
Li       3.39807351       5.42143887       8.01497392
P        6.75010299       9.42440142       2.64406166
P        5.88918384       4.83718613       1.19707505
O        6.11723985       6.89350925       6.54752645
O        8.00152831       5.57384175       3.99803377
O        7.39817624       8.69861817       1.46587802
O        8.80482212       7.34946753      11.90410243
N        7.92357075       9.54716740       3.78972742
O        6.03249814       6.39794806       1.51241845
O        7.36315824       1.72957235      11.80369818
O        5.70332042       8.65486686       3.52062649
Li       4.43258037       0.25194793      10.14586876
Li       4.96047371       3.82620305       7.66894565
Li       4.17707999       8.39926282       3.95058362
Li       1.01473013       2.36341950       2.21257121
Li       8.33423291       7.02116142       2.35425227
P        0.29997450       9.93104154       8.08674133
P        4.71370470       6.33746543       6.13749057
O        9.00761062       3.58720272       9.02801374
N        0.97159465       8.54513256       8.46258041
O        8.73278483       9.90475899       8.06007030
O        3.61703691       7.07139059       6.88385014
O        6.02851347       0.19222790       6.57818422
O        0.63432538      10.64848639       9.42902864
124
Lattice="9.90879 0.0 0.0 0.0 10.6625 0.0 0.0 0.0 12.434" Properties=species:S:1:pos:R:3 material=LiPON model=NEP89 temperature_K=900 phase="NVT production" display_name="LiPON｜NEP89｜900 K｜NVT production計算" report_figures="23_LiPON_lithium_MSD; 24_LiPON_transport_comparison; 25_LiPON_temperature_RDF" source_frame_index=1020 relative_time_ps=102.0 pbc="T T T"
Li       5.20653206       1.62083071       8.84670743
Li       7.77680994       0.66131871       4.92461199
Li       3.47155005       9.33557737       5.92768876
Li       7.97581174       1.10224813       1.57689973
Li       9.51509891       5.40717621       4.90291326
Li       2.31770785       1.19612051       8.07787313
P        3.23252168       3.48568119       1.81622568
P        0.66965044       0.46385644      12.19686250
N        1.15508828       3.65449192       5.49494344
O        1.47595225       9.08773360       1.99688179
O        3.56982030       4.05828104       3.28075089
O        6.43156907       0.42698478      10.06995078
O        1.97624617       4.22626206       1.28252060
O        0.01705504       9.74753049      11.63956305
O        1.19701764       6.54535175      11.92187340
O        3.06916762       1.97935432       1.71808188
Li       5.45824097       1.37984595       3.09811119
Li       1.75554426       7.62685315       5.62249822
Li       2.77548063       5.68645342      12.39521621
Li       1.52276128       0.27986732       5.20861985
Li       2.56017375       8.84340780       8.05086989
Li       7.17221452       7.03339167       0.48199805
P        3.04525452       2.83055347       9.66315520
P        0.12068759       2.70600360       4.67852633
O        0.41316994       1.53425927      11.11202323
O        2.99794203       8.41178823      10.20106127
O        2.78968075       3.48827463      11.09325349
O        4.13483039       0.72801284       4.85152713
O        3.40691990       1.32112641       9.73428534
O        1.06167203       1.69826102       3.91917905
O        0.94902645       6.18213662       8.84086952
O        4.27257394       3.60025310       9.12734154
Li       3.53761807       2.81042564       4.76437841
Li       6.43473153       6.75180756       4.26777987
Li       4.56145825       7.55704123       1.78511191
Li       2.15785569       6.02223915      10.26249790
Li       1.50564712       5.40138215       2.82676238
Li       6.76413499       2.62958804       6.02329707
P        1.97577757       8.13942082       3.10663792
P        9.72260145       6.01136898      12.21453702
O        8.56037745       7.20109565       8.60627564
O        4.64469313       3.71525903       1.03930217
O        3.04333293       7.04789665       2.70677036
O        6.39915668       5.48363970      12.30705402
O        2.43198154       9.04070620       4.33739628
O        9.61806128       4.47392150      11.93340979
O        0.09030077       0.87105913       1.21649369
O        0.81702798       7.25010479       3.78816670
Li       8.97697939       2.57969959      11.91969036
Li       8.77458635       8.48195425      12.14493090
Li       7.25140694       8.87495678       5.99904250
Li       7.59039379       4.57777997      11.12804665
Li       4.35969675       5.62817917       3.55699978
Li       5.10309835       5.26612838       9.30656531
P        4.31639381       7.54995361      10.71905531
P        0.06929340       7.06428451       7.90035810
O        9.43745765       6.26664277       1.26772651
O        1.84238877       3.04023392       8.76060429
O        4.71841482       7.89266184      12.14805737
O        4.59084373       6.54889913       5.08963255
O        3.82513657       6.07465852      10.73962822
O        9.90251769       6.32679824       6.52969651
O        2.33926248       4.25000337       5.70369496
O        5.35196231       7.86493252       9.59118258
Li       4.56319635       4.17439301      11.51155169
Li       9.88848121       2.82638859       1.79030818
Li       0.80096730       3.05244953       7.16566240
Li       3.50796463      10.25870237      10.72572027
Li       7.12909820       6.22603948       6.91135091
Li       5.65092014       9.40177055       0.45938659
P        7.55545411       3.93331462       3.63179455
P        6.35782287       0.94815091      11.57102783
O        4.76955866       2.58124507       6.22144738
O        5.84871545       9.61200527       2.68587710
O        2.17431680       0.03561776      12.25583981
N        9.20130531       3.62485182       3.55110842
O        7.44465353       0.12528024      12.35718049
O        7.22432110       3.94556794       1.97714263
O        6.69229328       2.83194439       4.15731367
Li       5.28205779       9.41475116       8.10902612
Li       0.62736557       4.28112322       9.50907628
Li       8.13315412      10.41168455      10.68590954
Li       3.34086584       1.55604662      12.24134505
Li       9.58839774       9.99803418       1.87220644
Li       8.04698528       1.13630460       7.28288971
P        7.77537242       3.87915549       8.34361552
P        4.91077790       0.97201871       6.18619697
O        4.98784255       0.44622784      11.91674572
O        1.60206833      10.40923662       7.07043056
O        7.68198276       4.45561577       6.90574796
O        9.13747115       1.91837584       5.54487001
N        6.84834526       2.59433688       8.33312764
O        4.16168960       0.17946501       7.28081460
O        4.98791887       5.77736931       7.47321957
O        7.16742048       4.86196594       9.29698535
Li       1.69667734       8.59550961      12.33262797
Li       1.30020346       3.28975227      12.07862633
Li       9.46174946       8.23073370       4.62591071
Li       7.31509443       6.93368939       9.75201810
Li       9.88171438       1.89696752       9.51005032
Li       2.97564505       4.44122471       7.53185010
P        7.24970072       9.19264169       2.84215296
P        6.08585757       4.81081922       1.29691529
O        6.06018386       7.82354969       6.77896025
O        7.51809895       5.27601762       4.19616192
O        7.66412465       8.55096325       1.48093884
O        8.68472044       6.87065626      11.43328033
N        7.95770907      10.60540474       3.03237627
O        5.72180337       5.98761178       2.25842747
O        6.86303773       2.42475527      11.78582424
O        7.56420340       8.22188550       4.03456418
Li       0.39968332       9.06655351       9.63192540
Li       5.35500453       3.79558849       7.39637899
Li       4.72713153       9.27086358       3.93960757
Li       1.91160221       0.63360414       2.34979642
Li       8.60579377       6.92904571       2.71834467
P        0.23795476       9.89670931       7.46820425
P        4.78776970       6.98821665       6.55739557
O        9.17318767       3.39180037       8.69313838
N        0.61042752       8.45349176       7.90236252
O        9.30857562       9.85088306       6.16191112
O        3.40850304       7.62738816       6.96505644
O        6.37893925       0.49861165       6.50776273
O        9.31333888       0.03380345       8.50319115
124
Lattice="9.90879 0.0 0.0 0.0 10.6625 0.0 0.0 0.0 12.434" Properties=species:S:1:pos:R:3 material=LiPON model=NEP89 temperature_K=900 phase="NVT production" display_name="LiPON｜NEP89｜900 K｜NVT production計算" report_figures="23_LiPON_lithium_MSD; 24_LiPON_transport_comparison; 25_LiPON_temperature_RDF" source_frame_index=1050 relative_time_ps=105.0 pbc="T T T"
Li       7.55167701       0.89008655       8.21403292
Li       6.99178121       9.63664974       5.55484091
Li       3.46677521       7.03558407       4.88294045
Li       8.55287783       0.38959487       0.15835603
Li       8.64015849       6.79002898       2.58122047
Li       6.18648842       4.09394561       6.00824715
P        3.99155539       2.17008044       2.43824103
P        0.93296309       0.50679228      11.72070186
N        1.83132215       4.30748982       4.69866579
O        1.70923111       8.75861957       1.65970136
O        3.83916574       2.14317701       3.94457653
O        7.44281101      10.29366745       9.86253638
O        3.33323697       3.41753812       1.76708926
O        9.81109243       9.94007341      11.89684544
O        1.12909890       6.51459847      11.72407127
O        3.70160294       0.71482190       1.73257668
Li       5.35724216       1.07605462       4.50104429
Li       9.59863534       9.38300922       3.48622969
Li       2.34950483       5.33576306      10.73311417
Li       7.99224611       0.76749804       3.22894127
Li       2.33997432       8.97818897       6.23165218
Li       4.47431795       6.92732330       1.63605951
P        2.56778027       3.52481540       9.15437414
P        0.49104994       3.24083994       4.64096891
O        0.41161237       1.45878125      10.73552415
O        3.96851850       8.29558490      10.08188953
O        2.95535140       3.30968592      10.63928965
O        4.00849676      10.41423997       5.79764884
O        2.03156350       2.44110645       8.29306336
O        0.97222798       1.81797138       4.32406933
O        1.10531664       9.22212336       8.83643220
O        3.74251684       4.25805480       8.44003274
Li       2.67006463       0.42418320       4.94568337
Li       6.45293522       6.69740372       3.92932661
Li       2.19761656       7.25199331       0.70707899
Li       3.18699675       8.17389532       8.60482202
Li       3.63075760       4.10487795       3.79202503
Li       8.15478409       2.11413493       5.79623481
P        1.82295288       7.88388081       3.03662486
P        0.00713393       5.60680914      12.42395001
O        8.98423203       7.72474900       9.22838202
O        5.59759950       2.37386700       1.88290943
O        2.58387999       6.60305939       2.78884946
O        5.97647899       4.19591185       0.29964495
O        2.89233027       8.52921232       3.96783840
O        8.87474831       5.07037399      11.41918470
O        0.95324013       1.18967418       0.79720576
O        0.42414593       7.75364891       3.69085877
Li       7.56996625       3.17034955      11.72684607
Li       6.72424990       7.74790003       0.69155419
Li       2.89269771       2.81339954       6.42242602
Li       7.09989189       5.35750083      11.57585193
Li       9.55597425       7.03431881       5.24042364
Li       5.21164382       5.37524389       9.18670826
P        4.80820520       7.38412001      11.02717205
P        0.13680657       8.16280006       8.21319652
O        0.83274369       4.52660733       0.81529584
O        1.42086231       4.59813675       9.08805508
O        4.04329440       7.54843001       0.04408963
O        5.34243557       7.53087490       5.23042064
O        4.36353452       6.01987789      10.51710276
O        0.69903585       7.09136370       7.29671891
O        2.15752963       5.47714398       5.19210516
O        6.27473627       7.59270558      11.21916467
Li       5.18334803       3.38135999      10.97686343
Li       0.07316201       2.63721262       1.51515345
Li       0.08518943       4.77418773       7.36801258
Li       1.87651382       0.27388954       8.32996867
Li       7.53709394       6.73781153       8.90964560
Li       2.94476117       9.53740704       0.18108333
P        7.93189366       4.16767556       3.72081888
P        6.41618899       0.60591743      10.68449854
O        4.57309064       1.91963272       6.91285908
O        5.70631474       8.73736821       1.84464774
O        2.26727032       0.02581121      11.30674912
N        9.43875788       3.74003291       3.40106451
O        5.51605028      10.45057846      11.60984117
O        7.55488728       3.79296082       2.06026732
O        7.03887943       3.14732677       4.46949929
Li       3.62906411      10.23419536      10.09935591
Li       0.09535406       3.22326304      10.53963045
Li       0.58689850       8.53584225      10.95320494
Li       3.92694708       1.20752528      11.91870574
Li       9.70463794       8.74614683       0.85047089
Li       9.35075340       0.51234214       9.61009282
P        7.68019795       3.92431923       8.87219801
P        4.48405054       0.32442141       7.15580873
O        5.33236372       1.66083809       9.99159790
O        1.22188012      10.31410074       6.32998904
O        8.11518712       5.27679306       8.15287346
O        9.79493224       3.22729604       5.96843823
N        7.04351569       3.15612649       7.66743108
O        3.70771724      10.36509515       8.26781379
O        5.46454988       5.50126054       6.69830081
O        6.62750997       4.13789284      10.04207800
Li       1.74665172       0.53047718       2.12334075
Li       2.07879485       3.42277040       0.04896622
Li       6.54427437       9.21273673       8.19278862
Li       7.74792684       8.40950152      10.54017022
Li       0.35702070       2.48335615       7.53882679
Li       2.59112214       5.62258722       7.40381373
P        6.82041508       9.28843219       2.71837321
P        5.93207231       3.93154820       1.79358745
O        6.40095927       7.70386087       7.49764531
O        8.00745502       5.67496341       3.81672671
O        7.61011401      10.29237556       1.86617652
O        9.05064712       6.58713232       0.86852092
N        6.22187148       9.96422432       3.90974874
O        5.40505428       5.21315024       2.59116914
O        7.42672795       1.43603233      11.56294934
O        7.85837407       8.31416969       3.37678683
Li       9.56211687       5.64799704       9.44996239
Li       5.40133705       2.66288475       8.36935882
Li       4.42805573       9.50858167       3.95719734
Li       5.49966478      10.50207962       1.17155482
Li       1.44131392       5.03673141       2.53860360
P        9.62043408      10.24763860       6.63657632
P        5.30524616       7.00073442       6.65674717
O        8.96369995       3.13361661       9.32977435
N        9.14723002       8.82568373       6.97367279
O        8.77680217       0.14391359       5.37941122
O        3.75865871       7.37857215       7.07392831
O        6.03162530      10.62022357       6.97324899
O        9.18825189       0.62464922       7.61043529
124
Lattice="9.90879 0.0 0.0 0.0 10.6625 0.0 0.0 0.0 12.434" Properties=species:S:1:pos:R:3 material=LiPON model=NEP89 temperature_K=900 phase="NVT production" display_name="LiPON｜NEP89｜900 K｜NVT production計算" report_figures="23_LiPON_lithium_MSD; 24_LiPON_transport_comparison; 25_LiPON_temperature_RDF" source_frame_index=1080 relative_time_ps=108.0 pbc="T T T"
Li       5.85666678       2.93529591      10.86801527
Li       6.77794252       9.47587578       5.98294267
Li       3.83956895       5.65157881       3.64175293
Li       7.79893977       1.22742534       1.56291628
Li       7.50964704       5.59758375      11.75526753
Li       5.50548767       3.26867562       7.55280769
P        3.39955358       2.74080746       2.44612713
P        1.73960219      10.29669715      11.74600044
N        1.01931467       3.64486995       4.66704776
O        1.11257289       8.11486601       2.22387343
O        3.39950935       3.79560950       3.53381658
O        7.40902528      10.12518501      11.16972946
O        2.16833244       2.87363760       1.49578553
O        1.23493000       8.85651013      11.79961407
O        1.55350596       5.92330402      12.36253675
O        3.74051312       1.37667230       2.98016567
Li       4.31325577       2.97182020       4.75450053
Li       9.57201246      10.41558136       3.97927124
Li       3.11891537       6.45332450       8.90967018
Li       5.60764408       1.06089615       4.10564699
Li       4.85957123       9.14954145       3.85006134
Li       4.72928997       7.66486154       1.58008435
P        3.07040428       3.71150961       9.32362261
P        9.88896995       2.52582231       4.08463542
O        2.45857288      10.55973166      10.44707620
O        4.61394455       8.73593411       9.86369297
O        2.45692982       3.61496646      10.90192566
O        3.65205339      10.50991144       5.38235718
O        2.29945759       2.49366586       8.72018943
O        0.79807683       1.67000506       3.11169814
O        2.17422850       8.05881054       8.13118799
O        4.57854863       3.59491568       9.20629184
Li       2.53597905      10.52116987       3.87423463
Li       6.84031273       7.09890481       4.26829768
Li       2.55225335       8.66397623       0.98678905
Li       1.66123535       9.91902052       6.07659393
Li       1.68721608       4.64348307       2.03649782
Li       6.94093846       2.38563709       6.00103451
P        1.99083606       8.14870598       3.51816310
P        0.01407420       5.89708841       0.25847942
O        0.68661123       6.46974328       9.42859529
O        4.81650279       3.01103149       1.55295719
O        3.35705869       8.85053566       3.22053419
O        6.18419170       4.36211323      12.20338074
O        1.24350256       8.94738189       4.49473164
O        9.40304145       4.62310885      12.11660861
O        0.66792331       0.72266005      11.96805510
O        2.06242242       6.71004511       3.98646443
Li       8.11053871       3.50033463      11.04520353
Li       6.75892846       8.71378308       0.06100388
Li       3.14059241       3.97807375       6.62557150
Li       7.81133248       6.79786254       9.56975033
Li       9.69771677       8.56804096       5.58539191
Li       6.08235828       9.73762776       9.71425732
P        4.98509669       7.59194653      10.92391114
P        0.78826548       7.43219196       8.24217036
O        9.83582642       5.73723176       1.79224480
O        2.55533873       4.91534661       8.37182358
O        4.65582687       8.26392428      12.28336841
O        5.19235783       6.43062300       4.73531232
O        4.19926725       6.29403037      10.74599599
O        0.38624992       6.80445905       6.80067699
O        1.46783705       4.38425718       5.54792240
O        6.51399898       7.30899296      10.91361629
Li       5.98376675       5.47751717      10.09291101
Li       8.78975003       3.70914861       1.26639524
Li       8.36005042       6.50120449       6.64179105
Li       0.83310013       1.70145986       9.27717092
Li       9.55735971       6.14562042       3.98593830
Li       3.00976791       9.29446220       9.10720126
P        7.61077309       4.15194742       3.62138151
P        6.53095324       0.77237377      11.39280849
O        4.13351186       2.08864755       6.69576288
O        6.66885414       8.09292221       2.25106865
O        2.72346719      10.44996196       0.61300990
N        8.88821698       3.25251001       3.11232298
O        5.31542641       0.47766932      12.29925124
O        6.85254681       4.61188710       2.30907331
O        6.56466474       3.26545732       4.54594936
Li       3.39618272       1.53094152       0.13591766
Li       9.18051419       0.74487990      10.90833174
Li       2.07797934       7.21687083      10.97146653
Li       1.35197586       2.51662044      12.20392555
Li       9.56932456       8.22662609       1.00053110
Li       9.61855650       8.38227473      10.59048861
P        8.37459172       3.87603674       8.67167499
P        4.47168999       0.54196009       6.47177694
O        6.05341012       1.30431999       9.97479219
O        9.27949744      10.63477224       9.38358932
O        8.83535909       4.53419664       7.43343621
O        8.94762536       1.89541545       5.01392199
N        7.54888365       2.68734097       8.08285657
O        4.36635158      10.42330812       7.87994199
O        5.26440183       4.90520511       6.68331868
O        7.49890853       4.80411561       9.53744928
Li       0.76362602       0.66139065       1.38705693
Li       3.11934287       4.97125872      11.85429634
Li       5.32439751       8.90663920       8.07223331
Li       7.12588029       0.96200390       8.37849967
Li       9.32234535       1.78721853       7.13685441
Li       2.21186816       6.11632599       5.95546950
P        7.42718691       9.24756493       2.82699429
P        5.42359276       4.47890558       1.19195331
O        6.37427909       7.40001555       6.69026323
O        8.13314597       5.40896710       4.47096794
O        8.50878306      10.07646481       2.05587441
O        9.15705722       7.14595352      12.07832940
N        6.32858706      10.32051187       3.01346520
O        4.29135153       5.54555431       1.37900736
O        7.52464669       1.79203545      12.03341404
O        8.07400083       8.78917683       4.25004292
Li       0.59486080       4.64848449      10.43580012
Li       3.67797387       1.14397104       9.28094543
Li       4.02242797       9.99898987      11.46033540
Li       4.90348276       0.26958705       1.81242781
Li       0.88413024       4.21840649       7.46440013
P        8.85985168       9.63712805       8.23205650
P        5.18825967       6.38752610       6.33720609
O        9.40298467       3.05866760       9.55201439
N        9.50282573       8.35597389       8.67151408
O        9.38338715      10.10080259       6.79235476
O        4.03665587       7.12487298       6.91034461
O        6.00317544       0.55117631       5.98405395
O        7.36598055       9.59040999       8.32160180
124
Lattice="9.90879 0.0 0.0 0.0 10.6625 0.0 0.0 0.0 12.434" Properties=species:S:1:pos:R:3 material=LiPON model=NEP89 temperature_K=900 phase="NVT production" display_name="LiPON｜NEP89｜900 K｜NVT production計算" report_figures="23_LiPON_lithium_MSD; 24_LiPON_transport_comparison; 25_LiPON_temperature_RDF" source_frame_index=1110 relative_time_ps=111.0 pbc="T T T"
Li       8.24383925       3.49604224      11.93836690
Li       8.29147646       7.83667391       5.42267556
Li       4.26434796       5.66814488       3.73720462
Li       7.79342202       1.13435444       1.74554514
Li       7.02462020       5.95981114      11.16649901
Li       6.57733706       2.72549676       6.98814082
P        3.49320752       3.36545870       2.20749665
P        0.84800404      10.62238665      11.71012373
N        1.18449422       3.67201127       4.53255050
O        1.73617157       8.20254810       2.27350869
O        2.96873969       4.76845955       2.70096061
O        6.77342122      10.51731953      11.03162529
O        2.69193998       2.74976177       1.01144018
O        9.84439558       9.31360359      11.71961218
O        1.33831547       6.56587865      12.16064514
O        3.88056763       2.37390917       3.24098550
Li       5.19319001       0.29585740       2.90465962
Li       0.77592676       9.82468970       5.58985263
Li       3.35401508       7.20397947       8.06208408
Li       8.37215264       0.47504073       5.20653044
Li       7.11035972       6.27455556       3.73841514
Li       2.50248069       6.25614120       1.28430398
P        2.43462471       4.02660842       8.89168244
P        0.38581621       2.15229288       4.45386957
O        1.82926090       0.07447070      10.46691638
O        3.64495723       7.93738842       9.96927415
O        1.28813066       4.41637838      10.08744602
O        3.08526183       0.02549336       7.56690148
O        1.58319489       3.07710343       7.89543461
O        1.17049496       1.41950501       3.31050782
O        0.39399416       7.14099240       9.24645126
O        3.37610802       3.13014855       9.57633422
Li       3.20043418       0.91468782       4.22057212
Li       7.73762611       6.52967776       1.32811122
Li       0.80446282      10.07303134       2.55368471
Li       8.97105275       7.68507866      10.38762030
Li       2.39412961       3.98259484      11.86055205
Li       9.45949769       2.02966118       7.66724038
P        2.89442725       8.69859304       3.25705924
P        0.07738467       5.81030551       0.24985413
O        9.36519387       6.86081012       6.80530521
O        4.97483280       3.83569421       1.42733824
O        3.56350677      10.03331373       2.62705116
O        7.05867325       4.85096469       0.16813208
O        2.35261817       9.04531697       4.60114034
O        0.06248672       4.22253504       0.12334726
O        0.16289777       1.29720224      11.81404294
O        4.00518504       7.57754610       3.19497979
Li       0.28433310       2.88258371      10.43156406
Li       4.86260023       9.09126280       0.86409335
Li       4.76620924       3.54944345       5.32544118
Li       7.80258708       6.71753040       8.51366898
Li       2.70324934       5.89801343       6.18373627
Li       6.60710810      10.22281420       8.97471707
P        4.31298894       7.26962633      11.26028670
P        0.41436357       7.76864875       7.70559427
O        9.89806133       6.01408987       1.78157219
O        2.95832665       5.20065986       8.05162493
O        3.79268602       7.74789540       0.19403862
O        6.33418910       7.31695087       4.99617682
O        3.97064881       5.79829953      11.05230646
O        1.77299679       7.77205791       7.01618825
O        1.64235058       4.71190064       5.25584738
O        5.84844597       7.53354335      11.18705416
Li       4.89104781       5.25517883       9.07053388
Li       9.72859598       4.76492698       3.38921192
Li       8.32436901       5.50725107       6.24788455
Li       8.32143008       0.80944583      10.71278540
Li       0.20640897       7.34097897       2.77626534
Li       0.95016668       8.04256171      10.61169485
P        7.75057232       3.57076755       3.94746335
P        5.68097821       0.87227590      11.61269389
O        4.28966438       2.08768560       6.56613943
O        7.39505451       8.53171084       1.56647098
O        1.75683158      10.56137925       0.58204162
N        8.69855845       2.38671380       4.28026253
O        5.15924662       0.34026049       0.48161813
O        7.34677333       3.50836627       2.36809873
O        6.48527608       3.44321364       4.78646194
Li       2.83687896       1.81582679      10.52399617
Li       7.40917797       8.98108780      12.21542220
Li       2.12037129       6.16907846      10.47149447
Li       1.52211761       9.95874728       8.50939589
Li       2.13472581       8.57439399       0.57304714
Li       5.98123118       8.07990346       9.31643970
P        7.81085398       3.71746397       9.00173845
P        4.39088447       0.48909328       6.83101021
O        4.44508974       1.08949247      10.56636285
O        7.69305210       8.69531343       8.99118570
O        8.62092022       3.66288916       7.65072281
O        0.50605251       1.38243587       5.82295474
N        6.30956584       3.44238189       8.85527253
O        5.57477514       0.12604619       7.73491860
O        4.58779816       5.51445971       5.62450433
O        7.99139223       5.17071136       9.55482195
Li       0.76704416       1.70478548       1.11241996
Li       5.53687654       3.70708440      11.73142280
Li       6.17237758       9.39483584       6.52941631
Li       4.97662672       2.31737428       8.93457918
Li       2.38144381       2.21306993       6.55628229
Li       3.45037136       8.87314229       6.29516760
P        7.92787112       9.28094467       2.70945941
P        6.51500509       4.63387395       1.63127545
O        6.71207429       5.96892328       6.96007749
O        8.31921423       5.04871947       4.30932442
O        8.77959867      10.43569549       2.23782696
O        8.81141930       6.59295551      11.96831295
N        6.67616701       9.89934152       3.45622129
O        6.10527460       5.88001086       2.38742966
O        6.36088002       2.19782924      11.93409414
O        8.85340527       8.49411250       3.59167630
Li       0.03083566       5.44135998      10.21997831
Li       3.85497004      10.15474315       9.38603340
Li       3.36887492       0.66178554       1.11839475
Li       5.73541683       8.10948616       3.23371797
Li       0.70458811       4.43152083       6.74899555
P        8.67608301       9.79180546       8.12888674
P        5.57847175       6.58769672       6.11049684
O        8.24306034       2.67977100      10.08818578
N        0.10332628       9.30402978       7.61391198
O        8.95431291       0.44781782       8.91890745
O        4.58229101       7.59061662       6.99123801
O        4.61984594      10.16452599       5.64168377
O        8.01212176      10.05864456       6.83532429
124
Lattice="9.90879 0.0 0.0 0.0 10.6625 0.0 0.0 0.0 12.434" Properties=species:S:1:pos:R:3 material=LiPON model=NEP89 temperature_K=900 phase="NVT production" display_name="LiPON｜NEP89｜900 K｜NVT production計算" report_figures="23_LiPON_lithium_MSD; 24_LiPON_transport_comparison; 25_LiPON_temperature_RDF" source_frame_index=1140 relative_time_ps=114.0 pbc="T T T"
Li       9.24148208       2.71054534      12.01249812
Li       7.99322307       7.81718755       5.52539102
Li       4.08368646       6.45030784       3.90184440
Li       8.64667921       0.72682630       1.34170536
Li       7.52394136       5.60083074      11.71882444
Li       5.08858077       3.56713441       7.04600331
P        3.46125535       3.24584619       2.40987857
P        1.18582590       0.16276727      11.20230282
N        1.05126808       2.85721506       4.46755605
O        1.91292405       9.19479164       1.85776975
O        2.95473815       4.50785938       2.93312586
O        6.98558261      10.35422139      11.63734949
O        2.72961331       2.64981396       1.26025893
O        0.24308982       9.61184627      11.40769471
O        1.87073428       6.47237283      11.96748211
O        3.77150897       2.22029631       3.56910015
Li       5.21801296       0.64438141       2.85917023
Li       0.99223109      10.01313413       6.14149470
Li       3.43457337       1.22036802       9.71492608
Li       6.71075013       0.74976259       5.55850908
Li       7.28334740       6.18842118       4.40767142
Li       3.01050342       6.49405587       0.90751428
P        2.51255946       3.72699299       9.43864015
P        0.12360154       1.69556468       3.79159415
O        1.98485933      10.64047334       9.88651267
O        4.55264976       8.74116127      10.08155667
O        2.03418585       5.17281134       9.62434352
O        2.62294564       0.53223167       6.52639213
O        1.39596052       2.75609272       8.68794679
O        9.83161730       1.87665883       2.20795616
O        1.92846931       8.49477201       7.21763881
O        2.58356003       3.29940220      10.99355635
Li       2.91733912       0.58892670       4.53414573
Li       8.33289153       5.98015040       2.09128238
Li       0.38657814       8.67476045       1.41955531
Li       6.38730186       9.56078224       9.99242048
Li       3.38625884       9.11741798       8.35057671
Li       8.13766021       1.73249849       6.94458833
P        2.96300879       8.58619524       3.00574787
P        0.40606427       6.13786178       0.00593510
O        0.49231940       7.25293777       8.74080735
O        4.92072377       3.60995996       1.55215271
O        3.67780663       9.96289546       3.48195627
O        7.06109447       5.09182472       1.22775619
O        2.09683162       8.01285716       4.18110644
O        0.36593181       4.63981139       0.35691461
O        0.26588830       1.46329336      11.25088611
O        3.87812628       7.49525680       2.33150266
Li       9.77801254       2.10190663       9.49479250
Li       5.21145269       9.18572121       1.07525524
Li       5.51628309       2.72179552       4.83265752
Li       7.32506959       7.10612018       9.44195631
Li       2.91678095       3.77950308       4.68079734
Li       5.13195732       2.47199180       9.22631684
P        4.96667135       7.55829578      11.02010242
P        0.54553902       7.83158871       7.27579219
O        0.13913257       6.82993968       1.43787367
O        3.86979461       3.62498427       8.71869007
O        4.43582353       7.95442775      12.35104464
O        4.61274723       7.38360282       5.35736832
O        4.55949748       6.11941177      10.63523207
O        0.20076328       6.80967584       6.10740649
O        1.34224708       3.50095996       5.51118342
O        6.52154663       7.64424971      10.96022930
Li       5.17016163       5.60793244       8.97935772
Li       0.28460695       4.13265654       2.31832406
Li       8.23425771       5.60996924       6.73015052
Li       8.67865334       0.20371095      11.04787577
Li       9.85204202       6.37246853       4.51625096
Li       1.02985574       7.79158908      10.46845461
P        7.90082623       3.30905275       4.34598505
P        6.14078228       0.88928860      12.20993092
O        4.79546912       1.71781092       6.04143899
O        6.84394433       8.34274519       1.68464994
O        2.27413991       0.23735967      12.34849698
N        8.66836319       1.90805547       4.61316240
O        5.08682310       0.38648538       0.86050319
O        6.67980015       3.09221830       3.12100446
O        7.02474038       3.06064432       5.57384280
Li       2.02022659       0.33996628       1.85387491
Li       7.53487949       8.55998837      12.34395095
Li       2.21834880       6.49489577       8.29213303
Li       3.65633843       1.97400836      12.18218577
Li       2.72492040       9.09857448       0.08232632
Li       5.96046754       9.53701365       7.55040168
P        7.72846437       3.83307300       9.12053034
P        4.09293337       0.62903528       6.79161852
O        5.24270937       1.61570057      11.18974008
O        7.84656307       9.27924408       8.80690109
O        8.91058751       4.32279623       8.24501334
O        0.84542976       0.41248923       4.13370130
N        6.78727581       2.74180007       8.32843737
O        4.40660647       0.75436796       8.35356975
O        4.34126216       4.97769590       6.08902416
O        6.89831192       5.12012643       9.50566048
Li       1.50993061       2.90771841      12.27977116
Li       3.08072247       4.99240311      11.48678293
Li       5.70287014       9.09019184       5.13536011
Li       2.62133241       2.75555337       6.85427265
Li       1.58347082       0.41513559       8.04888562
Li       2.99791908       8.61470066       5.72080359
P        7.67083584       9.12397144       2.82833033
P        6.18658110       4.28565730       2.15440603
O        6.68655491       6.21888779       6.17594903
O        8.59479529       4.67423742       4.20550123
O        8.82222161       9.69632011       2.08098435
O        9.17923881       6.22741031      11.37725042
N        6.81022544      10.17966444       3.62019339
O        5.61934135       5.28783906       3.21178995
O        7.24071375       1.80222536       0.17205689
O        8.30492274       8.03896455       3.85335232
Li       9.73271450       5.56077303       9.64061434
Li       5.99102239       3.87162445      11.89233034
Li       0.61929395       9.19183054       3.59557108
Li       5.86411856       6.87571048       2.05826971
Li       0.39741326       3.49347967       7.09788988
P        8.61739356       9.86245263       7.57019705
P        5.21535534       6.28019546       6.26588596
O        8.18551744       2.90680962      10.21665531
N        9.50590158       8.87332953       6.73104831
O        9.45873770       0.53073871       7.96912911
O        5.02696295       6.87286083       7.78374702
O        4.68022165       9.87522939       6.45026019
O        7.50621358      10.27963433       6.57988441
124
Lattice="9.90879 0.0 0.0 0.0 10.6625 0.0 0.0 0.0 12.434" Properties=species:S:1:pos:R:3 material=LiPON model=NEP89 temperature_K=900 phase="NVT production" display_name="LiPON｜NEP89｜900 K｜NVT production計算" report_figures="23_LiPON_lithium_MSD; 24_LiPON_transport_comparison; 25_LiPON_temperature_RDF" source_frame_index=1170 relative_time_ps=117.0 pbc="T T T"
Li       7.77714081       3.84074237      12.25193504
Li       8.43539979       7.03694198       5.45851679
Li       4.07163480       5.63464535       3.76213747
Li       8.58373832       1.56315514       1.46292243
Li       7.42899051       6.38156871      11.47961343
Li       5.53843275       3.86285482       7.36910797
P        4.02814105       3.28657853       2.37010773
P        0.62465698       0.20741905      11.83932647
N        0.94779970       3.43823328       4.66474653
O        1.40012037       8.83330906       1.95360744
O        4.16487993       3.63829674       3.80934838
O        7.24951316       0.05689033      10.93431549
O        2.93594655       4.09310787       1.61462287
O        9.80335217       9.50132488      11.93200921
O        1.76175170       5.79512685      12.39669730
O        3.87195355       1.68423420       2.32766240
Li       5.72139617       0.47068314       2.30786237
Li       0.89248959       0.09754177       6.14291479
Li       1.17771030       0.36014567       8.82692607
Li       9.58301102       9.50053653       4.95555740
Li       5.53548699       4.56020652       4.83014402
Li       3.23962299       6.30758606       1.41800471
P        2.10553294       3.33069877       9.20306376
P        0.35731221       2.10181245       4.11668262
O        0.38808620       1.06521324      10.53475589
O        4.03652524       8.68475038      10.42579936
O        3.10260546       3.98504391       8.29577695
O        3.25866568       0.46359463       6.34738647
O        1.49895582       2.09300494       8.48473146
O        1.50895621       1.30052983       3.40869475
O        2.39173045       8.10729559       7.34018131
O        1.09674858       4.34995319       9.79594723
Li       0.44768178      10.37233570       2.06167002
Li       8.32305297       5.97340458       2.81080117
Li       0.26546038       7.97257470       0.86367742
Li       6.36966716       9.99409083       9.40590967
Li       5.98192396       9.18268771       6.12066969
Li       7.02845996       0.97808233       6.33635489
P        2.45648448       8.44950496       3.10102013
P        0.27067743       5.53043242       0.18725941
O        0.80543996       7.48005457       9.13015153
O        5.21574384       3.74560294       1.44238492
O        3.75769066       9.15658668       2.95322543
O        7.10883742       5.39593468       0.78114492
O        1.82429501       8.97273448       4.49440570
O        9.77333450       4.05255609      12.21023737
O        0.32937746       1.02011005       0.71178625
O        2.61358161       6.92201659       3.22932639
Li       9.17002501       2.30684085       7.64200454
Li       3.55303425       9.45106845       1.11790931
Li       5.43369071       1.96576842       4.35115034
Li       9.03489281       8.45103807      10.54373575
Li       3.06844821       6.09799304       6.63688298
Li       5.13728867       2.08604468       9.35009164
P        4.60065165       7.52785670      11.39932467
P        0.91997359       7.89492708       7.56052869
O        0.04679778       5.46896664       1.73715478
O        3.09021622       2.70232663      10.41124784
O        3.98915322       7.63104406       0.48758701
O        4.99566851       7.80562402       5.44365361
O        4.15438659       6.22234023      10.74868929
O        0.51624573       6.64390685       6.68563860
O        1.89371529       4.14739706       5.21442568
O        6.16395388       7.57768265      11.44341695
Li       5.07576489       6.03872735       8.95677467
Li       1.60908054       4.90777222       2.99694889
Li       7.44060261       7.23433865       8.40069834
Li       8.44176940       1.43982448      10.16676668
Li       8.34453366       4.73252307       6.14442423
Li       2.33575569       5.91859005      10.24832469
P        7.59477406       2.97576004       3.64772937
P        6.33490451       0.90091954      11.91469476
O        5.23112343       2.09704540       7.00523970
O        8.09064593       8.19085521       1.41204141
O        2.11467675      10.47477139      11.86540223
N        9.06606413       2.60643767       3.08987709
O        5.78298362      10.38415907       0.34891682
O        7.18930138       4.46124427       3.12869055
O        6.71639468       1.96308195       2.81786130
Li       2.20386079       1.69160445       1.44182423
Li       7.21364795       9.00295971      12.13588401
Li       4.35136018       8.86334220       8.47865359
Li       3.28537724       0.94273832      11.35579908
Li       2.10527521       8.69157653      11.25643662
Li       5.65889259       7.71143125       3.83339626
P        7.41555946       4.30544911       9.30310869
P        4.77996005       0.60499043       6.70643526
O        5.06106472       1.38746182      11.11529596
O        8.00752208       8.84923892       8.80933890
O        8.23112681       3.97497507       7.92494564
O        9.68138277       1.23824772       5.14500511
N        5.88266209       4.24722205       9.21700175
O        5.31598823      10.27388175       7.74267090
O        4.82699426       5.35337205       6.26971634
O        7.77386032       5.81479876       9.66647645
Li       9.39085578       3.62633491       1.65302453
Li       2.20386550       3.68471892      12.40053017
Li       7.47183847       0.21826237       4.19189531
Li       3.04468220       3.06983102       6.13817253
Li       3.29429960       0.29507551       3.75283207
Li       3.01350062       9.24008772       5.86147939
P        7.88777126       8.88351226       2.83748645
P        6.27745086       4.99137759       1.89760250
O        7.09181668       6.64538753       6.41509404
O        7.13829014       2.96761547       5.04906160
O        8.83220558      10.08053083       2.90113006
O        9.46482309       6.65250098      11.73429845
N        6.43993606       9.57493730       2.81483508
O        5.44571662       6.20868305       2.41835169
O        7.00564011       2.11138999       0.10074244
O        8.23556412       7.99308590       4.04656592
Li       9.80293851       2.77931758      10.66859000
Li       4.70540170       3.85102859      10.90825064
Li       1.35020945       7.00890992       4.89323867
Li       5.80937562       7.50541675       0.95778741
Li       9.61545008       6.02405432       9.74552300
P        8.66253483       9.64292522       7.70141656
P        5.49259838       6.74644818       6.49851375
O        7.87499683       3.30084485      10.35809731
N        0.23073287       9.33741565       7.36409146
O        8.63223431       0.42824248       8.19325226
O        5.31700301       7.38674156       7.78435667
O        5.66312427       0.27261751       5.25869647
O        7.84461215       9.69845879       6.34805567
124
Lattice="9.90879 0.0 0.0 0.0 10.6625 0.0 0.0 0.0 12.434" Properties=species:S:1:pos:R:3 material=LiPON model=NEP89 temperature_K=900 phase="NVT production" display_name="LiPON｜NEP89｜900 K｜NVT production計算" report_figures="23_LiPON_lithium_MSD; 24_LiPON_transport_comparison; 25_LiPON_temperature_RDF" source_frame_index=1200 relative_time_ps=120.0 pbc="T T T"
Li       8.03825622       3.13854388      12.14256170
Li       7.69540141       6.96851743       8.17999414
Li       3.86543120       5.66433267       3.81953995
Li       8.62152663       0.79395603       1.60504881
Li       7.00817655       5.75252617      11.47535295
Li       5.30292009       3.34994858       7.28489969
P        3.72464915       3.48069396       1.79418831
P        0.74403509      10.39113458      12.07795876
N        1.46251460       3.98162471       5.20406507
O        0.76391108       9.55340582       2.52338044
O        3.29799710       4.86756126       2.18724108
O        7.14728918      10.43304650      10.56963716
O        3.83981793       3.15139469       0.25848069
O        0.10536557       9.03298882      11.78906008
O        1.52016739       5.88038618      11.85663948
O        2.81657045       2.41604268       2.47163080
Li       6.25027689       0.73600367       1.55563296
Li       2.80390773       5.33460080       7.95841249
Li       9.57015752       2.01747076       8.10977042
Li       2.61189012       2.52572479       6.51608434
Li       7.22351144       6.33913507       3.98607226
Li       2.75025619       6.22126194       1.16201038
P        2.27482557       3.08059796       9.04742116
P        0.48843107       2.65154116       5.29749328
O        0.47258460       0.56558746      10.81849617
O        4.26986650       8.61060081      10.04397350
O        3.63544778       3.36954245       8.43356928
O        3.12980291      10.05741582       6.43181857
O        1.47775049       2.10444526       8.16758053
O        1.25264098       1.33925568       5.38352373
O        2.22770024       7.60804410       7.19367113
O        1.55810502       4.47766045       8.96949126
Li       9.79245694      10.44843187       4.01192477
Li       8.56000753       6.70531888       1.94756804
Li       9.73811215       8.79834637       1.09106137
Li       4.03975574      10.45518298       9.78591299
Li       7.10898893       8.62564888       5.46527375
Li       7.86594491       1.89648305       6.55580476
P        2.11953130       8.89448552       2.84140048
P        0.31385186       5.40063610       0.33174339
O        1.11022206       7.47623218       9.45336471
O        5.16221999       3.42611933       2.44594274
O        3.16778308      10.04622202       2.90930982
O        6.46745133       4.24763645       0.38165848
O        2.24069295       8.22274126       4.13574966
O        0.18847540       3.78035058       0.36306772
O        0.22133016       0.67344048       0.73459846
O        2.47674441       8.07973379       1.63971035
Li       0.13915833       4.57276339       7.72549588
Li       3.87316087       9.31612430       0.27782687
Li       5.29389750       2.87038138       5.02631827
Li       8.22054805       8.92028473      11.29548216
Li       3.80864519       8.03704633       8.12159998
Li       6.45550135       1.16256162       8.74032845
P        4.93089118       7.39912683      10.79616249
P        0.87337195       7.76365956       7.95979709
O        0.35756256       6.03717678       1.71057549
O        2.29711270       2.66957031      10.59502561
O        4.74360385       7.54128052      12.28193135
O        4.87777936       6.94598641       5.00572591
O        4.14275566       6.10525588      10.22661148
O        9.66029342       6.79493812       7.33665679
O        2.43581523       4.75675860       4.89559653
O        6.41079978       7.36481880      10.41210254
Li       5.32968477       5.21149173       8.90363828
Li       0.79616840       5.56612974       3.84823965
Li       6.26689336       9.27285689       9.48820563
Li       8.74553669       0.76652020      10.10166737
Li       7.99208649       4.59954924       6.46881519
Li       2.31125988       6.32026849      10.11920553
P        8.26412499       3.31603632       4.07375622
P        6.19745550       0.59274410      11.54983129
O        4.53016107       1.49188164       6.15000423
O        7.64680488       8.24912381       1.32519367
O        2.31756280      10.32059793      12.24611268
N        9.63524187       2.51842319       3.89466249
O        5.40986135      10.46595716       0.18140116
O        7.74863432       3.38592607       2.48639585
O        7.29122346       2.33274096       4.75402994
Li       1.97480170       0.74134547       1.61507730
Li       6.22077488       8.55003418       0.28393975
Li       1.28915309      10.37859972       9.13477457
Li       3.35033612       1.28934109      11.63091848
Li       1.25113510       7.61724332      11.28062330
Li       4.69508094       9.28723531       4.07532178
P        7.67397436       3.79016243       9.22159988
P        4.55410523      10.61260848       6.61057833
O        5.17097032       1.45368960      10.76181036
O        7.71237988       8.71089527       7.62265557
O        6.94476152       3.02506024       8.01340381
O        9.39438860       2.91089513       6.43116987
N        6.38436034       4.22590495      10.04569289
O        5.18626688      10.39694735       8.18470510
O        5.38021558       4.71761742       5.74475875
O        8.57709403       4.94908885       8.66336259
Li       0.45671203       2.87209839       1.88793851
Li       3.07589943       4.43045561      11.49278527
Li       7.25944894       0.51785065       4.47291478
Li       3.31713902       7.63844780       5.46453874
Li       2.78217258       0.84128184       4.61433017
Li       1.35894157      10.00105178       6.44440653
P        7.32355858       8.97744797       2.84209517
P        6.44407023       4.36366864       1.86904377
O        7.01967483       6.57795317       6.21915919
O        8.31725125       4.73503346       4.56963389
O        8.00690079      10.31705229       2.95925183
O        9.01324700       5.92481388      11.86826471
N        5.76156071       8.93809888       2.85248684
O        6.70763425       5.71289783       2.47020271
O        7.24286489       1.30364065       0.08484260
O        7.91613653       8.03901293       3.89982985
Li       0.19662531       2.55737723      11.29391385
Li       5.19240522       3.42291552      11.37795339
Li       9.16370904       7.80967240       5.44874426
Li       4.95256686       7.69966842       1.69394455
Li       0.04740144       5.84865844      10.04884224
P        8.83439389       9.71069460       7.36822625
P        5.57155715       6.22944603       6.17647842
O        8.56461293       2.62696059       9.86590863
N        0.39685542       9.25672982       7.78424161
O        8.60135671       0.26810287       8.12807407
O        4.78089601       6.59185494       7.47834821
O        5.50186561       9.94927553       5.71281464
O        9.16243980       9.80362980       5.86093505
124
Lattice="9.90879 0.0 0.0 0.0 10.6625 0.0 0.0 0.0 12.434" Properties=species:S:1:pos:R:3 material=LiPON model=NEP89 temperature_K=900 phase="NVT production" display_name="LiPON｜NEP89｜900 K｜NVT production計算" report_figures="23_LiPON_lithium_MSD; 24_LiPON_transport_comparison; 25_LiPON_temperature_RDF" source_frame_index=1230 relative_time_ps=123.0 pbc="T T T"
Li       8.12786976       3.31609947      12.14350421
Li       1.73472647       6.39067794      10.12134570
Li       7.26257156       6.37848410       3.95063563
Li       9.85851611       9.09413966       5.14442019
Li       7.14414518       5.87039731      11.45072365
Li       5.20339098       5.16489056       9.60947283
P        3.74416409       3.29849040       1.36002417
P        1.29026923      10.51448867      11.72057976
N        1.92869969       2.68725475       4.74988019
O        3.32796391      10.27241734       2.91380943
O        3.32435737       4.69038693       1.94038529
O        7.03259437       9.95488898      10.87368751
O        3.99572709       3.28989129      12.28396859
O        0.26920235       9.21716503      11.55590396
O        1.63099132       5.78029822      11.88306186
O        2.76245925       2.22223203       1.85714560
Li       9.04648496      10.16967488       0.43376598
Li       3.12992038       2.72232516       6.58783310
Li       0.28325961       2.55909032      10.98063035
Li       5.47852605       2.68192246       4.71415154
Li       4.32297308       7.45513816       3.01640335
Li       4.66494823       5.66358813       0.52295747
P        2.49276960       3.36497712       9.00409625
P        0.44098241       2.09893042       5.19019243
O        1.58814790       0.11386895      10.30608025
O        4.49440727       9.00969757      10.01420106
O        4.01861001       3.80696387       8.95606080
O        3.00524270      10.43645753       7.52832972
O        2.38956837       1.99973672       8.19241625
O        0.11185773       0.56893995       5.22600303
O        2.15385333       7.37059356       7.19583668
O        1.74548750       4.49977704       8.26334865
Li       1.42497516      10.20582433       6.31627577
Li       8.41372398       8.26296331      11.17322142
Li       9.86919257       8.10530464       1.73112323
Li       2.51283797       7.63087348       0.85689572
Li       6.38512037       8.17235431       6.22660103
Li       7.83316763       2.27710432       6.82348331
P        2.18175238       9.36165942       3.26915829
P        0.31450127       5.63296664       0.15296818
O        0.43554574       7.25489593       8.97033097
O        5.21580354       3.05928278       2.17769527
O        1.68336074       9.05526219       4.74767192
O        6.66845295       4.72446661       0.46989277
O        0.88840276       9.91771967       2.50749421
O        0.10849130       4.11390313       0.42058411
O        0.38397486       0.96271867      12.36919945
O        2.49652458       7.94219448       2.73568998
Li       0.20403904       4.56288948       7.02093927
Li       5.13617147      10.40041219       3.96684764
Li       5.58839576       3.64619406       7.52721842
Li       6.20715351       9.46500997       9.34119190
Li       4.00967809       8.22192918       8.20139271
Li       5.13019834       1.69099879       8.71710472
P        4.59492293       7.51635310      10.62266279
P        0.65519602       7.50480881       7.45042017
O        0.27302311       6.41270496       1.54909311
O        1.94023553       3.10508636      10.39184189
O        4.31005437       7.60210531      12.15349576
O        4.31561477       6.58443812       4.78758690
O        3.58398307       6.58191625       9.85073567
O        9.66759238       6.72766446       6.51033575
O        2.59256270       3.75047592       4.74311168
O        6.16860372       7.09205482      10.61653022
Li       7.34890182       6.96894673       9.10173442
Li       1.77899039       5.39290597       2.77329064
Li       3.83212538       9.77177581      11.49242080
Li       8.07579148       0.82582171      10.09376332
Li       8.07835938       5.68460602       6.51280670
Li       3.31001235       5.89084989       8.21266035
P        8.33226040       3.54933357       4.05569554
P        6.17108227       0.46149354      11.44905208
O        4.35511244       1.15398771       5.79298224
O        7.96404677       8.99508939       1.25431444
O        2.49620898      10.25378043       0.11700197
N        9.41754854       2.35734669       3.84945070
O        5.49784392      10.55982171       0.39216678
O        7.71083445       3.45437651       2.50339047
O        7.44177984       2.97829358       5.11879316
Li       3.44062359       0.58360790       1.28920014
Li       5.90760610       8.60190480       0.61864097
Li       3.15402156       0.19158950       9.42588948
Li       3.27263334       1.78209144      11.36315548
Li       9.26927341       5.77167253       9.91132480
Li       6.19719774       1.30970151       1.53918497
P        8.01084796       3.70567511       9.23064842
P        4.36207545      10.54056402       6.78895653
O        5.01129251       1.10241517      10.48817102
O        7.84283295       8.50178434       8.59798231
O        7.16857920       2.76620575       8.24355515
O        0.01004863       2.76804386       6.57183628
N        6.95343191       4.65205223       9.95836573
O        5.46966328       0.17413403       7.80325918
O        5.05964473       4.41448646       5.67115577
O        8.57773879       4.85028981       8.52220756
Li       9.26588404       0.82780530       2.80210041
Li       2.70970210       4.46471106      11.40327563
Li       8.14233728      10.61687145       5.07438709
Li       3.11768631       7.84135320       5.55197468
Li       2.85691282       1.61282533       3.75803170
Li       0.67536779       1.75674664       8.17742767
P        7.44285756       9.10765731       2.64629786
P        6.40790580       4.31997560       1.94829013
O        6.60609801       6.44765865       5.64572178
O        8.87754191       4.99791730       4.19900427
O        7.33653718       0.02246800       3.03275310
O        9.14697055       6.32429368      11.73888816
N        5.98904651       8.32748684       2.52470211
O        6.17577581       5.55316126       2.75218909
O        7.00325748       1.59209506      11.97814734
O        8.49014907       8.31723631       3.53766046
Li       0.81008001       2.94700760       1.91659283
Li       5.56736567       3.24437246      10.94767650
Li       9.27993843       6.80597967       4.55659738
Li       4.01607749       5.00886056       3.77377793
Li       0.07762401       9.75130868       9.70474172
P        8.57876768       9.38867890       7.62762818
P        5.17517673       5.92732091       5.83981145
O        8.67257290       2.83212945      10.26976073
N        0.16370833       8.99469061       7.41979660
O        8.69544909       0.12271285       8.22494361
O        4.85477868       6.47563295       7.27048106
O        4.52671382       9.05997033       6.09289942
O        7.74379895       9.41893802       6.32649221
124
Lattice="9.90879 0.0 0.0 0.0 10.6625 0.0 0.0 0.0 12.434" Properties=species:S:1:pos:R:3 material=LiPON model=NEP89 temperature_K=900 phase="NVT production" display_name="LiPON｜NEP89｜900 K｜NVT production計算" report_figures="23_LiPON_lithium_MSD; 24_LiPON_transport_comparison; 25_LiPON_temperature_RDF" source_frame_index=1260 relative_time_ps=126.0 pbc="T T T"
Li       7.38936492       3.50104835      11.87316816
Li       1.33724883       7.72315131      10.70140541
Li       7.85068567       6.33609732       2.56096417
Li       2.08170048       9.71170118       6.29850502
Li       6.86288040       5.68676605      11.05973812
Li       4.77123603       4.98133449       8.72450311
P        3.50745870       3.08278215       1.85304353
P        0.95696776       0.32752954      12.08148258
N        0.71266764       3.81652486       5.25634627
O        1.51556322       8.28886044       2.01456339
O        2.33710478       3.66182788       2.51177263
O        6.91004990       9.96094056      11.12358877
O        3.25150725       3.08269900       0.43180304
O        0.31476995       9.40273305      12.01679739
O        1.26774789       5.48686517      11.82823893
O        3.93257827       1.79529659       2.60423482
Li       0.78266716      10.59338183       2.86021102
Li       0.41729081       4.36308103       7.20160030
Li       0.72873432       3.07927704      10.96233156
Li       7.45314316       3.75504568       5.98100309
Li       5.53368674       7.51136371       2.83760694
Li       5.09641387       7.94683478       0.40393763
P        2.81391590       3.13510027       8.64876334
P        0.14262779       2.40571224       4.69693682
O        0.05110996       1.22230849      11.22071817
O        3.57067604       8.41087127       9.43196456
O        4.28776883       3.10655629       8.33064295
O        3.70798632       0.45842385       6.28399201
O        2.06710818       1.80830351       8.50487851
O        1.40806689       1.40774322       4.63945746
O        1.83075547       8.05840884       6.91006612
O        2.27404528       4.50417915       7.96874083
Li       3.34717828      10.27671291      10.13511250
Li       8.77425970       9.60869701      10.63671424
Li       9.86396584       8.13121081       1.22313864
Li       1.89182515       6.36904530       1.06053819
Li       6.79669062       8.15051382       5.38242560
Li       7.83176217       1.15830203       6.95642394
P        2.43565859       8.41852140       3.17304514
P        9.63759532       5.54826354      12.28452752
O        0.71866068       6.55722109       8.82922888
O        4.82831743       4.09411763       2.23061944
O        3.85789337       8.97988012       2.83657482
O        5.60011485       4.47608158      12.17357411
O        1.62394320       9.17166221       4.26223824
O        9.34999165       3.95872427      12.24691653
O        0.62512169       0.98180027       1.01605547
O        2.75381432       6.94707477       3.58829038
Li       0.19011267       7.86801183       4.92002228
Li       8.01355093       8.51021677      12.23481984
Li       2.57183283       1.98900106       6.50659072
Li       6.13051871       8.87906732      10.09112392
Li       4.36657751       8.42168847       7.73660192
Li       5.35615328       2.67028694       6.54187272
P        3.93102258       7.38370615      10.48949164
P        0.56063204       7.62153337       7.69907727
O        9.70701460       6.00369809       1.32003505
O        2.48491038       3.56900031      10.18666338
O        3.09812850       7.64406178      11.70072177
O        5.39548541       6.75799384       4.88962317
O        3.67058341       5.89312982      10.04001610
O        9.74137846       6.86697500       6.55560165
O        1.68832129       4.60725036       5.27928216
O        5.40288270       7.37602640      10.87678861
Li       6.89094272       6.65067544       8.26610095
Li       0.70643953       6.10972409       3.27056602
Li       2.75547208       8.87936535       0.54085522
Li       8.19240973       1.47847672      11.60031090
Li       8.57498903       5.84633327       5.07936777
Li       2.74799492       6.29711681       7.55721971
P        7.72303994       3.36173711       3.18044280
P        5.84856557       0.19507574      12.11226281
O        6.18888729       0.77328217       6.00440519
O        8.19665835       8.74254004       1.60071613
O        2.41053121       0.16808225      11.68271175
N        9.15372785       2.56464291       3.29476092
O        5.17017168       9.87225057       0.60091110
O        7.40513374       3.75322428       1.59677177
O        6.82310770       2.16742406       3.63004813
Li       5.68935333       1.65758326       2.08708869
Li       8.76085759       1.07504110       2.05963830
Li       6.29247456       1.00753018       9.17448501
Li       3.25714502       1.89243127      11.41170358
Li       9.14387368       5.69086595       9.53145177
Li       5.21152539       3.40370368       3.94736534
P        7.62696876       3.51048794       9.06205499
P        5.12381265      10.48215313       6.60272934
O        4.87557966       0.71910730      10.99711776
O        7.46795429       8.17939800       8.93143821
O        7.19689891       2.86193027       7.70953874
O        9.23616708       1.77789698       5.85210766
N        7.05356247       2.64487022      10.24958122
O        5.31826444      10.26199814       8.22084494
O        5.24714468       4.30457613       5.65765117
O        7.16247928       4.99884741       9.24909776
Li       3.55927985       0.02444179       1.95869222
Li       3.04517250       4.82030853      11.83341841
Li       7.19346061       0.41791886       4.38701827
Li       4.09660503       7.97717536       5.00627855
Li       3.16511549       0.44956289       4.49996523
Li       1.85260229       5.35600948       9.82451323
P        8.23242982       8.91494668       3.19246057
P        6.00212735       4.73751278       1.26427718
O        7.21751667       5.69086485       6.34561236
O        7.79519862       4.55582187       4.01292706
O        8.77357434      10.38797887       3.62327127
O        8.83592356       6.38221453      11.38961937
N        6.80808551       9.33806991       3.58278184
O        6.19803650       6.30371702       1.43818103
O        6.69395656       1.22796100       0.36091282
O        8.76093043       7.65037166       3.80413823
Li       0.33177050       3.30489942       1.19931036
Li       5.25306993       2.79244795      11.16333846
Li       9.26341059      10.50879216       5.50189392
Li       3.37913625       5.36255836       4.22462287
Li       0.28717300       1.49089102       9.03266971
P        8.34997730       9.24163427       8.10465885
P        5.71909645       5.72743997       6.04668982
O        9.24130145       3.57423320       9.04550426
N        9.87533052       9.07140944       8.31274690
O        8.36147986       0.01757977       8.67521693
O        4.83559642       6.24607422       7.27852802
O        5.09916808       9.10773889       5.90763262
O        8.01901870       9.21659359       6.68850858
124
Lattice="9.90879 0.0 0.0 0.0 10.6625 0.0 0.0 0.0 12.434" Properties=species:S:1:pos:R:3 material=LiPON model=NEP89 temperature_K=900 phase="NVT production" display_name="LiPON｜NEP89｜900 K｜NVT production計算" report_figures="23_LiPON_lithium_MSD; 24_LiPON_transport_comparison; 25_LiPON_temperature_RDF" source_frame_index=1290 relative_time_ps=129.0 pbc="T T T"
Li       8.80383164       2.76148941       0.79848932
Li       2.55208156       6.81724992      10.64238589
Li       0.23885920       7.48867603       4.93671278
Li       2.98973642       7.99163699       5.83160425
Li       6.68541306       4.61273807      11.12562480
Li       5.19556405       4.83911379       9.10044090
P        3.81331396       3.71978075       2.08438013
P        0.00095608      10.53610896      11.73002660
N        0.90537923       4.56528982       5.11967865
O        2.13190509       7.76694673       1.86399605
O        3.59775835       5.02131721       2.97073898
O        5.53201728      10.50487008      10.76527969
O        3.63408336       4.19895140       0.72161175
O        0.58153242       9.14640670      12.05372423
O        1.92093277       5.84208879      12.14152220
O        2.67784226       2.68218260       2.27965341
Li       9.17923712       0.00453432       1.81936933
Li       0.53621846       4.19391047       7.18341985
Li       0.56865081       2.69276606      10.90958255
Li       7.94964026       6.11122932       4.88224380
Li       5.46618387       8.14945494       4.56993475
Li       4.58854178       8.80714591       1.60642610
P        2.85938568       3.16130706       8.76394509
P        0.86417189       2.88948613       4.83401484
O        0.87984723       0.67555426      10.69555275
O        4.26259865       7.53866623      10.03920275
O        4.34103998       3.14602675       9.13315678
O        2.78818749      10.47425044       6.47305274
O        2.22437163       1.79728535       8.39390551
O        2.38576977       2.50325811       4.66394962
O        2.23454511       7.51319171       7.55069178
O        2.95450758       3.96400934       7.35820836
Li       3.40172686       8.36922891       8.69091460
Li       6.21150891       9.09008807       9.56996043
Li       0.40571421       8.05084018       1.02340464
Li       3.14364227       4.54482409      11.35792230
Li       6.95875561       0.39883434       5.61044360
Li       8.61530758       1.94681242       6.62372564
P        1.95911731       8.90336495       2.98338460
P        0.54028292       5.18121874       0.21097423
O        0.58031577       7.33380665       9.52964635
O        5.38150676       3.48969053       2.48678058
O        3.32567418       9.80358122       2.97333280
O        6.51382168       2.91699234       0.14717614
O        0.85369479       9.82507768       2.64037242
O        0.87760684       3.66312557       0.75975024
O        8.44143294      10.43380983      11.14378809
O        1.66531407       8.44853523       4.41382613
Li       7.70118523       8.61500036       5.06713227
Li       6.94271817       9.57852964      11.97781349
Li       3.83996271       4.33790972       4.57719223
Li       6.09140766       8.57411247       6.99070519
Li       2.60775716       6.27744743       3.83392133
Li       2.46735787       1.66326761       6.48331432
P        5.16081265       6.94248651      11.19324433
P        0.74976794       7.64194034       7.98101475
O        0.15304411       6.05465690       1.42354253
O        2.09897481       3.97836121       9.85654814
O        4.92228999       7.18763571       0.27190880
O        4.21032775       6.60097202       5.30814415
O        4.91583739       5.36401655      10.98082654
O        9.49613512       7.08039936       7.14872408
O        1.19872328       5.75631445       5.20369209
O        6.57575812       7.56199519      10.91731819
Li       7.96186113       6.74197367       8.95229100
Li       3.21269210       6.27152202       1.09911468
Li       2.34587355       8.73146816       0.43038127
Li       7.04069444       1.15311733      11.21066574
Li       5.50992486       6.39760997       1.78825021
Li       3.03069236       5.70454813       7.45528930
P        8.37178412       2.89527378       3.80755994
P        4.31404023       0.10145702      11.74201551
O        4.99046509       1.36852022       7.12029570
O        8.27114451       8.51596657       1.35835239
O        9.75353249       0.81702524       0.51834794
N        9.85861083       2.43432371       3.49445894
O        3.03817257       9.87323132      11.48106948
O        7.72103343       2.64890887       2.25521967
O        7.72570024       1.97538505       4.86735692
Li       3.78584784       0.85678438       1.90650139
Li       6.36944563       0.11780595       2.18202348
Li       5.62308793       1.61938408       9.00589004
Li       1.39081276       9.59634786      10.07031171
Li       9.32824378       7.81790345      10.95072191
Li       4.81441367       3.21932192       6.92139354
P        7.86563265       3.66133934       8.81171549
P        4.41372803      10.49201485       6.91584279
O        3.90544866       1.56985452      11.76038483
O        7.72732740       8.83511918       8.35936695
O        7.58178680       3.32480170       7.27407451
O        0.58841692       2.23710815       6.25777211
N        7.14615141       2.74521485       9.81431711
O        4.67886836       9.77529220       8.23971483
O        5.62031721       4.71973520       6.01829003
O        7.46931607       5.12654720       9.10806164
Li       1.31371842       1.09124428       2.64827275
Li       2.12685497       2.44325250       0.09757600
Li       6.70714342       3.44297874       5.62488481
Li       8.16121395       6.51545362       0.50385885
Li       3.29011603       0.57477001       4.25329841
Li       0.24858919       5.02047632       9.84309772
P        7.59047536       8.32378775       2.75443335
P        6.72291970       3.69939595       1.48097829
O        6.58490194       7.06007686       5.94630506
O        8.44094729       4.38736668       4.16274568
O        7.45151994       9.79650067       3.30345950
O        9.30323767       5.32301803      11.55175456
N        6.16212456       7.86415100       2.61919765
O        7.01908320       5.15338465       1.40548506
O        5.17762626      10.35629292       0.61127642
O        8.51004632       7.36236406       3.58995827
Li       1.33691008       4.18738178       2.89165031
Li       4.91752337       3.01569187      11.87307709
Li       1.04448481       9.99336079       6.08770926
Li       8.97622639       5.33536342       2.66674311
Li       0.12819853       1.39188511       8.99938006
P        8.70618645       9.73497647       7.54131763
P        5.28472383       6.14354048       6.29935230
O        9.31494672       3.23898192       9.16957317
N        0.35943670       9.20760233       7.87128248
O        8.80017520       0.56574731       8.03390596
O        4.90663073       6.36872097       7.78735761
O        5.29015677       9.78034471       5.83584129
O        8.49017887       9.79222017       6.04871520
124
Lattice="9.90879 0.0 0.0 0.0 10.6625 0.0 0.0 0.0 12.434" Properties=species:S:1:pos:R:3 material=LiPON model=NEP89 temperature_K=900 phase="NVT production" display_name="LiPON｜NEP89｜900 K｜NVT production計算" report_figures="23_LiPON_lithium_MSD; 24_LiPON_transport_comparison; 25_LiPON_temperature_RDF" source_frame_index=1320 relative_time_ps=132.0 pbc="T T T"
Li       9.11252406       2.80575395       0.45250081
Li       2.16287033       7.13824513      10.22786254
Li       0.13631351       7.79661106       1.21422543
Li       2.18967046       6.35486724       3.16873901
Li       7.18776794       4.80583989      11.79453221
Li       5.68369133       5.35360880       8.78713026
P        3.92249271       4.18799082       1.82932629
P        9.42392146       0.04951189      11.92386855
N        1.40567377       3.87479428       5.49634910
O        1.74490731       8.25988650       1.58624393
O        3.68591023       5.68037678       2.38738733
O        5.35912430       1.56107431      11.41469631
O        3.84767415       4.45103672       0.37583533
O        0.20207950       9.41719304      12.14489828
O        1.53652044       6.13130784      11.88304359
O        2.75162790       3.32450612       2.34972871
Li       2.91022943       1.36997082       2.72215128
Li       0.53074944       3.00823769       8.20429111
Li       1.98415515       0.17106002       9.95061509
Li       6.36796981       5.96951477       3.72583006
Li       4.56253681       8.36812939       4.33630640
Li       6.43324857       9.32474687      12.11001125
P        3.00196894       2.84615187       9.27108892
P        0.91073025       2.30531140       5.11725508
O        0.33593450       0.82945120      10.75333669
O        4.40815481       6.49644365      10.12204198
O        4.41324175       2.76440317       8.78644930
O        3.21178141      10.02930655       6.05945226
O        2.24592344       1.63435288       8.63341120
O        2.26050364       1.84721400       4.62710979
O        1.93295559       7.29548352       7.57865397
O        2.30329862       4.20053986       8.66626920
Li       2.29876718       7.00786279       5.55867456
Li       4.27079749       7.36056076       8.37844302
Li       9.28147348       7.79865506      11.17604802
Li       3.13200868       4.91187818      10.94311765
Li       7.01763437       0.08377279       4.89235929
Li       8.35947453       1.23631877       6.89578304
P        2.12634847       9.07441527       2.90569025
P        0.59546589       5.36542031       0.35693891
O        2.22343541       9.13145633       9.23244285
O        5.27598191       3.45112353       2.12013451
O        3.66306647       9.21893776       2.99485764
O        6.98866985       3.28800883       0.26134168
O        1.47226959      10.45098975       2.54057426
O        0.77514995       3.75639333       0.14175181
O        7.97259607      10.36324335      11.36620712
O        1.52106453       8.37348499       4.19594537
Li       9.58357763       8.47213679       4.52075191
Li       7.50805861       0.04293711       1.23148638
Li       4.47870095       2.24351515       6.41235230
Li       7.13973343       8.40587154       5.32155579
Li       3.13305853       3.58475501       4.33443560
Li       1.39175493       9.68741821       5.62413031
P        5.06801171       7.37841209      11.22359728
P        1.19729814       8.43652148       8.43457381
O        0.69996105       5.83996561       1.89684484
O        2.88903695       2.91949611      10.76453150
O        4.02409837       7.82693468      12.30389991
O        3.97287221       6.49959498       4.98091319
O        6.36682325       6.73268515      12.02220886
O        0.07002424       7.94528412       9.33478916
O        1.44653072       5.12127199       5.38454117
O        5.61388523       8.65668041      10.44775326
Li       8.86802738       6.70445904       8.33906475
Li       2.91546717       6.14948205       0.67225630
Li       4.67294069       8.36290823       1.61075504
Li       6.95382126       1.85377563      11.69571979
Li       5.60862048       6.17050221       1.29657054
Li       2.69586807       5.03868394       6.97495049
P        8.23618656       2.99675349       3.95382135
P        4.38601073       0.54326866      12.12485132
O        5.22533128       0.79699453       6.90279094
O        8.16389207       8.74175408       1.38410149
O        9.24031857       0.86059895       0.78640598
N        9.76898666       2.34273642       3.86383314
O        3.57770888      10.32923221      11.15588897
O        7.50919278       2.52414361       2.53358960
O        7.27804226       2.39326591       4.97813461
Li       5.00453983      10.62840391       2.71360074
Li       5.36463390       1.45118919       8.75858353
Li       1.68475446       0.63214130       7.52348725
Li       2.59329962       9.14245570      12.21227778
Li       7.14417505       9.19542269       9.40413449
Li       4.09560663       9.39483520       9.67394182
P        7.74827457       3.80043551       8.92042853
P        4.69245865      10.07131312       6.65908185
O        3.37615884       1.28394961       0.57310870
O        8.75788939       7.78202997       6.41346759
O        7.24871334       4.84773041       7.87804854
O        0.49287570       1.70013669       6.52205386
N        7.60797913       2.44465214       8.28574072
O        4.61893670       9.25264230       7.94236029
O        5.16622546       4.38819833       5.18710139
O        6.48593105       4.03717888      10.00358408
Li       1.64498861       0.84833614       1.17305645
Li       2.52833602       3.04872794       0.17916040
Li       7.99800245       5.66801386       5.91533044
Li       7.67144817       6.75788068       0.86271692
Li       6.49883235       3.62395658       6.34270225
Li       0.54887547       2.91390898      10.52522950
P        7.27929264       8.60786654       2.67142495
P        6.85081083       3.76378143       1.69490885
O        6.35370044       6.74573197       5.70503693
O        8.50601577       4.46210747       4.21198799
O        6.66417876       9.99883810       2.91468223
O        9.09061782       5.83385581       0.02692107
N        6.14205698       7.63684189       2.31653514
O        7.19947252       5.18839072       2.10679785
O        5.07425707      10.29880622       0.73421527
O        7.99793713       7.70126033       3.80063754
Li       0.16511367       4.06918200       2.81083084
Li       5.20452009       3.42045865      11.65656566
Li       9.57264987       0.05026097       2.86603814
Li       9.05783941       6.31387208       2.96018181
Li       8.38656297       0.65482627       9.36366806
P        8.97183064       9.27576964       6.84235009
P        5.03159449       5.91496813       5.87568508
O        9.14119104       3.88213757       9.65484432
N        0.55212615       9.36602432       7.32986331
O        8.14534265       9.91515179       8.10770657
O        4.48117812       6.02147082       7.34394713
O        5.55863996       9.47764474       5.54535487
O        8.79615072      10.25679463       5.59049374
124
Lattice="9.90879 0.0 0.0 0.0 10.6625 0.0 0.0 0.0 12.434" Properties=species:S:1:pos:R:3 material=LiPON model=NEP89 temperature_K=900 phase="NVT production" display_name="LiPON｜NEP89｜900 K｜NVT production計算" report_figures="23_LiPON_lithium_MSD; 24_LiPON_transport_comparison; 25_LiPON_temperature_RDF" source_frame_index=1350 relative_time_ps=135.0 pbc="T T T"
Li       7.03325361       1.68927959      11.34291778
Li       0.52168822       5.47051310       9.80615624
Li       0.11215556       8.54052480       1.74670786
Li       0.46644853       6.18334855       3.46461283
Li       8.05696581       4.50466629      11.24717754
Li       5.21862967       4.86249369       9.00741596
P        3.76658739       4.05652472       1.76325871
P        0.11760089       0.00580513      11.82464371
N        1.21443437       3.56885386       5.57410967
O        0.92786258       9.71447716       2.97714577
O        4.04518563       5.08356545       2.77007677
O        5.49536112       0.83252054      10.50662904
O        3.87020286       4.71005823       0.39897198
O        0.91973511       9.35832166      12.34007354
O        1.55754728       6.20233922      12.13841907
O        2.51018265       3.21308330       1.79554739
Li       3.22091862       0.95956190       2.72206437
Li       8.93903736       4.74066863       6.47698336
Li       2.71812445       0.06523664      10.17221438
Li       5.75734314       4.30760013       3.93229583
Li       3.48475606       6.82345744       3.95727192
Li       7.01281646       9.53048613       0.22173313
P        2.54119857       3.46189043       8.87450547
P        1.18560341       2.20918193       4.57269223
O        0.81239041       0.56903472      10.60777192
O        4.10800900       7.25117614      10.32753063
O        3.12749385       3.82251128       7.50050762
O        3.13583571       0.12853855       6.92522222
O        2.85697356       1.94191280       9.15035303
O        2.58892763       2.05692637       4.03767391
O        1.71833021       6.63032614       8.70577307
O        1.05358716       3.94990814       9.12277987
Li       2.78794836       8.06519733       6.55975437
Li       4.09981971       8.98582450       9.05371945
Li       8.91859668       8.25675806      11.40153398
Li       3.11414764       5.49593789      11.43782901
Li       7.24547859      10.52147971       4.84657384
Li       6.94068211       3.08537390       6.28354558
P        2.21825593       8.89671159       3.09526524
P        0.25359722       5.45447912       0.09348554
O        2.32765643       9.07797734       9.07173552
O        4.94985716       2.96236561       1.98541617
O        2.06185064       7.90715408       1.95273960
O        6.82228187       3.21286276      12.43269194
O        3.48690196       9.66006431       2.74708184
O        0.42463263       4.03710690      11.99293043
O        8.52792179      10.39280186      11.49243177
O        2.25404426       8.22577400       4.52825804
Li       9.51354620       9.25887132       4.32338621
Li       6.70506941       0.57107515       2.23159764
Li       2.29085820       2.28154370       6.79999916
Li       5.30887829       8.83584546       4.28038961
Li       1.95886788       5.42180853       7.27443661
Li       8.71286335       1.44569486       6.75444633
P        5.40626832       7.36183605      11.27086023
P        1.15648689       8.05001102       8.72150555
O        0.11771787       5.43148642       1.61580142
O        3.42549716       4.34106822       9.89515032
O        4.90329494       7.63859544       0.28101761
O        3.53627083       6.34832633       6.05359500
O        6.24359409       6.08787378      11.10714914
O        0.14589172       8.02321410       9.91723277
O        1.31419737       4.76122619       5.61804523
O        6.20007445       8.56250119      10.88724626
Li       7.03191725       6.81540851       9.31873632
Li       2.91748314       6.88452207       0.94708294
Li       4.85171409       9.01918713       1.46789161
Li       4.84326175       1.73550351       9.01329379
Li       5.45849010       6.28572649       1.64035394
Li       3.45079951       6.10326966       9.03187682
P        8.47857600       2.57049315       3.85240476
P        4.78048019       0.62481075      11.79693916
O        5.20934859       1.63809971       6.64258788
O        7.88306561       7.88124603       1.19969577
O        0.34254355       1.02038860       0.52511563
N        0.04487497       2.44896335       3.34172147
O        3.76897718      10.10946379      11.66664957
O        7.51357327       2.46955661       2.36264958
O        8.04521605       1.47590839       4.81779798
Li       3.14932046       4.48418132       4.99578736
Li       9.48112759       1.02430337       9.32704978
Li       1.99964971      10.25725172       5.56725178
Li       2.04746002       7.96775061      11.18642691
Li       6.18301195       8.78617223       6.73014981
Li       6.64911499       9.98540360       9.73802629
P        7.62038035       3.40443134       8.88612707
P        4.77780621       0.16966791       6.89867937
O        4.02785860       1.95984065      12.01757398
O        8.03064229       8.04712469       7.78991673
O        7.85323428       4.88811067       9.17574860
O        0.90922663       1.12093708       5.64950110
N        8.23236130       2.90812578       7.49260757
O        5.54809798       9.93436391       7.97950549
O        5.46759972       4.71548969       5.91070640
O        5.97568134       3.26804617       8.89949311
Li       2.74758315       9.97183952       0.73015566
Li       1.89103340       3.07620324       0.04221721
Li       8.46276257       6.99827247       5.99663289
Li       7.43739835       6.31456402       0.47829549
Li       4.77414471       3.48855559       7.14075255
Li       0.11753767       2.73560882      10.65126077
P        7.57141543       8.21219111       2.60729933
P        6.55392674       3.46565260       1.45129925
O        5.78127842       7.24005848       5.76923746
O        7.92048109       4.03785113       4.54131112
O        7.82249621       9.76631233       2.88233822
O        9.06612308       6.28140005      11.94210513
N        6.15109581       7.86716506       3.00307771
O        6.75235228       4.96877229       1.96546415
O        5.80754083       0.39396836       0.51449960
O        8.52242793       7.35369307       3.51610129
Li       0.02663945       3.30896939       1.45617375
Li       5.09938899       3.49882014      11.34119909
Li       9.74155428       0.40646483       2.67585734
Li       8.17293465       5.50839756       2.90293583
Li       1.55984197      10.50864497       8.25249920
P        8.95713673       9.10206850       7.17664834
P        4.99096342       6.14785726       6.53891076
O        8.26064753       2.58468420      10.08626010
N        0.52503901       8.42113386       7.24476379
O        9.26888430      10.20742324       8.23697776
O        5.06508992       6.19952641       8.16028728
O        5.31994863       9.97877564       5.76089962
O        8.35348775       9.46594411       5.72740255
124
Lattice="9.90879 0.0 0.0 0.0 10.6625 0.0 0.0 0.0 12.434" Properties=species:S:1:pos:R:3 material=LiPON model=NEP89 temperature_K=900 phase="NVT production" display_name="LiPON｜NEP89｜900 K｜NVT production計算" report_figures="23_LiPON_lithium_MSD; 24_LiPON_transport_comparison; 25_LiPON_temperature_RDF" source_frame_index=1380 relative_time_ps=138.0 pbc="T T T"
Li       7.18481349       1.43305387      11.60899947
Li       0.57277922       5.88797398      10.12217882
Li       9.36985116       8.81776914       1.73745362
Li       1.37128473       3.91721156       2.61886579
Li       7.76535770       4.52953395      11.00427856
Li       5.82743508       5.04061574       9.11188334
P        3.91114484       3.80033650       1.56479088
P        9.78713647       0.80971366       0.13045534
N        0.80508398       4.26580472       5.18248195
O        0.55427377       8.88884451       3.15908711
O        3.53843109       4.89673287       2.56905177
O        6.01999170       0.42682179      10.55253095
O        4.05937473       4.48346428       0.19237844
O        9.13002985       0.43220105       1.42729039
O        1.87717022       6.10686667      12.30076821
O        2.79895871       2.72005228       1.46205657
Li       3.71597217       1.99469483       3.30527245
Li       8.73986574       4.93082006       6.08809533
Li       2.49793276       0.57514950      10.07018220
Li       7.15062876       5.63136827       4.00465439
Li       4.23627935       6.78145690       3.48292556
Li       7.30285693       9.82500249      12.37574720
P        2.82898175       3.48977364       9.26464493
P        0.88805950       2.61441010       4.98828479
O        1.33504546       0.31302309       0.21824442
O        5.03816730       7.67178380       9.36034548
O        2.67356117       3.00581642       7.82595142
O        3.96844355       0.00311641       8.13371538
O        2.04267643       2.36673123      10.12193096
O        2.35793381       2.33492657       4.51722510
O        2.30710057       8.06498164       8.98926479
O        2.20120094       4.94120227       9.20152644
Li       3.59654509       8.05594182       6.51170972
Li       3.68518699       9.40562405       9.47552437
Li       8.31903620       8.40712141      10.12024262
Li       2.61623005       1.85020173      12.17235774
Li       7.04356154      10.44104323       5.38691515
Li       5.69831714       2.63050505       7.00355462
P        2.06021744       8.79376016       3.58425738
P        0.42822291       5.96889376       0.22077882
O        1.23077045      10.30619608       8.98680234
O        5.41058507       3.36585301       2.05317028
O        2.71974380       7.74486770       2.76350761
O        6.82511904       3.42175798      12.19394513
O        2.60186068      10.19251185       3.14230546
O        9.66024091       5.10732661      11.56122597
O        9.08887991       0.03530023      11.40620790
O        2.38147071       8.57032328       5.12040887
Li       9.63313105      10.44860885       4.63981130
Li       6.60005865       0.73154414       2.78240164
Li       1.42916943       1.28114330       8.15507779
Li       4.20327564       9.92822091       4.67345388
Li       1.33775049       4.79265660       7.37791243
Li       8.59298382       1.47462818       6.38790510
P        5.95582341       7.21496280      10.67050019
P        0.93967957       8.73070898       9.03563710
O        0.44999778       5.31663398       1.80651389
O        4.35525730       3.51285109       9.64860296
O        5.08071569       7.01548757      11.93034101
O        5.11727008       6.27204400       4.93754487
O        6.79501232       5.93003926      10.26752706
O        0.13250235       8.05655861      10.08890429
O        1.47480219       5.33111208       5.43116248
O        6.76229018       8.57448114      10.99967903
Li       7.69918684       6.19041894       8.10766370
Li       2.60653311       6.48756921       1.47732566
Li       4.96464403       8.49885196       0.65794980
Li       4.72720523       1.62703533       9.04031632
Li       5.25345528       5.86793424       1.02147782
Li       3.22373431       6.64222006       8.71766808
P        8.33645641       2.75429620       3.67621532
P        4.93590984       0.41462547      11.65289349
O        6.29706677       0.43173071       7.68114103
O        7.56232947       8.91948095       1.72198753
O        9.77073790       2.29095618      12.28272339
N        9.82976725       2.26582502       3.74899933
O        3.80351131      10.23847592      11.08661744
O        7.76253909       2.67110623       2.03982853
O        7.56911757       1.65934838       4.49073163
Li       3.35158688       4.55310201       4.44464552
Li       6.40981323       9.97076149       9.18445466
Li       1.98821830       9.89196873       6.74087702
Li       3.53166466       5.62019207      11.34520908
Li       6.85510562       7.88928789       5.31990969
Li       5.92922700       8.02363916       7.72281720
P        8.36607964       3.30416293       8.55254030
P        4.95880345       0.07698837       7.00571627
O        4.42894436       1.75780411      12.05742744
O        8.52831436       6.97672049       6.46426377
O        7.14663550       3.53602749       9.55855832
O        0.50888858       1.76899241       6.19564874
N        9.49457451       4.43990740       8.84785678
O        4.90556974       9.24765735       6.39528476
O        4.60737479       4.03030794       5.91868175
O        7.68255326       3.33167616       7.10832471
Li       1.06985617       8.62950883      11.92006228
Li       3.66645758       0.06472649       1.66629053
Li       1.30682961       7.03560957       6.10744231
Li       7.66630237       6.73018405       0.05429943
Li       3.30730133       2.47086017       6.01901356
Li       0.35692155       3.19286762      10.23471823
P        6.59495794       8.57056372       2.90383799
P        6.83143035       3.66825397       1.23914618
O        5.78474754       5.85821151       7.25860357
O        8.30915222       4.25237855       4.06356096
O        6.16251231       9.86860190       3.60503766
O        9.68680589       7.36561069       0.47664729
N        5.50153414       7.59050289       2.40718745
O        7.19277930       5.14603688       1.48893972
O        5.43791737      10.38528840       0.58966735
O        7.42093519       7.39918365       3.63373683
Li       1.07663833       3.61393991      12.32446716
Li       5.12822616       3.43949908      11.33517106
Li       1.22560811       0.64969015       2.81626090
Li       8.63283237       5.81498817       2.21341053
Li       9.51001664       0.21659623       9.30390842
P        8.70777219       8.43375950       7.04484867
P        4.67380638       5.56477676       6.20593564
O        9.14297733       2.13851222       8.94789415
N        0.25332140       8.49891359       7.60866568
O        7.62213756       8.49947794       8.09769317
O        3.38959142       6.27586324       6.72339453
O        4.66590995       0.93491246       5.79633586
O        8.76847987       9.53629540       5.98087928
124
Lattice="9.90879 0.0 0.0 0.0 10.6625 0.0 0.0 0.0 12.434" Properties=species:S:1:pos:R:3 material=LiPON model=NEP89 temperature_K=900 phase="NVT production" display_name="LiPON｜NEP89｜900 K｜NVT production計算" report_figures="23_LiPON_lithium_MSD; 24_LiPON_transport_comparison; 25_LiPON_temperature_RDF" source_frame_index=1410 relative_time_ps=141.0 pbc="T T T"
Li       7.07778989       1.27741378      11.73016180
Li       0.91210297       5.36205518       9.94606699
Li       9.83986027       9.51388221       1.62305261
Li       1.88326626       3.49601686       1.78427917
Li       8.65133315       5.19102180      11.11999501
Li       5.78162362       1.96283717       9.09771980
P        4.12052111       4.25335927       1.64571229
P        0.29661043       1.39334765       0.40168858
N        0.29805798       4.18865492       5.88913346
O        1.24721613       7.21818176       3.74812282
O        3.44803203       5.13563032       2.70257092
O        3.40676110       9.79289035      11.18902090
O        3.91200923       4.55458012       0.20610596
O        8.74972123       1.26809562       0.10756416
O        2.23286693       7.18931807      12.11531864
O        3.54131511       2.79826584       1.94710766
Li       3.53181205       2.98008849       3.83857436
Li       8.85956067       6.11013695       7.76665246
Li       2.74150562       2.83196993      12.23823568
Li       5.98751061       4.74837528       4.07170426
Li       4.45892182       6.73554698       3.18457167
Li       7.64901368       0.24522431       2.02372076
P        2.83953248       3.38781896       9.06089574
P        0.76252418       2.89202707       4.94106229
O        0.88424795       0.96285588      11.44999048
O        5.48391032       7.63202833       9.62169780
O        2.05911838       2.09087034       9.08639326
O        4.86805574       0.34669446       8.45374868
O        2.54148182       4.10930967      10.44728014
O        1.63303854       3.17359600       3.74865571
O        2.35945291       7.27864392       9.16793858
O        2.26240788       4.02989815       7.77901785
Li       0.55722350       7.74118472       5.55777784
Li       3.19855884       8.44869144       6.64643523
Li       9.24049573       7.86490666       9.96308439
Li       4.98591729       3.54006058      10.96346517
Li       7.57611847      10.25348356       4.03691085
Li       6.12369538       3.17081690       6.54577721
P        1.65066188       8.70481802       3.57160551
P        0.76211294       7.00955637      12.31371813
O        1.75802682       9.29092176       7.61789145
O        5.73668209       4.30185895       2.00458424
O        2.16104312       8.83793817       2.03153282
O        6.53925619       2.15810601       1.08377188
O        0.33391526       9.57265210       3.76897641
O        0.02581312       6.46566476      10.89884669
O        0.89238034       2.84161738       0.48418043
O        2.73953742       8.96367300       4.61776836
Li       9.57496823       6.13681585       2.53958807
Li       5.51354861       0.83222262       2.14207899
Li       1.06390627       0.39322364       8.33833679
Li       4.76310808       8.96367108       4.57777846
Li       0.95497130       2.87489952       7.53081785
Li       8.71106997       0.60743109       6.79655379
P        6.40398019       6.70319222      10.48009027
P        1.32551681       8.31351693       8.64814483
O        0.68109587       5.90392564       0.99539520
O        4.34513513       3.10195125       8.85363331
O        5.42837002       5.36075283      10.76517499
O        5.30839511       6.59965672       4.83807628
O        7.58868522       6.07038145       9.77561715
O        0.72755794       9.19356984       9.84355490
O        9.54119446       5.24715501       6.09207765
O        6.76260347       7.35220594      11.82000748
Li       5.93421562       7.94825142       7.17872036
Li       3.77758101       8.77412092       1.04102358
Li       3.88057395       8.58820021       9.78405997
Li       2.55228999       0.54952524      10.35624289
Li       5.48476344       6.09889209       0.50312247
Li       4.02985874       6.59539813       8.54669538
P        7.77270333       2.50771522       4.12507308
P        4.49220718       0.16593150      11.79148129
O        6.49134476       1.05351141       6.86526991
O        7.54712410       9.20476682       1.58957317
O        0.68339936       0.46702610       1.60001795
N        9.24955609       2.12171579       4.36435241
O        4.27871456       0.08312221       0.95117364
O        8.01012679       3.49600182       2.76475555
O        6.85050547       1.21948085       3.76099690
Li       2.52366325       5.17111121       4.60716568
Li       7.35365319       9.20740551      12.04474836
Li       2.21600281       0.09495267       5.73856308
Li       3.23804000       5.60168111      11.25782720
Li       7.11395588       7.00187119       5.18217048
Li       6.30555367      10.10640779       9.51645412
P        8.29272791       2.81152814       9.19129263
P        5.04804854       0.26240029       6.90655481
O        4.33034702       1.60355526      11.38069992
O        7.55892633       7.29794401       7.03185080
O        7.22253390       2.68553726      10.25517322
O        1.19214640       1.73322014       5.89578456
N        9.44198869       3.76857793       9.79444730
O        5.02740652       9.45181888       6.51358971
O        4.08523130       4.28961537       5.39486675
O        8.08439787       3.73912349       8.04353773
Li       1.70686009       9.07970735      11.63981888
Li       2.45056240      10.56667093       1.35890170
Li       1.90227838       5.85260884       7.63779140
Li       8.34105792       7.19666994       0.63440262
Li       3.25108461       2.94633039       6.29263744
Li       0.72900497       2.81688781      10.68401881
P        6.77125559       8.19539802       2.43030643
P        7.01652309       3.56283294       1.31721581
O        5.09732870       5.86490373       7.29389952
O        7.11071421       3.53362336       5.05590340
O        6.50995893       8.63343842       3.97676351
O        9.88866557       8.26806767       0.15448126
N        5.34144439       7.72405889       1.83393513
O        7.85986175       4.30493424       0.20510772
O        5.91256605      10.24336069      11.43730992
O        7.67642629       6.91268533       2.50202825
Li       9.55174735       4.44856131       0.89470579
Li       6.44345326       4.90376678       8.49874638
Li       0.28499246       0.67364167       3.55254436
Li       2.15120769       6.23461319       2.41965732
Li       9.74677507      10.43293959      10.38354086
P        8.53096098       8.48074178       7.50275565
P        4.47579608       5.84194486       5.88102300
O        9.11072789       1.47354310       9.03450178
N        0.07455032       7.57506132       7.97676661
O        7.93387763       9.26097705       8.62035378
O        3.06916694       6.59623544       6.05517470
O        4.12293487       1.06151303       5.99494219
O        9.11384769       9.44512147       6.40851934
124
Lattice="9.90879 0.0 0.0 0.0 10.6625 0.0 0.0 0.0 12.434" Properties=species:S:1:pos:R:3 material=LiPON model=NEP89 temperature_K=900 phase="NVT production" display_name="LiPON｜NEP89｜900 K｜NVT production計算" report_figures="23_LiPON_lithium_MSD; 24_LiPON_transport_comparison; 25_LiPON_temperature_RDF" source_frame_index=1440 relative_time_ps=144.0 pbc="T T T"
Li       9.26720746       4.41775589      12.40282384
Li       6.55788713       7.03306477       8.43192450
Li       8.40372642       8.24306603      10.50259526
Li       2.85643662       0.04787153       0.87192890
Li       7.47814083       5.61627677      10.55428666
Li       7.51593626       1.68923567      12.09326583
P        3.96527979       4.04440392       2.15190240
P        0.38497995       1.33479530      12.38092107
N        0.94629337       3.62519297       5.71243148
O        1.34185268       7.89800502       3.93873941
O        2.92666886       5.21582448       2.64443333
O        3.73514080       9.89848005      11.28533139
O        3.80703838       4.02490308       0.64524842
O        8.95345313       0.92854605       0.61830275
O        2.12725484       6.33860099      11.77169450
O        3.86479789       2.56184997       2.66071267
Li       1.17572165       9.67306248       5.50193900
Li       7.18492080       4.87356339       7.26484946
Li       2.95547776       3.23845828      11.28961347
Li       4.91139046       2.53785229       4.42234979
Li       6.99061184       8.36263025       5.61523255
Li       6.32278342       0.96459633       2.14644152
P        2.19993340       3.66020058       8.62516413
P        0.58001379       2.03192755       5.32116034
O        0.75662152       0.63027044      11.02432359
O        5.54597712       7.79682175       9.42053885
O        2.81676348       3.06615312       7.37537075
O        4.47395534       0.18504178       8.26953075
O        1.63713049       2.68359869       9.56516133
O        1.19786472       1.71548052       4.00476605
O        2.84004994       7.86425729       8.90575159
O        1.04003455       4.87606087       8.40149931
Li       9.69902662       7.62885479       4.91327320
Li       3.54091594       8.61626743       5.44384088
Li       9.54640793       5.81287950       8.88057889
Li       3.71676631       5.40644146      11.84867694
Li       7.57043203       0.21710637       5.26189513
Li       4.87817147       3.12666614       6.98928962
P        2.34323995       8.72551048       3.04653760
P        0.52717344       6.70927143      11.92842349
O        1.98407489       8.76881298       6.66314532
O        5.55906251       4.63245556       2.27614363
O        1.69730307       9.38033906       1.79863790
O        6.77211106       2.48866740       1.17716568
O        2.93670886       9.82832425       4.07007997
O        9.63341713       5.77101916      10.90076793
O        0.34451775       2.80919507      12.33315039
O        3.62708561       7.92988673       2.55636171
Li       9.24095152       5.85681345       2.48771992
Li       4.62188497       2.20405133       0.61441727
Li       4.15452642       1.76695582       9.10415042
Li       7.17719923       5.57120206       4.11079438
Li       9.25934997       4.16294440       6.62414431
Li       8.67575393       0.96188921       7.31171811
P        5.75741946       7.14538350      10.88685896
P        1.77595835       8.72650537       8.14188149
O        0.13347366       6.27917539       0.92583768
O        3.35466300       4.23957965       9.60971319
O        5.54712714       5.62579313      11.03148445
O        5.81036077       6.42399123       5.27730546
O        7.14657566       7.47028640      11.31754334
O        1.54296985      10.08740202       8.77883218
O        1.05158879       4.73390928       5.01926844
O        4.88996157       7.83876305      11.96783303
Li       4.18379072       7.77523263       7.44446523
Li       4.78745777       0.07625845       4.24944187
Li       4.18519319       9.35704344       9.56795904
Li       1.57983942       9.75462859      10.76860819
Li       5.07049000       9.10550585       1.21350156
Li       1.22826494       5.97531464       6.56822618
P        7.66879210       2.67068022       4.64723250
P        4.87683157       0.24916311      11.65483211
O        6.66576620       0.15042125       7.19150176
O        6.62246247       8.25111122       1.88736120
O        1.54546769       1.05349290       0.98081273
N        8.97186775       1.96322600       5.15469940
O        5.03960653       0.27464992       0.69577981
O        7.86787232       3.66094436       3.37078253
O        6.66521479       1.68515325       4.19136803
Li       2.30541479       1.35844904       2.75660118
Li       7.70909889       9.81804400       0.04824174
Li       2.08122869       0.59704340       7.55385915
Li       2.76229237       6.07917514       9.82620865
Li       5.48718811       6.85931664       3.20303264
Li       6.98016325      10.41299285       9.10859499
P        7.70714761       2.92467971       9.32426036
P        5.15343187      10.64585000       6.91892626
O        4.27414154       1.78426227      11.15954352
O        8.27691083       6.57260232       7.33983724
O        8.49217596       3.90496560       8.39855415
O        0.53967028       1.08298276       6.50612188
N        6.18350759       2.77665443       9.05940814
O        5.15685949       9.09646426       6.54035532
O        4.56765703       4.30832471       5.53857332
O        7.66613567       3.45287244      10.89877119
Li       3.04133756       8.00397642      11.74918504
Li       0.12388900       8.49299023       1.38133950
Li       2.34383210       6.23568356       4.42971238
Li       6.81039981       6.61053961       0.81040186
Li       2.78476842       3.85360957       5.40804590
Li       0.47527183       4.02752787      10.40617099
P        7.59391886       8.62661263       3.11113126
P        6.97113521       3.90900157       1.84113973
O        5.31656862       5.76713635       7.48948837
O        7.18265634       3.63345412       5.75718065
O        8.70725907       9.47692495       2.71947842
O        0.24141105       8.29445260      11.74111843
N        6.69081403       9.45013391       4.13812701
O        7.79094849       5.02720680       1.25860722
O        6.31340142      10.54772068      10.91667168
O        8.14871947       7.34604137       3.71401400
Li       1.63170891       3.58015896       1.52687356
Li       5.06999597       3.52652839      10.49643961
Li       0.00017674       0.19318404       2.27958352
Li       2.37135342       6.56419851       1.57523387
Li       0.42452455       1.14456109       9.26398796
P        8.93023958       8.10021249       7.51311860
P        4.73245002       5.78318666       6.08910309
O        8.45326017       1.48353072       9.09596466
N        0.38916204       7.66617469       8.16784654
O        8.13256543       8.80483592       8.71173477
O        3.47602051       6.75197686       5.92098340
O        4.38233447       0.83349097       5.75908129
O        9.13813551       8.93978393       6.25004440
124
Lattice="9.90879 0.0 0.0 0.0 10.6625 0.0 0.0 0.0 12.434" Properties=species:S:1:pos:R:3 material=LiPON model=NEP89 temperature_K=900 phase="NVT production" display_name="LiPON｜NEP89｜900 K｜NVT production計算" report_figures="23_LiPON_lithium_MSD; 24_LiPON_transport_comparison; 25_LiPON_temperature_RDF" source_frame_index=1470 relative_time_ps=147.0 pbc="T T T"
Li       8.42927641       2.85185875       0.71197670
Li       7.32533762       6.58026750       8.00800844
Li       7.43181345       9.42235000      12.36769330
Li       2.79941701       0.79473405       1.11615415
Li       6.86068916       5.11000328      10.91456881
Li       6.84142333       1.83538841      11.54364967
P        3.48657657       3.24673418       2.35804754
P        0.11603709       0.60407512      12.41075955
N        1.47247218       2.40724743       5.71155233
O        1.75469230       7.81148186       3.40672082
O        2.39485640       4.03067884       3.06454663
O        3.82733534       9.75700013      11.14221656
O        2.95166004       2.77421021       1.03586591
O        9.24881499       9.99908755      11.99809691
O        1.27242079       6.61349169      11.82276805
O        4.17740091       2.00433806       3.09254157
Li       2.89095239       1.11714492       8.54655994
Li       8.55249799       5.00837299       6.76557198
Li       2.03758760       1.79449851      11.06823243
Li       5.24702359       2.96103461       4.37307056
Li       6.95453903       8.39354391       6.05754655
Li       5.76192519       1.45371647       1.68676506
P        2.46909783       4.07855260       9.57707882
P        0.16736838       2.00056139       4.89003796
O        1.57998793       0.49647708      12.11770957
O        5.93160993       8.73886935       8.94672917
O        3.95462696       4.07479776       9.21877527
O        4.73025226       0.52447039       8.14255201
O        1.78496413       2.89757089       9.02870588
O        0.71964522       0.79456837       4.01603721
O        2.67040967       8.94632793       8.19111904
O        1.85562656       5.39200194       8.90020967
Li       2.66420537       8.78167337       6.16308274
Li       4.60439070       8.35128631       7.52876943
Li       9.21113680       7.55651240      10.08633766
Li       4.06247250       6.54865431      12.27580967
Li       7.51957228       0.41879357       5.08356631
Li       7.05061858       3.06322331       5.95886508
P        2.68953964       8.38083648       2.34960320
P        9.86391489       5.91687782      12.19155635
O        0.87501864       0.22205486       8.61720234
O        4.78023718       4.30322518       2.43027948
O        1.78461600       9.07389615       1.34287842
O        6.34545205       2.88787463       0.48138883
O        3.65394117       9.41381626       2.99889414
O        8.95664883       5.75917225      10.93956083
O        9.40565002       1.74862527      11.60151421
O        3.62774964       7.39968825       1.58388095
Li       2.57771160       6.64993744       4.75765065
Li       4.42349673       2.60728934      12.22166917
Li       5.22511019       2.28638313       9.27117831
Li       8.06990407       6.68948797       4.75862214
Li       0.76332089       2.41312997       7.65502081
Li       8.86686380       0.49156002       7.57986410
P        6.05850756       7.66376284      10.14189842
P        1.23716406       9.44470655       8.73780021
O        0.20838219       4.54623129       0.46519283
O        2.43525392       4.18668034      11.06604581
O        6.54205349       6.28518473       9.77324125
O        4.34461043       7.03248888       5.08823398
O        7.18888522       8.10224949      11.14960765
O        1.13105904       8.88049318      10.12631902
O        2.48039995       1.84748724       6.33621063
O        4.73305678       7.38862179      10.95713363
Li       2.35530631       7.47081840      10.44856127
Li       5.05539302       8.81199732       4.42015144
Li       4.28006977       9.65774716       9.33631306
Li       0.01473543       8.59469494       0.70853395
Li       4.96676104       0.47566535       3.53316851
Li       2.41913922       6.41981202       7.65441630
P        8.12005133       3.68246624       3.79832129
P        4.63942073       0.33434504      11.41636955
O        6.67673774      10.33622709       6.75946976
O        6.68319025       8.55831446       1.54347597
O        9.61570844       1.10860428       1.41292834
N        9.62029078       3.17855089       3.84905460
O        4.53482749       0.72383391       0.50142751
O        7.61503456       4.21068338       2.24050532
O        7.05553052       2.43312186       4.10076175
Li       2.67595637       1.63267008       4.35852682
Li       8.96168328       0.42429849       2.75111737
Li       1.92203707       9.43324658      11.77098905
Li       0.11670290       5.17409302       9.26710998
Li       4.67373561       6.64118858       2.70678848
Li       6.62052438      10.28538144       8.93702928
P        7.68836275       2.97504123       8.79586499
P        5.21466863       0.27457149       6.69272760
O        4.24847538       1.61221762      10.55433648
O        9.28131500       6.56647615       7.94051679
O        8.90522982       3.57572953       7.98883154
O        9.11340010       1.40369090       6.01176120
N        6.35414769       3.08315621       7.92391719
O        4.31185452       9.68177575       6.11663943
O        4.85178268       4.57194889       5.73542737
O        7.29743848       3.44618830      10.16613782
Li       4.79630791       9.13951065       0.63618064
Li       9.35910502       7.22880015       2.37996361
Li       0.87234443       4.42489542       4.69159767
Li       7.38654764       7.17319499       0.28171742
Li       4.65453221       3.49503626       7.17586779
Li       9.71201230       3.70541711      11.10747963
P        7.14452584       9.12403506       2.87496189
P        6.25076822       4.15342161       1.37138528
O        6.65953423       6.49515168       6.29702399
O        7.90379441       4.73411694       4.85800488
O        8.80043135       9.15098885       2.67947517
O        9.13214043       6.92509536       0.64587138
N        6.81611919      10.55767337       3.28570061
O        6.28830438       5.43624694       0.52394965
O        6.12256409       0.06292787      11.21072230
O        6.67254244       8.17394852       3.93217109
Li       0.70258736       3.13583821       1.60298648
Li       5.22413443       5.33934950       8.88775405
Li       0.53901673       9.55850519       4.02267228
Li       1.95316068       5.69972373       1.23170262
Li       9.59238432       1.19509989       9.68716667
P        9.88345655       7.62933114       6.96091083
P        5.16828480       6.10353013       6.10619379
O        7.91507445       1.47843167       9.02140670
N        0.08305989       9.00734733       7.71278119
O        8.78592569       7.85116886       5.95630628
O        4.50925753       6.31000684       7.54363687
O        5.14012201       1.47863276       5.86037737
O        1.27880506       7.21955528       6.34016074
124
Lattice="9.90879 0.0 0.0 0.0 10.6625 0.0 0.0 0.0 12.434" Properties=species:S:1:pos:R:3 material=LiPON model=NEP89 temperature_K=900 phase="NVT production" display_name="LiPON｜NEP89｜900 K｜NVT production計算" report_figures="23_LiPON_lithium_MSD; 24_LiPON_transport_comparison; 25_LiPON_temperature_RDF" source_frame_index=1500 relative_time_ps=150.0 pbc="T T T"
Li       0.06355082       4.25326100       1.00032280
Li       5.48737701       5.10167319       8.55527891
Li       7.24540088       0.76192591       0.92962892
Li       2.78242788       1.02317687       1.42597431
Li       4.17311226       3.32845732      12.23683981
Li       7.93878820       3.27063560      11.71622168
P        3.33627618       3.51394263       2.55768255
P        0.21712811       1.30379957      12.10620998
N        1.03962630       2.30485725       6.03422674
O        1.59497519       8.09458004       3.77277838
O        2.78094975       4.62070285       3.56263023
O        4.08192135       1.16623135      10.36571217
O        2.91409610       3.76454419       1.13112744
O        8.99369736       0.25214187      12.03321123
O        1.72699460       6.77672589      11.60131168
O        2.99381791       2.14667833       3.02795626
Li       3.71290045       9.95253679       9.20507614
Li       7.92179701       4.88699214       5.66632997
Li       2.50772735       1.24803946       9.79475993
Li       4.70162352       2.52691022       4.84842731
Li       6.99637934       7.41514199       7.86257453
Li       4.71887896       1.37242682       2.55621614
P        2.65127647       4.16209014       9.39597332
P        0.16822460       1.17783399       5.20119681
O        1.25840890       1.07221823       0.83761734
O        4.50723520       8.30125496       9.44906353
O        3.05232982       2.86352456       8.68643534
O        4.84336460       0.12408916       8.01983982
O        2.44261513       3.83644373      10.87845003
O        1.31368538       0.30098537       4.72404090
O        1.85354543       7.85366729       9.00780658
O        1.29309887       4.82386807       8.83529620
Li       2.33668132       8.35764181       5.86813678
Li       4.05879941       7.86032853       7.67173360
Li       0.04744818       0.86185071       9.24137856
Li       2.22494232       5.76958491       0.74798755
Li       7.86333050       8.82992387       5.34747205
Li       6.32991352       3.57866241       6.72719074
P        2.58904992       8.44069376       2.66656770
P        0.20913486       6.91066260      11.94640673
O        1.87158263      10.32069711       8.26165080
O        5.05992144       3.48487869       2.64937864
O        2.00995929       9.41041600       1.50039805
O        5.92709089       4.15505982       0.12163169
O        3.86321481       9.21459387       3.18076559
O        9.14957802       6.46215188      10.71956865
O        1.01023721       1.43199438      10.74951348
O        3.05072342       7.34433876       1.71575992
Li       2.22720012       5.93161658       4.82080081
Li       1.85794302       2.79030202      12.28466573
Li       5.28701067       1.65773968       9.07307054
Li       6.87530401       6.38904426       3.98883696
Li       0.24770744       3.80099980       6.82006895
Li       8.08338482      10.45069055       7.54847429
P        5.59491955       7.76782936      10.33128236
P        0.99428635       9.03494190       8.35237799
O        0.14011404       6.11589567       0.87353067
O        3.80309875       5.19899735       9.18894269
O        6.56260104       6.66330333       9.66844901
O        5.01351772       6.46207431       4.65821483
O        6.72941128       8.77700300      10.55566966
O        9.65632819       9.47425962       9.09937783
O        1.93711241       3.14001545       6.27294622
O        4.89605412       7.10492580      11.50058290
Li       8.69866907       8.55288963      10.13615257
Li       5.11051237       8.26002449       4.89894293
Li       0.26953649       6.22183350       9.36588150
Li       9.80606355       9.74925833       1.03563534
Li       7.43055437       1.06951162       5.18598916
Li       3.15112085       6.83171755      10.43250808
P        8.59736541       3.14535644       3.41605394
P        4.63114369       0.63967854      11.73778262
O        6.35544864       9.46587061       6.52149193
O        7.52901502       8.30692674       1.10500673
O        9.58716402       2.72794953      12.32132680
N        9.65168347       1.89486008       3.57979885
O        4.03930880       9.88035429      12.01746412
O        7.65239627       3.16893093       2.04677493
O        7.45926612       3.31898755       4.45798378
Li       3.01859593      10.61897059       4.31045429
Li       1.16283640       0.45644681       2.83344330
Li       3.06842014       8.14496447       0.19726081
Li       8.07074224       5.40162848       9.57301174
Li       5.14721978       7.42668093       2.49069930
Li       6.77740740      10.38080649       9.91042265
P        7.92650682       3.03636189       8.60823248
P        5.15231167      10.26952928       6.58742890
O        4.47329865       1.44783452       0.61812739
O        8.97072714       6.56818755       7.84173752
O        8.38696357       1.59799756       8.38960185
O        8.89763054       0.36420983       5.65693495
N        6.36442047       3.23073103       8.63515342
O        3.81997223       9.57613537       5.96649369
O        4.77867080       4.12310001       5.72614405
O        8.25942030       3.74554763       7.24297386
Li       5.37359985       8.79281583       0.44228688
Li       9.66871638       6.58154164       3.32858013
Li       2.29637728       6.25593490       7.97809801
Li       8.01083914       9.39800631      11.98485503
Li       3.66959743       3.61604375       7.03910001
Li       0.43079837       3.39694835      10.67059756
P        7.57889054       9.05182839       2.42070045
P        6.27234298       4.31582005       1.61217396
O        6.14227734       5.91004883       6.76255896
O        9.57234934       4.30650529       3.41094794
O        9.05472864       9.50097201       2.80432735
O        9.76828254       8.47096393      11.94458563
N        6.32264398      10.15256513       2.36475228
O        6.18966648       5.67238848       2.27936321
O        6.30249322       0.64169908      11.51010185
O        6.87263400       8.40282702       3.50348454
Li       1.12396967       3.20064854       3.62734560
Li       7.32653656       6.58027596      11.70024506
Li       0.41557461       9.17594271       4.44435356
Li       4.59482649       5.56769909       3.20645731
Li       2.46409183       0.49850470       6.61370775
P        9.73076664       7.02760607       6.55815716
P        4.85629882       5.67526805       5.94679313
O        8.50516544       3.57721897       9.89960304
N        0.50292074       8.44837119       6.94295600
O        8.76600539       7.11592816       5.40631606
O        3.62688636       6.33397540       6.67650646
O        5.46679775       0.85879842       5.65794280
O        0.97989474       5.99618891       6.37210594
124
Lattice="9.90879 0.0 0.0 0.0 10.6625 0.0 0.0 0.0 12.434" Properties=species:S:1:pos:R:3 material=LiPON model=NEP89 temperature_K=900 phase="NVT production" display_name="LiPON｜NEP89｜900 K｜NVT production計算" report_figures="23_LiPON_lithium_MSD; 24_LiPON_transport_comparison; 25_LiPON_temperature_RDF" source_frame_index=1529 relative_time_ps=152.9 pbc="T T T"
Li       4.52159707       2.39122537       1.53395791
Li       5.41515904       5.18123156       8.48589561
Li       4.73603033       9.98874527       2.00701691
Li       2.45655157       0.26140293       0.76021824
Li       7.66692936       5.37855255      11.03867139
Li       7.39162166       0.89172494       1.31248185
P        3.55963025       4.13588406       2.93278619
P        0.16802100       0.62368581      12.03241420
N        1.12182170       2.11356211       5.77513554
O        2.50307633       8.57704474       4.20877213
O        2.80630664       5.41665843       3.27841491
O        3.56914249       1.33337983      12.13185504
O        2.73589125       3.09624318       2.03037975
O        0.68614747       9.86494936      11.97938754
O        1.67544440       6.73091041      11.81606799
O        4.21328373       3.20895840       4.00357322
Li       3.50153349       9.78544395       9.17634846
Li       7.14433682       4.71156174       6.57101987
Li       2.80603829       1.84329337      10.16107716
Li       7.37309844       2.25680247       6.47584332
Li       7.96901134       6.95520585       7.93207162
Li       5.07149051       7.83321824       0.59846462
P        2.48362583       4.22597527       9.44295046
P        9.77728475       1.37823836       4.86579097
O        0.45465920       1.25102206       0.97664004
O        7.19147013       8.65633215      10.56536918
O        2.95293954       3.09550142       8.50234748
O        4.08663611       0.30773904       7.87318702
O        2.95265981       3.97517400      10.97536353
O        0.51712428       0.21542505       4.15150725
O        1.85017325       8.39847401       9.12430343
O        1.07773964       4.53946843       9.25019913
Li       3.45499194       1.66510357       4.67607855
Li       2.39420857       9.39769067       5.89943618
Li       7.51439002       0.46150866      10.22502507
Li       2.17861863       3.54042463       0.32475659
Li       7.51060224       8.93335465       5.99973380
Li       9.08357679       0.49269902       7.40057219
P        2.55450242       8.95461765       2.68628775
P        0.34112277       6.04663934      12.25909158
O        1.08123789      10.60509943       8.06675248
O        4.83020680       4.61744965       1.94119379
O        1.06460894       8.85533964       2.31208472
O        5.99017726       2.72599263       0.49289425
O        3.10133034      10.38023816       2.41280919
O        9.33873788       6.05941785      10.97402585
O        0.74770039       1.56779294      10.95627210
O        3.41323789       7.86611443       1.84585855
Li       0.52033843       3.10530103       1.89511306
Li       5.12059617       2.80265562      11.24718243
Li       4.60627517       2.43796933       8.44208161
Li       8.49047176       6.23053107       4.51697236
Li       9.88675670       3.90883542       7.20236906
Li       5.83396993       8.43582538       7.07530223
P        6.05130824       7.72095842      10.11761779
P        0.78253239       9.09044666       8.18539545
O        0.53036552       4.48552298       0.06353724
O        3.29170007       5.49114907       9.00428977
O        6.51810375       6.36040670       9.48385484
O        5.68483533       5.90465221       4.28129673
O        5.13819047       7.28883860      11.41375103
O        9.30196638       8.87365814       8.69669640
O        1.88639028       3.12122209       5.41783782
O        5.16206767       8.39408831       8.94282608
Li       9.02980242       8.19237662      10.49478684
Li       4.50822667       8.91815542       4.47578587
Li       1.49481735       6.73869077       9.78906848
Li       9.86139669       8.80035624       0.91515370
Li       7.02381402       0.41059478       4.72562025
Li       3.42764564       6.10332875      11.11171762
P        8.31225041       3.67356498       3.74704854
P        4.41095342       0.11501577      11.62291421
O        6.17882840      10.19672983       6.57117535
O        6.24148199       7.99815566       2.13999186
O        8.51822062       0.71391830      11.77539887
N        9.41139497       2.54473529       3.77694233
O        3.55184428       9.60071143      11.07435205
O        7.45853674       3.68841939       2.31382035
O        7.12667802       3.35535733       4.89801700
Li       5.42781284       3.37345542       5.41919656
Li       0.02766564       0.16467227       2.45057687
Li       2.12064894       8.83214918      11.53938695
Li       9.17656968       5.40835807       9.00728175
Li       4.78214694       6.50952055       2.70873549
Li       5.73158339      10.60596705       8.66364870
P        7.45716514       3.07532389       9.07975001
P        4.86811064       0.44565879       6.49971613
O        5.30331218      10.21996461       0.26829949
O        9.63281615       6.23611275       7.38257851
O        7.43311016       1.64323348       8.64758297
O        8.46249741       0.88725604       5.63681016
N        5.87047539       3.53971020       9.28922769
O        3.92381430       0.11045566       5.31131858
O        5.28630891       5.35443887       6.64238169
O        8.18312031       3.96293988       8.04215817
Li       1.89947002       6.21744504       1.50496281
Li       7.64846438       2.78907041      12.13662833
Li       3.33992578       7.44168981       8.13735982
Li       6.76644695       9.50141953      12.17182571
Li       3.41930088       4.75283265       6.84773291
Li       0.23183998       3.51975537      10.62082323
P        7.27981255       9.00193885       2.69905408
P        6.24440511       4.03322368       1.31564110
O        7.06597700       7.17324774       6.03527064
O        9.18835642       4.88782370       3.73681102
O        8.16607560       9.79375020       1.70386994
O        9.52835534       6.79146360       1.05785874
N        6.39568820      10.21554192       3.16871450
O        6.66437648       5.27343749       0.44328745
O        5.39091347       0.77490538      10.48226423
O        7.95228059       8.41466565       3.89996253
Li       0.87120067       6.02936991       3.90012152
Li       7.29340428       6.44941720       1.41385462
Li       0.19488801       8.56978647       4.05646770
Li       2.86607696       6.60711558       4.86969143
Li       2.40264113       1.14173688       7.38610634
P        0.68413750       7.00137171       6.49603900
P        5.66099267       6.49414361       5.65653674
O        8.12420803       3.27409793      10.45356291
N        0.94404502       8.52959728       6.76436908
O        0.11499880       7.00947011       5.06689768
O        4.52910970       7.60830854       5.86910554
O        5.50484237       1.92059344       6.61996133
O        2.12888248       6.25925922       6.55265057
124
Lattice="9.90879 0.0 0.0 0.0 10.6625 0.0 0.0 0.0 12.434" Properties=species:S:1:pos:R:3 material=LiPON model=NEP89 temperature_K=900 phase="NVT production" display_name="LiPON｜NEP89｜900 K｜NVT production計算" report_figures="23_LiPON_lithium_MSD; 24_LiPON_transport_comparison; 25_LiPON_temperature_RDF" source_frame_index=1559 relative_time_ps=155.9 pbc="T T T"
Li       2.08354095       0.84165274       1.01689403
Li       5.41024600       4.23816828       8.28495324
Li       5.79896048       2.05917702      11.34807115
Li       3.19782878       7.01506144      10.74400597
Li       5.35587501       5.28500958      11.31041574
Li       8.43852312       1.22797205       2.08167622
P        3.31228964       3.82348633       2.96133311
P        9.46096693       0.71503168      11.82355551
N        0.72556487       2.82807674       5.72696438
O        2.49012908       8.38097315       3.73637522
O        2.48663030       5.15627197       2.98075550
O        3.39512462       1.11975544      12.15206910
O        2.72766719       2.91074089       1.85570055
O        9.40797941       9.83865291      11.88910576
O        1.74437866       6.66160959      11.80340056
O        3.55859845       3.09355407       4.26239470
Li       5.94969410       8.47171845       7.31853942
Li       7.33205872       6.98362516       4.60289979
Li       2.16545197       8.49363877       0.04862184
Li       6.11314661       3.52913585       6.45981264
Li       7.89240536       7.12928361       7.71582468
Li       5.21046898       8.61519437      12.41844534
P        2.85744371       4.50119411       9.71982388
P        0.05847064       1.62594701       4.80122413
O        0.16142459       1.16461950       0.76832054
O        7.13042024       8.88512503      10.33267652
O        3.29598558       3.26369370       8.83643960
O        3.30862991      10.63793401       6.10819334
O        3.37608981       4.20490063      11.11297215
O        1.04722881       0.69211599       4.15804939
O        1.82056965       8.29697471       9.37221273
O        1.31224862       4.59768669       9.57855600
Li       3.23657972       0.50813348       3.96308197
Li       2.39737359       9.06254001       5.79457281
Li       7.34682528      10.28916578      12.21874574
Li       2.23012403       1.67289386      10.40221369
Li       9.80723678       0.65428040       9.06501630
Li       8.93387631       8.50680363      10.69135438
P        3.12227945       8.98372443       2.38711755
P        0.47836732       5.92726704      12.35061129
O        1.38763410      10.49692070       8.20748547
O        4.70592058       4.44876809       2.37897877
O        1.98798224       9.77721435       1.59382877
O        5.32345880       3.19370588       0.38083927
O        4.28549649      10.08887136       2.68199762
O        9.22059673       6.43217297      11.42359742
O        0.40695908       1.31012137      10.77300863
O        3.83480275       7.94888057       1.48071078
Li       0.59692183       5.63947178       3.20139683
Li       3.52076803       2.94442186       0.02623373
Li       4.59890869       1.88996353       8.77910157
Li       7.55768251      10.45106292       4.95443754
Li       9.75792278       4.44075500       7.26843771
Li       4.97003517       9.42143887       4.16050627
P        6.17833293       7.71522708      10.02921853
P        0.81599949       9.04895166       8.45472730
O        0.60798551       4.43640433       0.06797723
O        3.62498137       5.85242571       9.28083855
O        6.97824700       6.61392985       9.30743735
O        5.48751367       6.24752969       4.48650157
O        5.49917616       7.11205367      11.22435305
O        9.38898415       9.07828819       9.07313828
O        1.69193159       3.08014476       6.52571582
O        5.13698962       8.15879945       9.00979074
Li       7.56766964       6.58773514      12.26506811
Li       5.25294239       0.75129778       1.69882405
Li       1.10294135       6.72317009       9.63152663
Li       0.25312220       7.75535524       3.85622828
Li       8.02175881       1.58792203       7.11622573
Li       3.65945018       9.29569421       9.33833528
P        8.30460426       3.67714317       3.65924402
P        4.21949062       0.26306769      11.25719729
O        5.60862658      10.41958811       7.40588861
O        7.02884128       7.88035837       1.12203081
O        7.97728981       1.27414280      11.97916324
N        9.36980848       2.51372769       3.58142015
O        3.71003539       9.41562186      11.28351624
O        7.10813790       3.22803697       2.28438107
O        7.46051935       3.65136106       4.88751734
Li       5.63582493       4.28777197       4.22616278
Li       0.81689971       9.87008502       3.25253443
Li       3.08143935       6.10426127       0.44173089
Li       8.61718667       5.45873159       9.45964989
Li       5.50005216       7.44547773       2.64254507
Li       6.70584084      10.34200531       8.83283197
P        7.74640390       2.99223117       9.20767766
P        4.77686064       0.48162455       6.31858422
O        5.66292361       0.24191385      11.56142467
O        0.10983914       6.41379459       7.85230724
O        7.99373500       1.38522630       9.00078288
O        9.04439304       0.92163342       5.76178571
N        6.19203518       3.16720509       9.74320327
O        5.73879765       0.40972667       5.01858147
O        4.83614753       4.74283103       6.51935542
O        7.53201111       3.74373158       7.90220904
Li       0.82368832       3.41904327       1.43750794
Li       8.10623063       3.55419575      12.10647548
Li       3.39145050       7.23801580       8.16735042
Li       9.87227127       8.55815271       0.73302066
Li       3.62591097       3.38602242       6.50619580
Li       0.28619399       3.42518773      10.83831965
P        7.52626824       8.92248728       2.26545224
P        6.04700119       3.92814267       1.48188235
O        6.30693491       6.93522174       6.64016640
O        8.84306884       5.00144219       3.28344347
O        9.01878025       8.84142901       2.52343209
O        0.24114431       6.61648754       1.25391606
N        7.28331899      10.33362761       1.66537867
O        6.73344037       5.08275744       0.81680531
O        3.94940560       0.74763897       9.80606223
O        6.63348594       8.66211693       3.52627977
Li       2.01053543       4.57173935       5.24363700
Li       8.28119085       6.07197448       1.85903582
Li       9.62796163       9.80208918       6.37209259
Li       2.93653004       6.50160577       4.20666448
Li       2.54019851       1.20123424       7.31160698
P        0.30703581       7.14772623       6.45549399
P        5.05443664       6.22817285       5.96955255
O        8.59854634       3.63472387      10.20754390
N        1.08671072       8.46898288       6.96289329
O        8.98515686       7.90858310       5.85605473
O        3.78190642       7.01494442       6.16797601
O        4.74931713       2.07253298       6.78535621
O        1.08974480       6.46011068       5.21022185
124
Lattice="9.90879 0.0 0.0 0.0 10.6625 0.0 0.0 0.0 12.434" Properties=species:S:1:pos:R:3 material=LiPON model=NEP89 temperature_K=900 phase="NVT production" display_name="LiPON｜NEP89｜900 K｜NVT production計算" report_figures="23_LiPON_lithium_MSD; 24_LiPON_transport_comparison; 25_LiPON_temperature_RDF" source_frame_index=1589 relative_time_ps=158.9 pbc="T T T"
Li       3.69722346       0.36631246       0.94200897
Li       2.93079700       5.85716859       7.28113765
Li       8.32172075       3.57587589      12.33066739
Li       3.32355135       6.40514580       0.90681626
Li       5.57136760       4.63940963      10.86434965
Li       8.28111241       1.01804279       2.04392830
P        3.61061392       3.94277446       2.53152422
P        9.41176116       0.93232414      12.08915782
N        1.03218221       2.91621532       5.48406327
O        2.47415816       8.42060316       3.68338156
O        2.65939520       5.14016464       2.89485865
O        2.74684269       0.72342155      11.40401966
O        2.78948967       3.01194124       1.52799043
O        9.59055160      10.03837827      11.97470699
O        2.14007134       6.46185008      11.90304623
O        4.29477809       3.03067967       3.44943237
Li       7.25467096      10.37778187      11.38895171
Li       7.36439721       7.02312958       4.45425275
Li       1.47064098       9.62013888      12.13253700
Li       7.59206204       2.29365286       6.65244194
Li       7.73559147       7.70933092       8.11076928
Li       3.69127868       8.30931967      11.88763539
P        2.57920297       3.93265858       9.44957501
P        9.84609899       1.86712122       4.70320195
O        0.16778727       1.70578549       0.77199835
O        7.51726693       8.04477467      11.53248090
O        2.77245746       2.55737128       8.69228824
O        3.52132737      10.63433141       6.04651512
O        2.69752031       3.52818153      10.94392942
O        0.86468546       0.89201734       3.85440208
O        0.78542875       7.95466684       9.12437763
O        1.04304108       4.38557251       9.10231494
Li       3.13188542       0.90060464       4.09058594
Li       1.43710284       0.82211651       9.73153087
Li       6.66300897       2.21408201      11.14683175
Li       1.66232061       2.10831304      12.19052381
Li       9.06595686       0.82903504       8.14240505
Li       9.15520574       8.28251160      10.92449539
P        3.24816962       9.16967661       2.45441642
P        0.67662370       6.00177463      12.27120558
O        1.43402046      10.23773153       7.89455109
O        4.82712950       4.69501310       1.69150298
O        2.21849888       9.61216898       1.32319536
O        5.51886747       2.82534912       0.00295038
O        3.99781307      10.39350374       3.02516728
O        9.71184816       6.37809074      10.97088304
O        0.13513394       1.61385158      10.81305995
O        3.99788088       8.00555586       1.70100055
Li       1.15243825       5.16891664       4.13882610
Li       4.27978722       2.36350686      11.05938500
Li       4.50470545       2.09057183       8.40871569
Li       7.52071800       0.32121758       4.87329899
Li       7.87957716       4.78918059       6.25134758
Li       5.57600385       9.39978607       4.00086349
P        6.39760163       7.69794187      10.42098750
P        0.42472713       9.04479378       8.11055880
O        0.66893330       4.49379130       0.23268836
O        3.51328192       5.04309803       9.31999257
O        6.94883370       6.31074316       9.74934911
O        5.30213767       7.07424239       4.51941436
O        5.18672944       7.23682447      11.20359455
O        8.99004586       9.40145838       8.59536299
O        2.11141149       3.68242435       5.62769514
O        6.29341197       8.80028035       9.34963438
Li       6.38273456       6.95658908       0.35965643
Li       5.53182610       1.50603034       2.76917980
Li       0.23803568       5.88734399       9.19283267
Li       1.10309150       7.38049220       2.75869722
Li       6.17804693       0.11446501       9.18611149
Li       2.53768910       7.10774798       9.92280486
P        7.85656159       3.48860273       3.67504669
P        3.89805495      10.52824811      10.91647292
O        5.80410229      10.46362666       7.29479678
O        7.02704594       7.83446904       2.14340392
O        7.77844906       1.25361798      12.30604456
N        9.05016041       2.43813180       3.46013356
O        3.39075566       9.32004885      10.12188095
O        6.64437804       3.30144411       2.40210046
O        6.90365817       3.21754831       4.89050939
Li       4.47498766       3.47682000       5.64987832
Li       0.98506135       0.05180676       2.10026583
Li       2.48046165       4.42058142       0.12775124
Li       0.77311634       4.05469298       7.10333404
Li       5.39655171       6.71329932       2.67371870
Li       5.83171568       9.18203155       0.82761724
P        7.58336714       3.07608139       9.09189391
P        5.02439610       0.60050240       6.28565606
O        4.75413253      10.06048535      12.19068907
O        9.46474519       6.04413751       6.81624025
O        7.61493256       1.49543238       9.15646816
O        9.19586085       1.33386572       5.96593301
N        6.05222030       3.45154437       9.29835523
O        5.62302378       0.42073551       4.93890463
O        4.58025023       5.38080004       6.23341777
O        8.17419154       3.51519069       7.76610398
Li       0.71300525       3.21369889       1.94277971
Li       7.95219843       5.60867839      11.08786785
Li       3.02578303       8.75339191       6.35916465
Li       9.33491665       8.39672421       0.89371578
Li       6.29175926       5.23496611       8.00772487
Li       0.24725242       3.60917704      10.86531730
P        7.53065544       9.08368801       2.88652840
P        6.01160037       3.83389016       1.05122899
O        6.68330378       6.40517639       6.60018431
O        8.52125854       4.83262578       3.68044926
O        9.00148782       9.45365800       2.45966710
O        0.09710597       6.77208813       1.01712341
N        6.77361808      10.39006924       2.39196567
O        7.06041856       4.80915483       0.41469531
O        4.83222091       0.89061010      10.10989006
O        7.33129122       9.14846902       4.52514385
Li       2.01320987       0.84485700       6.97335783
Li       8.26790896       5.85308205       1.88619461
Li       0.76428898       9.39468657       4.43821828
Li       3.31516240       6.81557054       4.62588371
Li       4.81916106       9.28727236       8.35124695
P        0.46914873       7.06070296       6.08446690
P        5.29406204       6.70038701       5.95301605
O        8.30148223       3.81552108      10.28402075
N        0.20055089       8.48873289       6.70821730
O        0.33528499       6.97218823       4.52602758
O        4.60371080       7.87123760       6.74229996
O        4.90500054       2.06051332       6.63348129
O        1.93394276       7.02421806       6.23970098
124
Lattice="9.90879 0.0 0.0 0.0 10.6625 0.0 0.0 0.0 12.434" Properties=species:S:1:pos:R:3 material=LiPON model=NEP89 temperature_K=900 phase="NVT production" display_name="LiPON｜NEP89｜900 K｜NVT production計算" report_figures="23_LiPON_lithium_MSD; 24_LiPON_transport_comparison; 25_LiPON_temperature_RDF" source_frame_index=1619 relative_time_ps=161.9 pbc="T T T"
Li       3.03055010       0.76683344       1.24555931
Li       3.49028517       3.64118162       6.78189442
Li       8.07486463       5.85382488       2.04383671
Li       4.60728386       7.87226860       0.05837173
Li       7.44632183       7.46169547       0.12020933
Li       0.23229169       0.79124954       2.39053311
P        3.63624296       3.15516226       2.87930963
P        9.60687492       0.50252084      11.88151575
N        0.59303140       2.63720867       5.76124498
O        1.59145817       7.68076204       3.23200880
O        2.77232019       3.51656031       1.66799836
O        3.25229487       1.61882475      12.05465401
O        3.87395821       1.50941856       2.79575225
O        9.44399060       9.62501963      11.65696415
O        1.54097725       6.61160319      12.26380128
O        3.03308185       3.62275283       4.17533451
Li       6.07606005       2.33138090      10.96896939
Li       7.16094607       7.12635772       4.93735278
Li       1.68320324       2.21456948      11.58192565
Li       7.11842374       1.85641412       6.67796530
Li       8.65771218       9.54873307       5.29439139
Li       3.32531679       9.29035599       9.10154711
P        3.03713914       4.18160650       9.83238985
P        9.74423603       1.46256984       4.98731786
O        0.74840763       0.84447878       0.65345071
O        7.10170084       8.58882805      11.26530820
O        2.16797349       2.86586860       9.84590810
O        3.92827414      10.51570211       5.40866010
O        4.32126244       4.14841962       8.98847378
O        0.90676874       0.45245471       4.60536061
O        1.75028602       8.06191887       9.25110059
O        3.50960378       4.77287224      11.12127018
Li       2.62215936       0.31181648       3.55274188
Li       1.68764548       0.29115822       9.63969289
Li       8.12021150       3.06896325      12.20541232
Li       3.95052405       3.37993036      12.42715326
Li       8.71649557      10.62974488       8.48136095
Li       0.78160019       6.52386360       9.58865496
P        2.66206335       8.30543436       2.33245038
P        0.18005348       5.99451966      12.27204116
O        1.22345047      10.27170035       7.88635023
O        5.10570601       4.09452895       2.66598521
O        1.79163197       9.14022615       1.38866183
O        5.93404704       3.14932966       0.32399029
O        3.60331837       9.27377969       3.09196624
O        9.23609663       6.21513040      10.97988845
O        0.16243469       1.24667888      10.57190676
O        3.68303715       7.29647603       1.64759491
Li       1.10247773       4.28136388       4.71246187
Li       5.45591296       5.27845024      10.99535950
Li       5.20808779       2.12672951       8.68491161
Li       0.67706881       9.04992317       3.99571576
Li       8.73380209       3.99536863       6.29080529
Li       4.78637746       8.90231041       4.31156335
P        5.99404430       7.87075676      10.22625805
P        0.87029460       8.74207101       8.21803568
O        0.25181889       4.48073429      12.40758556
O        1.97742328       5.20585067       9.40167872
O        6.76621559       6.70296350       9.38984872
O        4.56149990       7.07259484       4.48972456
O        4.62150193       7.28382886      10.83972688
O        9.27939956       8.69695901       8.72506025
O        1.36395357       2.94623382       6.77627635
O        5.79604831       8.84796946       9.17388346
Li       6.77516230      10.19839256      12.28074846
Li       5.52419863       0.35859793       3.95684314
Li       7.71835021       7.23957694       7.94957805
Li       2.59764691       5.34149460       0.56756061
Li       6.66175775      10.50651443       9.87418582
Li       2.82817386       6.39016941       8.18329236
P        8.51898251       3.62282848       3.41140124
P        3.94752456       0.38197446      11.39498736
O        5.63614853       0.19080867       7.29085982
O        7.06983805       7.73121384       2.20242739
O        8.16897552       1.11225816      12.24171734
N        9.01762530       2.08660209       3.63185915
O        2.94256610      10.26228083      10.61159217
O        7.35985958       3.41696699       2.22378965
O        7.76029356       4.26114233       4.59148508
Li       5.71498268       3.75077940       4.89073464
Li       1.82737148       8.59049476      12.00204905
Li       2.92894807       6.75198183      10.72613429
Li       0.60759708       2.48679702       8.31196445
Li       5.23842801       6.56882482       2.36831901
Li       6.15005931       1.33518958       1.28383730
P        7.51654281       3.25266177       8.98950819
P        4.55448593       0.83779067       6.37598767
O        4.75981949      10.15574753      12.31724263
O        9.25979094       6.13874172       7.23867884
O        7.29852046       1.75304970       9.20072340
O        8.75076342       1.05893562       6.10116393
N        6.91565213       3.53576133       7.55548581
O        5.19611617       2.00979178       5.61586995
O        4.84089764       5.22156619       6.39322407
O        9.03230030       3.63457978       8.83086177
Li       0.84863644       3.68168922       1.53473745
Li       8.19773057       5.39058873      10.00274382
Li       3.00885236       8.75744500       5.84653531
Li       8.88942512       8.47109090      10.45825750
Li       6.00980472       5.10508311       8.07581592
Li       0.40062957       3.99308097      10.31932557
P        7.42085088       9.12976957       2.89777298
P        6.17389915       4.01212377       1.54578232
O        6.20841976       7.46380671       6.44729985
O        9.74389563       4.37769372       2.88603127
O        8.98793410       9.34306522       2.73768834
O        9.30136824       6.61192394       1.04646149
N        6.80391399      10.25101465       2.01072699
O        6.47868452       5.43371947       1.02069190
O        5.03639442       1.01873445      10.35678021
O        6.84815006       9.26211839       4.34429900
Li       2.02239758       0.52825343       6.48111499
Li       9.66744661       7.03377671       3.30282940
Li       9.90780824       8.70447361       1.30544841
Li       2.88281256       5.66384726       4.27063956
Li       5.45676768       8.97441849       7.24832438
P        0.24528531       6.89599811       6.30191067
P        4.86836602       6.74670175       6.00272795
O        7.00707382       4.11496722      10.21857427
N        0.88684081       8.26497526       6.67124660
O        9.21495439       7.59785028       5.22592761
O        3.80276438       7.53095723       6.87494718
O        3.46580888       1.46705408       7.26545446
O        1.37336330       6.01889896       5.74035612
124
Lattice="9.90879 0.0 0.0 0.0 10.6625 0.0 0.0 0.0 12.434" Properties=species:S:1:pos:R:3 material=LiPON model=NEP89 temperature_K=900 phase="NVT production" display_name="LiPON｜NEP89｜900 K｜NVT production計算" report_figures="23_LiPON_lithium_MSD; 24_LiPON_transport_comparison; 25_LiPON_temperature_RDF" source_frame_index=1649 relative_time_ps=164.9 pbc="T T T"
Li       8.33773017       0.98166549       1.93928843
Li       3.12840401       6.86228540       7.77760416
Li       7.87778605       5.18445760       6.38400526
Li       5.17561086       8.19512592       0.16323405
Li       7.25688486       6.61364408       0.79954272
Li       6.21838783       0.82948466       0.95928542
P        3.46271179       3.11669918       2.45450464
P        9.39148323       0.67949280      12.12289511
N        0.48588243       2.82510328       5.86160479
O        2.05622712       7.31123406       3.50030948
O        2.57606450       3.51321401       1.15963029
O        3.43487827       1.71860317      12.31332490
O        3.39757372       1.64060100       2.73302836
O        9.67218296       9.79461473      12.04679838
O        1.92377586       6.83647008      11.14302965
O        2.82956653       3.87274851       3.78305139
Li       7.50152218       2.65715469      11.68055169
Li       5.32270856       3.80681431       6.56495394
Li       1.88819268       2.67223047      11.87856238
Li       2.68711403       4.33024804       6.85764532
Li       7.32326062       6.99348558       4.90638037
Li       2.87792792       0.94484170       9.14826384
P        3.05728510       4.00174005       9.34466089
P        9.75401194       1.59089942       4.96965949
O        0.08765595       1.06773208       1.16028978
O        7.27583080       7.82580064      11.52726022
O        2.23324039       2.74038698       9.80382533
O        3.90673703      10.46972997       5.55403039
O        4.29488560       3.71191908       8.40146354
O        0.97356117       0.67180546       4.64523582
O        2.01090766       8.31584663       8.51746216
O        3.75574401       4.60225825      10.73893862
Li       2.73946960       0.84425275       4.18299442
Li       9.52377788       0.17744714       9.56969379
Li       0.43027395       3.82232438       0.83029469
Li       3.91678050       3.73740949      12.40024973
Li       7.31435773       1.67541142       6.55547998
Li       8.74266776       5.66073002       9.24323939
P        2.80513418       8.30917482       2.47530913
P        0.74127830       6.11935754      11.92686821
O        1.02133676      10.52800984       7.56043159
O        4.98599148       3.70668726       2.52313961
O        1.76809642       9.37625870       1.76148977
O        5.91402049       3.19402862      12.41554002
O        3.91682981       9.11177140       3.19914743
O        9.52443742       6.54060371      10.97050933
O        0.30105749       1.59323631      11.26630062
O        3.52928920       7.59911659       1.30164893
Li       0.24603650       4.47393595       4.74051215
Li       5.17770642       2.63775991      10.91926184
Li       5.36434627       1.97997973       8.80990012
Li       8.87974710       9.47546540       5.52909128
Li       0.44301752       4.28099018       7.79925056
Li       4.65615390       8.96799287       4.75585331
P        6.40482031       7.63523686      10.11007326
P        0.79247006       8.98042035       7.82158212
O        0.91449269       4.49612586      11.42265892
O        2.24051115       5.16375108       8.63564674
O        6.78210038       6.23374066       9.51488517
O        5.26477976       6.46408180       4.52906611
O        4.88016789       7.85412392      10.58850675
O        9.29859324       8.82486531       8.56637445
O        1.30699520       3.26593545       6.75633089
O        6.63532995       8.76567288       8.94233125
Li       7.56508261       9.53793720      12.21259061
Li       7.17397979       1.71298277       4.30406889
Li       8.94293316       8.49296635      10.74616130
Li       3.46320592       6.65806929      12.12582983
Li       6.90370346      10.62088416       8.87452182
Li       1.10365541       6.47403649       9.33764799
P        8.32173122       3.74560577       3.27854932
P        3.96478950       0.45378752      11.59619061
O        5.96097235       0.29430183       7.11931646
O        6.89968896       7.76402093       2.09583488
O        7.87481617       1.01779387      12.16097405
N        9.00009597       2.42854863       3.68637016
O        2.93600645      10.20295331      10.87991575
O        7.41319300       3.58837077       1.98409105
O        7.60448300       4.18510837       4.60165453
Li       4.91728400       4.46284366       4.32302215
Li       1.81971555       9.58584405      12.40071019
Li       3.19891552       8.44818836       9.92990241
Li       9.83620818       1.67696717       7.53075147
Li       4.90784627       7.00969251       2.59009335
Li       4.92619836      10.61956636       2.55697631
P        7.67918700       3.01642235       8.76236784
P        4.73065588       0.83750513       6.36538402
O        4.92543316      10.28253485       0.10297903
O        9.66442059       6.01667592       7.59835256
O        8.16695293       1.49664704       8.89881142
O        8.73563403       0.61659856       5.70965045
N        7.28945592       3.45984239       7.33445611
O        5.20915262       1.97901301       5.26102210
O        4.25490553       5.16985756       6.12534538
O        8.93911161       3.71850822       9.35310801
Li       2.33511083       0.99978145       1.28284157
Li       7.93053177       7.46606047       8.17915706
Li       2.80131282       8.88570612       5.70804705
Li       9.68441624       8.15785369       1.29645359
Li       5.38464437       4.97711057       9.49566448
Li       0.39111141       3.05022076      10.24879656
P        7.49237998       8.93139902       3.07472173
P        6.09919965       4.09111650       1.28761800
O        6.39183850       6.35618242       6.73362758
O        9.43383461       4.72380571       2.82489577
O        8.94774641       8.94503347       2.89646103
O        0.55643568       6.43987270       0.99396884
N        6.96321947      10.25339230       2.45572024
O        6.01625131       5.57263414       1.05247623
O        4.88519860       0.86960159      10.29591403
O        6.94943164       8.84819030       4.52633051
Li       2.27194884       0.97889093       6.71477791
Li       0.23238590       7.24663703       3.51728341
Li       0.62649314      10.23206714       2.67374023
Li       2.84754451       5.72477639       4.26603211
Li       6.18839587       8.81923445       7.29198696
P        0.28792382       6.78674612       6.35375459
P        5.04226852       6.49035815       6.09063920
O        6.67035274       3.42087478       9.91045689
N        0.77197102       8.28421743       6.41255343
O        9.02661347       6.97932805       5.25167721
O        4.15031808       7.71602240       6.46202515
O        3.73979244       1.32662119       7.54983885
O        1.49637526       5.96606073       5.80657344
124
Lattice="9.90879 0.0 0.0 0.0 10.6625 0.0 0.0 0.0 12.434" Properties=species:S:1:pos:R:3 material=LiPON model=NEP89 temperature_K=900 phase="NVT production" display_name="LiPON｜NEP89｜900 K｜NVT production計算" report_figures="23_LiPON_lithium_MSD; 24_LiPON_transport_comparison; 25_LiPON_temperature_RDF" source_frame_index=1679 relative_time_ps=167.9 pbc="T T T"
Li       7.51751176       1.84696890       1.85664373
Li       2.29004842       4.75893039       7.15968069
Li       8.63516082       4.61527349       6.37257495
Li       2.25027771       8.39234718      11.48897427
Li       7.09765160       7.11391708       0.61190154
Li       5.14632305       0.76198093       2.06379224
P        3.66325888       3.38205383       2.46741382
P        9.48128031       0.67369047      11.97736184
N        1.19197790       2.00012655       5.72285790
O        1.86297282       7.07807519       2.62877654
O        3.17398591       4.30142239       1.32991127
O        3.57380293       1.64680374      12.10034759
O        3.31472578       1.85661506       2.28559096
O        9.51060896       9.71858834      11.99850123
O        1.47348609       6.29216160      11.96819372
O        3.18467909       3.71259831       3.86917534
Li       5.10799959       5.24483195      11.03269807
Li       4.78514115       4.36649880       4.51678811
Li       1.70090396       0.26999821      10.28242806
Li       5.03421881       3.50611710       6.99975258
Li       6.93948337       6.49100660       3.81250179
Li       4.17682159       1.52670586       9.61700726
P        3.13506714       4.23357438       9.54982671
P        0.04683304       1.51930310       4.58401918
O        0.69135857       1.20173073       0.45489959
O        4.52103158       7.10026231      11.02535702
O        2.41032766       2.86284715       9.29197740
O        3.60691932      10.30750777       6.12454140
O        4.63333268       4.10013760       9.00789704
O        0.92547953       0.91964340       3.55584224
O        1.46214837       8.65558966       9.75403512
O        3.40666904       4.43764453      11.04105107
Li       3.16858205       1.48523628       4.39691818
Li       8.55869422       0.02913284       9.32225559
Li       0.07726474       2.92211134       1.18225304
Li       2.31252021       3.22369099       0.10759238
Li       7.98121153       9.65201346       6.57050747
Li       4.36719873       3.55463445      12.35500971
P        2.75731830       8.33111857       2.26318437
P        0.03281881       5.81350549      11.74151236
O        1.00675053       0.05032421       7.97811809
O        5.44066828       3.25960178       2.48382851
O        1.75755588       9.17479729       1.26622425
O        6.23114994       4.25355417       0.15463378
O        3.12288178       9.17756938       3.40939416
O        9.53694896       6.31665953      10.26755284
O        9.64836280       0.98869483      10.44298676
O        3.93553519       7.72408840       1.35854354
Li       1.45295141       3.60296669       4.45887816
Li       7.08542490       2.10438266      10.99882927
Li       5.95696416       0.09321877       8.75848870
Li       9.79389373       9.70873387       4.40886145
Li       9.33481420       5.03457082       9.10144200
Li       4.89609380       9.13957172       4.83175436
P        5.88091366       7.51487374      10.43475139
P        0.71741273       9.15080749       8.42475922
O        9.78383898       4.38567392      12.22013037
O        2.48368157       5.54406044       8.91784747
O        6.49347741       6.17376471       9.99967081
O        4.65678280       6.38236299       4.37132578
O        5.91264696       8.46464927       9.24695548
O        9.09964821       8.96738548       8.79472881
O        1.70372714       2.99609687       6.35581603
O        6.85429067       8.20213533      11.40019690
Li       6.92782552       9.83528482      12.25580570
Li       7.26453665       1.36770819       5.94802078
Li       8.57552816       8.49096086      10.73057977
Li       3.42584508       6.18297247       0.30139401
Li       6.05486469       8.34840308       7.54692922
Li       2.92879166       6.84705466       7.69678135
P        9.02624758       4.24466021       3.27681713
P        4.43038140       0.31334393      11.71586402
O        6.14584610      10.15128221       6.80765501
O        6.82474913       8.50589381       1.69502751
O        8.23523232       1.30495596       0.04721044
N        9.06438711       3.02790877       4.26074604
O        3.29825914      10.16661741      10.91334834
O        7.94788898       3.55396781       2.21307272
O        8.81686580       5.62427334       3.99832221
Li       5.26043235       7.31306691       2.55431154
Li       8.35670636       7.16641276       8.97671725
Li       4.08679108       9.61317469       9.34992792
Li       0.11340033       1.63485960       7.72779495
Li       5.17517591       8.47252427       0.35491986
Li       2.41231069       0.71402239       0.96908922
P        7.80920442       2.94822221       8.43895014
P        4.88130557       0.38046717       6.65529439
O        4.98807660      10.31136375       0.58116111
O        9.34042920       6.27188469       7.43118657
O        7.67021325       1.38131513       8.24666250
O        8.94177320       0.57021803       5.35221145
N        6.98094663       3.60273404       7.29513980
O        5.11034698       1.69625097       5.75679717
O        4.13898972       5.09555880       6.38268714
O        9.30734013       3.35697970       8.35117266
Li       1.84414757       5.62769066       1.64632601
Li       1.58126338       6.54251620      10.06041692
Li       2.48883181       9.11098821       5.54634713
Li       0.08836554       7.95028031       1.26651788
Li       5.87308085       5.15495183       8.32863059
Li       0.19798780       3.09759981      10.42074338
P        7.30687860       9.20048838       3.08793665
P        6.45690208       4.26546670       1.73321794
O        6.37266796       6.20857877       6.05440031
O        0.39416596       4.30957930       2.46722694
O        8.86253299       9.12962880       3.12243082
O        9.04159322       6.76314372       0.20283191
N        6.84848353       0.01367746       3.01861320
O        6.38770404       5.66188078       2.20344567
O        5.52732085       0.66658989      10.63885442
O        6.80244388       8.52448981       4.39522310
Li       2.34537976       1.53318092       7.08547728
Li       9.84916934       7.17698724       3.81756732
Li       0.47159443      10.44078659       1.95704324
Li       2.82353595       6.04608658       4.53290271
Li       7.65139950       4.58978145      11.23593445
P        0.33914159       7.28609042       6.60272102
P        4.87793218       6.30252959       5.80475273
O        7.39114837       3.41251500       9.84316232
N        1.35362965       8.01900996       7.57912033
O        9.43746430       8.25007895       5.81219910
O        4.32669539       7.50602621       6.64462459
O        4.40098469       0.72878071       8.15312384
O        1.07783488       6.34954210       5.64398193
124
Lattice="9.90879 0.0 0.0 0.0 10.6625 0.0 0.0 0.0 12.434" Properties=species:S:1:pos:R:3 material=LiPON model=NEP89 temperature_K=900 phase="NVT production" display_name="LiPON｜NEP89｜900 K｜NVT production計算" report_figures="23_LiPON_lithium_MSD; 24_LiPON_transport_comparison; 25_LiPON_temperature_RDF" source_frame_index=1709 relative_time_ps=170.9 pbc="T T T"
Li       5.62880552       0.32684302       2.50249920
Li       9.53753976       4.84410076       5.15840642
Li       5.32275197       3.57374159       4.28635141
Li       1.61212632       9.64937257      11.53973524
Li       6.96014477       7.21600710       0.02073501
Li       7.51078826       7.70453315       7.60213295
P        3.39641859       2.99692822       2.68595322
P        9.59960905       0.82311927      12.21402137
N        0.65610659       2.80622789       5.52758279
O        2.45114892       7.44423052       3.41782844
O        2.41279011       3.51244757       1.53663039
O        2.98478020       1.43348624      11.78787697
O        3.84735943       1.55006756       2.54256287
O        9.74232778       9.94399845      12.05255817
O        0.93602571       5.96458766       1.08379386
O        2.81570155       3.35129499       4.03778163
Li       7.56477928       5.39771690      11.22973160
Li       2.95738811       3.30866721       6.89364193
Li       1.71564188       3.50898988      11.66811457
Li       5.92840128       5.03434670       8.18093521
Li       7.13319544       6.56011739       5.07289018
Li       5.10578253       2.57442642       8.74008506
P        3.29566642       4.70489402       9.97502221
P        9.65897031       1.61335742       4.50822413
O        0.25934504       1.12919381       1.16221284
O        5.28288551       7.20960257      11.26957558
O        2.56562677       3.60428574       9.25641106
O        3.13357192       0.16050077       5.61377451
O        4.76727256       4.67531561       9.67505660
O        0.62962215       0.43794157       4.10395604
O        1.84336177       8.89696057       8.44319588
O        3.35074771       4.63177513      11.58736585
Li       2.81058846       0.43371084       3.92936823
Li       9.69167514       1.81509499       7.15454060
Li       0.54822138       3.00025760       1.75602344
Li       1.18035835       2.01829144       9.74964734
Li       7.38187984       0.17208570       6.19657543
Li       4.01927187       2.97276681      11.41875836
P        3.09351658       8.39591883       2.40931391
P        0.30242560       6.07989466      12.16449110
O        0.76207156       0.19920141       7.47959721
O        4.80658235       3.77383715       2.47545286
O        2.04985542       9.13742853       1.53432541
O        5.71188685       3.10435869       0.13808588
O        3.74955611       9.47158346       3.28214909
O        1.10067557       7.08161049      11.29186889
O        0.13566148       1.67389734      11.02900434
O        4.02015992       7.66621461       1.36126570
Li       8.53538747       5.06608151       8.31615273
Li       6.46423805       1.66556918      11.75598242
Li       5.98835769      10.55066042       8.68020950
Li       0.06493578       8.87282991       4.42479928
Li       1.09551023       7.03506855       9.19681270
Li       5.03319635       9.11993969       4.66060010
P        6.16889229       7.62620493       9.98470974
P        0.63198216       9.38860303       7.71481249
O        0.08597419       4.64910078      11.44872977
O        2.90424463       6.12585758       9.57854494
O        7.12156306       6.47106723       9.38763999
O        5.24379975       6.37212487       4.35369377
O        5.35033150       8.51461718       8.85751172
O        9.10807179       9.11166701       8.34554260
O        1.27748070       3.52223310       6.48170953
O        7.09235661       8.84696211      10.45618930
Li       7.09807202      10.18543704      11.89698461
Li       7.04712266       2.63836114       6.23011217
Li       0.39239151       8.15713849       1.12221701
Li       2.80543642       5.47323191       1.04159393
Li       9.47640564       8.54949723      10.28690859
Li       4.32493968       8.60176062       7.33624273
P        8.18344599       3.76632206       3.43423750
P        4.10771098       0.38692061      11.24552607
O        5.42585025      10.11532941       6.29913558
O        6.66485159       8.25362324       1.46331690
O        8.03875841       0.92067497      12.33021890
N        8.86747565       2.30735240       3.33876222
O        3.37189083       9.67870869      11.13234186
O        7.35554760       3.58290414       1.99774641
O        7.24350475       4.00490676       4.63832146
Li       5.42028185       7.07789715       2.29402556
Li       8.77094008       0.06180306       9.33107729
Li       3.72662509       9.34238254       9.42477145
Li       2.42792815       6.07734340       7.67795276
Li       2.98443191       7.45612306      10.79127702
Li       8.25892142       1.50556313       1.95950757
P        7.81679141       2.50840850       8.79017402
P        4.50869055       0.69817480       6.08396335
O        5.25124282       0.07692160      12.31262936
O        0.65721685       6.25978412       7.61618447
O        7.75496006       0.85640530       8.37422614
O        8.68657506       1.17706621       5.64977977
N        6.92326823       3.40974768       7.94398913
O        5.31978340       1.70415469       5.19682553
O        4.09716636       4.57575917       5.93377477
O        9.37174650       2.96165711       8.65823216
Li       2.21822171       4.95336139       4.88546740
Li       5.14997024       5.28177089      11.60163762
Li       2.35451465       8.16113594       5.41224877
Li       0.68614424      10.57185184       2.60586248
Li       0.82010460       4.38167972       8.19385670
Li       2.56788326       0.87040683       1.19765492
P        7.51825748       8.87895415       2.56769766
P        6.02146402       4.01270256       1.32586942
O        5.98142285       6.21898750       6.77493368
O        8.93186332       5.12527098       3.22710149
O        9.06323278       8.45378361       2.57606089
O        8.79778111       6.55905691       0.01865258
N        7.44253000      10.42587984       2.69464071
O        6.01784130       5.47459304       0.86683837
O        4.90215627       0.88318302      10.10051149
O        6.95812349       8.46748792       3.95262695
Li       1.46847576       0.47170223       5.81011757
Li       8.13013384       5.93672230       1.67087158
Li       4.85099620       8.59902522       0.22963032
Li       0.69118014       6.45215636       3.03975323
Li       8.63359647       3.28708336      11.71612230
P        0.23470523       7.05520153       6.36190546
P        4.75166889       5.99603356       5.82787977
O        7.29197307       2.77200768      10.25944553
N        0.72589034       8.63556373       6.31688094
O        8.62797659       7.08348247       6.11855107
O        3.63073529       6.98083624       6.28999799
O        4.15191095       1.60689091       7.40111098
O        0.89255801       6.30533257       5.11244988
124
Lattice="9.90879 0.0 0.0 0.0 10.6625 0.0 0.0 0.0 12.434" Properties=species:S:1:pos:R:3 material=LiPON model=NEP89 temperature_K=900 phase="NVT production" display_name="LiPON｜NEP89｜900 K｜NVT production計算" report_figures="23_LiPON_lithium_MSD; 24_LiPON_transport_comparison; 25_LiPON_temperature_RDF" source_frame_index=1739 relative_time_ps=173.9 pbc="T T T"
Li       6.96220303       1.03806892       4.22095699
Li       3.30229041       3.83392888       6.65510789
Li       4.86477913       5.63788206       2.51816630
Li       1.83167831       9.00016914      11.49380387
Li       3.35206574       5.64717726      12.34502176
Li       5.85172772       8.50649194       7.58043288
P        3.29986352       3.35540159       2.39618451
P        9.68867648       0.76475580      12.29691958
N        0.84109194       2.69010543       5.65013585
O        2.04658127       8.06329861       3.55147661
O        2.70867142       2.96902781       1.02963063
O        4.60436457       0.23836047       0.15285556
O        3.04986747       2.12518168       3.27487946
O        0.02851338       9.93024066      11.97302962
O        0.58507669       4.96212076       0.01417470
O        2.60677480       4.66680560       2.95994217
Li       5.75219028       3.86809698      10.44835741
Li       1.57954493       5.12590540       4.59478681
Li       1.54788632       3.46725045      11.76268864
Li       6.01608137       4.74022829       7.75663108
Li       6.95038181       6.29010022       4.22555023
Li       5.11821771       2.12879566       8.62924295
P        3.27142470       4.53351646       9.37534619
P        9.73070347       1.71350843       4.59961685
O        0.36233345       1.16504080       1.33651669
O        5.23504264       6.77046418      11.54909529
O        2.05972157       3.59345885       8.95057219
O        3.90299833      10.25083758       5.75410517
O        4.59314552       3.92220844       8.85654413
O        0.87792252       0.56192973       4.35421861
O        2.19751855       8.45418028       7.55609463
O        3.23732962       4.59270042      10.94521324
Li       3.00438370       1.17097961       4.84800327
Li       9.45757304       9.33756078       4.96924901
Li       0.44382362       3.04969429       1.84607379
Li       2.18552559       1.79961422       9.66553236
Li       8.45152863      10.45924247       7.51871496
Li       5.07255657       0.51078926       3.39416353
P        2.92934348       8.67500994       2.41919101
P        0.50530068       6.31422181      11.82993022
O        1.30577488       0.06465197       8.35010949
O        4.81457609       3.75618520       2.24699447
O        2.05830579       9.31128191       1.30725759
O        6.42578869       1.79474954       2.18689149
O        3.99420543       9.75794787       2.86046518
O        1.83221925       7.09965646      11.40857428
O        0.52848417       1.81348264      11.43064269
O        3.63032807       7.46860426       1.81152006
Li       8.50443415       5.49312879       9.26787665
Li       7.19787271       1.41284850      10.82520918
Li       6.11762283      10.09958773       8.84471833
Li       2.62161609       8.83719099       5.54947667
Li       1.40950969       7.14863688       9.53247615
Li       5.40061318       9.06745642       4.49181811
P        6.21544513       7.11066838      10.22697117
P        1.05049956       9.27953846       7.94856442
O        9.82356929       6.14411562      10.36846486
O        2.62881816       5.85438162       8.73878198
O        6.72047782       5.73882271       9.61656564
O        4.79286242       4.87661280       5.94208872
O        5.13838117       7.83273386       9.32453463
O        0.56814775       8.60083765       9.41810707
O        1.67270637       3.65948110       5.69584899
O        7.16800236       8.29007951      10.37021311
Li       6.26574811       0.46428046       0.70204906
Li       5.93915383       3.49770928       5.31513970
Li       0.10092268       8.83604209       1.06985936
Li       1.09029316       5.67936953       2.03897848
Li       9.17846314       7.85118503      10.23985793
Li       4.13667018       6.99215606       8.13111475
P        8.49237260       4.11507953       3.32783045
P        4.39670260       0.39417894      10.95719764
O        6.07819608      10.61659975       7.23807517
O        7.06742720       9.24497707       1.15021052
O        8.12372682       0.76292853      12.33886609
N        9.26528773       2.64002979       3.43002074
O        3.51991410      10.00194247      10.35159162
O        7.56327727       3.88045021       2.11803594
O        7.64724850       4.31672619       4.59745552
Li       5.11222995       8.25466098       0.75470535
Li       0.32886605      10.65088791      10.00878702
Li       3.36020441      10.01659605       8.20697333
Li       1.74815832       6.65327451       6.97788189
Li       3.74050992       7.81423711      10.84626655
Li       8.32380864       1.68033087       2.11255138
P        8.23662681       2.76382762       8.65363211
P        4.72931186       0.55320949       6.65486990
O        5.87738462       0.03716534      10.57302582
O        0.05323569       6.38562779       7.63251461
O        8.91069178       1.30507116       8.49702632
O        8.57203285       1.19128406       5.56356751
N        6.97247416       2.83384470       7.81082247
O        5.27330659       1.68009294       5.64250377
O        2.83766151       6.22478359       5.51689796
O        9.07729292       3.99288408       8.27316700
Li       9.30082840       3.93801882       6.35112582
Li       4.15053894       3.29390179      11.93241061
Li       3.15475288       6.46701125       3.53746857
Li       0.89118251      10.47518037       2.71595423
Li       0.62614885       4.96874094       8.48452563
Li       2.77813418       0.70846584       1.52928704
P        7.61573567       8.94273174       2.64094152
P        6.17125176       3.19389194       1.63863669
O        4.87287046       7.37790564       6.57185853
O        9.65963712       5.21339549       3.14845721
O        9.12390883       9.32901439       2.58854767
O        9.54171681       7.24529655       0.30255557
N        6.84711720       9.86098671       3.66126786
O        6.00640948       3.42156853       0.08183299
O        3.92186283       1.73463355      10.42997553
O        7.54740103       7.37245137       2.94772129
Li       1.27801543       1.42937514       6.94170671
Li       8.17509666       6.46114385       1.42145085
Li       7.89087644       9.16275996      12.04020393
Li       9.87249840       7.19619789       3.81962384
Li       9.38551454       3.27238795      10.84606916
P        9.16774064       7.54581086       6.96083004
P        4.36583399       6.30390003       5.50992681
O        7.71517939       2.88249690      10.03998118
N        9.77344227       9.13658849       6.90932662
O        7.79711668       7.90321763       7.64006610
O        5.00398082       6.68152996       4.10650982
O        3.75660740       1.18982524       7.74888114
O        9.12745127       7.17395067       5.44001824
124
Lattice="9.90879 0.0 0.0 0.0 10.6625 0.0 0.0 0.0 12.434" Properties=species:S:1:pos:R:3 material=LiPON model=NEP89 temperature_K=900 phase="NVT production" display_name="LiPON｜NEP89｜900 K｜NVT production計算" report_figures="23_LiPON_lithium_MSD; 24_LiPON_transport_comparison; 25_LiPON_temperature_RDF" source_frame_index=1769 relative_time_ps=176.9 pbc="T T T"
Li       6.10116272       3.80281325       5.74397431
Li       2.12655356       4.95872988       7.29076305
Li       4.41440058       8.59312810       3.61215846
Li       2.92178173      10.16300105       9.39103321
Li       4.97881413       5.89991140       2.81674919
Li       6.42511909       6.84806399       7.54479900
P        3.38521612       2.95720701       2.45581186
P        0.10547019       0.42764595      11.94880790
N        0.93392580       3.20970649       5.15555324
O        1.50069145       6.47418272       2.62877745
O        2.29722195       3.63379517       1.61967061
O        6.41820899       0.73722921      11.25893584
O        3.45442082       1.40397203       2.43817874
O        1.51648246       0.24506348      11.39284678
O        0.22999064       4.69421970      12.36835574
O        3.59068011       3.55071561       3.83875383
Li       5.66364347       4.44317840      11.26209258
Li       1.82849009       7.44304072       5.49615515
Li       2.51044791       1.70101661      10.32100664
Li       5.19059456       4.95201154       8.46263450
Li       7.79653832       6.25041888       4.56663060
Li       5.17317448       2.22706145       8.98967088
P        3.09373883       4.44022352       9.90470526
P        0.10163841       1.94291841       4.59004464
O        0.25779872       0.71580810       1.04368414
O        5.77255251       7.64296680      11.64008195
O        2.07186413       3.55582679      10.74754960
O        4.49905243      10.28204973       4.52555535
O        3.70563611       3.60712093       8.73864432
O        1.00175665       1.07687911       3.74397634
O        2.18884765       8.46716500       7.06012292
O        4.09245194       5.12774150      10.89161711
Li       2.92744567      10.36541109       3.94233556
Li       9.60852177       9.66721080       4.52181090
Li       2.30794865       4.90702376       3.97943113
Li       0.92032978       8.96876980      10.80662694
Li       7.43974686       0.94258433       6.55558886
Li       7.27086474       1.48188126       3.74092696
P        2.40426288       7.75654686       2.53691211
P        9.89536336       6.18789227      11.97410051
O        1.41947253       0.02035471       8.25494536
O        4.74076511       3.53438187       1.72189162
O        1.64436274       8.91099508       1.85142481
O        6.40565060       1.70813939       2.21264333
O        2.63862545       8.23956962       3.99837475
O        1.12569006       7.23008698      11.68868113
O        9.21528744       1.65801691      11.32896751
O        3.81071394       7.34880337       1.90547266
Li       7.34630611       5.75665840       9.94012630
Li       7.65751042       2.65243868      11.47969153
Li       7.85790309       0.65394211      10.18909270
Li       4.36828934       8.85521863       6.00411351
Li       0.36530271       6.30571301       9.03198980
Li       6.58696359       8.93626249       5.58707495
P        5.52493907       7.83646749      10.12945437
P        1.09761596       9.13866979       7.84966836
O        9.11864515       6.37152710      10.64532489
O        2.25389609       5.64043918       9.19360336
O        5.85308033       6.50072545       9.21586182
O        4.77546589       4.84507290       6.48118756
O        4.09956202       8.11087037       9.90685319
O        1.11736278       8.29761879       9.00358266
O        1.04274186       3.97420888       6.16796300
O        6.54250951       8.82527726       9.47821900
Li       7.21521240      10.18058037      12.19652101
Li       3.51097123       3.13026141       5.51424903
Li       0.86154483      10.47495901       2.37031691
Li       1.04904935       5.02007520       1.68847651
Li       8.47886980       8.31228337      10.59847724
Li       3.54465319       7.35932390       8.27316102
P        8.37537832       3.91494768       3.50904649
P        4.79676312       0.70430324      11.26468337
O        5.63313184      10.19939968       6.66455005
O        7.38775345       9.81168241       3.76557958
O        9.15574263       9.65686134      11.70612190
N        8.87748530       2.39681409       3.53913313
O        4.36390416      10.17404250      12.25913133
O        6.97630578       3.98749838       2.96224613
O        8.01798381       4.53856766       4.94698031
Li       4.93646135       8.27998203       0.55036137
Li       9.72822625       1.00811214       8.09898226
Li       5.54593294      10.10717540       8.52953153
Li       9.02942987       4.28914805       6.50028978
Li       2.53963862       6.90154020      10.45019697
Li       0.60948384       2.76749726       1.78459878
P        7.91797734       2.99904286       8.64777960
P        4.97914716       0.57493770       5.72512655
O        4.60009617       0.49142974       9.63087893
O        9.87500446       6.25660218       7.32538787
O        7.60655424       1.45247063       8.49909980
O        9.41739515       1.23029287       5.82209904
N        7.24721202       3.84734000       7.43427915
O        6.09313098       1.56648210       5.17424337
O        2.81756877       5.95058602       5.31639483
O        9.41348868       3.08953321       8.62342093
Li       0.55049648       5.54656813       4.40435051
Li       3.10299072       4.28593084       0.11227890
Li       2.64048578       9.23168888      12.36863675
Li       2.88194601       0.92289502       0.65590930
Li       0.10285509       3.32329142      10.53285540
Li       5.17899614       0.22099307       1.43860322
P        7.44767884       8.79865211       2.65503882
P        6.30565098       3.09507816       1.79353201
O        4.50464875       7.27064269       6.81021620
O        9.39675987       4.49200761       2.53885012
O        6.68826104       9.09469733       1.36044875
O        8.99588706       6.69188369       0.76073469
N        9.00514689       8.98468844       2.51978575
O        6.77276256       3.61722338       0.39387106
O        4.01820909       1.91466980      11.75805967
O        7.21346498       7.36984291       3.13563978
Li       3.08520990       1.37950654       7.94415853
Li       7.22062668       7.64228193       0.21836207
Li       0.08693694       8.38174092       0.84958652
Li       9.47514185       6.97113251       2.41555464
Li       8.23548016       4.95417958       1.20062343
P        9.31838932       7.41195851       6.40298494
P        4.32244352       6.21698283       5.70743077
O        7.38553846       3.62062194       9.85055522
N        9.73240790       8.82651148       6.93963686
O        7.72121611       7.57594840       6.40322280
O        5.25312091       6.26284521       4.58059351
O        3.87878505       1.41687346       6.32945555
O        9.87013741       7.10493026       4.90434441
124
Lattice="9.90879 0.0 0.0 0.0 10.6625 0.0 0.0 0.0 12.434" Properties=species:S:1:pos:R:3 material=LiPON model=NEP89 temperature_K=900 phase="NVT production" display_name="LiPON｜NEP89｜900 K｜NVT production計算" report_figures="23_LiPON_lithium_MSD; 24_LiPON_transport_comparison; 25_LiPON_temperature_RDF" source_frame_index=1799 relative_time_ps=179.9 pbc="T T T"
Li       7.58600413       5.91052176       7.07038416
Li       1.70510876       5.49423592       6.81774147
Li       4.78101152       8.83658176       4.57330040
Li       3.39887341       9.19179940      10.68792808
Li       6.84223765       6.73343389       4.79704361
Li       5.96882646       7.94311902       7.44919383
P        3.57838899       2.64529695       2.22167378
P        0.16509552       0.61762785      12.16044960
N        0.95656992       2.29421580       5.86750866
O        1.76825341       6.49010340       2.49539219
O        2.31206638       3.01474594       1.41719537
O        6.31874910       0.54031722      11.27057867
O        3.45123853       1.09217617       2.15386966
O        1.68797260       0.61303569      11.95233362
O        0.23083686       4.29505326      11.91484550
O        3.42013758       3.27624405       3.65681303
Li       5.49435221       3.69023235      10.90026921
Li       2.10082539       0.50674137       7.19710346
Li       2.41975496       0.95056328      10.11200864
Li       5.27294893       4.96478487       8.06363467
Li       0.89581926       6.71815952       4.06720561
Li       4.31024734       1.89594247       8.89070552
P        3.05241664       4.32796781       9.47731204
P        9.62920075       1.41759092       4.97523764
O        9.79849746       1.13510649       1.15773519
O        6.45747950       7.28953263      11.55713925
O        2.34212441       3.14136282      10.23556778
O        3.59695939       0.04437225       5.02312223
O        4.17195020       3.76895226       8.64906911
O        0.47542578       0.74582773       3.75896926
O        2.14119799       9.20370137       7.22553703
O        3.58188766       5.26793588      10.62845171
Li       3.08044545      10.26848028       3.26131329
Li       8.79916186       9.10198175       4.71228494
Li       2.71937925       4.83097356       4.43077018
Li       0.82934007       8.62016466      12.04427538
Li       7.16386189      10.66102025       6.67169388
Li       5.19867011       3.41707321       4.52604781
P        2.65158301       7.73773820       1.94155796
P        9.85620677       5.83298060      11.62082881
O        0.70184007       0.19919593       8.47148867
O        4.86243815       3.30431673       1.49416169
O        1.56370989       8.79619619       1.45080424
O        6.68013116       1.47422285       1.67297319
O        3.29629058       8.42875398       3.12918415
O        1.34618857       6.60279010      11.33331926
O        9.41963890       1.57885333      11.04308195
O        3.63757395       7.32598175       0.77761634
Li       7.24172244       5.49992721      10.27705411
Li       7.61677153       2.21537814      10.97004476
Li       8.68607912      10.41582057      10.12929567
Li       3.96065557       9.36930941       7.99668577
Li       0.39099699       5.13169166       8.47421493
Li       6.78502811       0.87808023       3.80314514
P        6.25919434       7.78725093       9.98166346
P        1.08281890       9.37975548       8.41741818
O        9.24123688       5.99646874      10.20413002
O        2.10820942       5.15469933       8.61889729
O        6.50247654       6.59116825       9.09142166
O        4.95562747       4.91234773       5.85782200
O        4.88727511       8.36969226       9.69442570
O        1.40167969       8.77185301       9.76476302
O        1.65565916       3.41677607       5.83008533
O        7.41974390       8.95799456       9.79576352
Li       7.88522205       8.56799752      12.20281075
Li       3.77833951       3.63847091       6.39283383
Li       0.43216408       2.17057638       2.41681693
Li       1.13597355       4.77530839       1.42997959
Li       8.48933044       7.50980197       9.04474180
Li       1.14431332       6.71815025       9.24635410
P        8.29424469       3.89344669       3.57428031
P        4.74393158       0.45461081      11.30417280
O        5.24905562      10.08357086       6.92811825
O        6.64584935       9.59531417       3.94208734
O        9.43649610       9.90401612      11.99700707
N        8.79554658       2.73181864       4.48582954
O        4.31374777       9.99431090      12.25624494
O        6.80195340       3.77631859       2.94284583
O        8.31215053       5.21530010       4.37584883
Li       5.20250778       8.26273045       0.34994369
Li       9.44089568       1.43654505       7.76151212
Li       6.33639042      10.24208253       9.38308435
Li       9.08131441       4.25833857       5.91549052
Li       3.36341347       7.04462898       9.71472756
Li       7.34609959       0.09228590       0.41995690
P        7.77899159       3.09269805       8.55267919
P        4.60765344       0.54938022       6.12300026
O        4.09945343       0.29463705       9.81153919
O        9.89885626       6.17722835       6.99681649
O        7.37872877       1.54110707       8.46300045
O        8.89858735       0.47258234       5.93169283
N        7.25527616       4.00619714       7.20248800
O        5.74091821       1.31922498       5.48185717
O        2.74429077       6.26088088       5.44247838
O        9.23623155       3.42648109       8.51862402
Li       2.32319088       8.55055651       5.38680411
Li       3.20022746       5.62844650      12.34603402
Li       2.71237386      10.57558115       0.85203746
Li       2.63488093       2.40943389      12.12373963
Li       0.52659472       3.00605102      10.16567632
Li       5.22918032       0.31576803       1.38910724
P        7.00842472       8.72924238       2.77839238
P        6.39024677       3.04195976       1.46395113
O        4.17322423       6.58052353       7.50292595
O        9.38245054       3.85260210       2.32760380
O        6.49851339       9.22248766       1.38442902
O        9.21381169       6.45966582       0.42807474
N        8.58183657       8.88300042       2.80781726
O        7.10009232       3.81846452       0.40203446
O        4.27627448       1.86097534      11.62229603
O        6.87360882       7.24362959       2.94095533
Li       2.30112296       2.00382128       4.67591664
Li       7.22208921       5.72231184       0.71432146
Li       0.24976854       9.89614121       1.84821271
Li       9.43331365       6.88072783       2.18211335
Li       9.11620458       3.18097241       0.60541405
P        9.32054864       7.63053707       6.65485127
P        4.20307030       6.27168487       5.93798940
O        6.97192885       3.82861798       9.68978385
N        9.64827923       8.54324781       7.99268206
O        7.81523207       7.72624003       6.60848432
O        5.10029714       7.31430077       5.18069909
O        3.76194250       1.32773017       7.13628806
O        0.22689799       8.09368702       5.37332637
124
Lattice="9.90879 0.0 0.0 0.0 10.6625 0.0 0.0 0.0 12.434" Properties=species:S:1:pos:R:3 material=LiPON model=NEP89 temperature_K=900 phase="NVT production" display_name="LiPON｜NEP89｜900 K｜NVT production計算" report_figures="23_LiPON_lithium_MSD; 24_LiPON_transport_comparison; 25_LiPON_temperature_RDF" source_frame_index=1829 relative_time_ps=182.9 pbc="T T T"
Li       6.35176031       7.64436891       7.77553231
Li       4.12835274       9.38517260       7.43914988
Li       4.70840418       8.99643198       4.19222442
Li       3.16682511       8.73795588      11.54101573
Li       7.60032381       6.59860516       4.58143758
Li       6.23658430       3.98361230       6.22029942
P        3.58746273       3.27331591       1.80895634
P        0.24063068       0.74283302      12.12238929
N        0.49944319       2.92024406       5.92795519
O        2.37949747       6.94915743       2.78484597
O        2.61057850       4.25094969       1.07878791
O        6.65148519       0.19927760      11.10588951
O        3.34396767       1.74162353       1.62641428
O        1.56421603       0.09084769      11.64230073
O        0.11502023       7.01034338      10.75776872
O        3.61722557       3.70098313       3.27659018
Li       4.45262473       3.40407576      10.74141575
Li       1.68694406       1.67675288       7.18001821
Li       2.27227867       0.65997414      10.06449090
Li       5.43083240       4.77198268       8.55652926
Li       9.41065818       4.57598948       6.72242708
Li       3.52900439       3.40814222       6.53730294
P        2.41147643       3.74927704       9.29373111
P        9.83428250       1.89073634       4.80008072
O        0.52764900       1.57871033       0.98966151
O        5.66442195       6.63061254       0.31548128
O        2.05958074       2.25450190       9.10557967
O        4.01441881       0.07154849       4.50943651
O        3.82244034       3.82222911       8.58050381
O        1.14962655       1.14293848       4.15629353
O        2.12713130       9.31364029       6.42025383
O        2.56717878       3.90797549      10.84057219
Li       2.16398493      10.21161133       4.50569607
Li       9.74797118       9.72576698       4.41164292
Li       5.40791885       6.58275951       2.25595506
Li       0.34480754       8.54016846      11.98207071
Li       6.64970823       9.22936428       5.62922952
Li       5.21138393       3.49459968       4.28233135
P        2.48091705       8.45365285       2.10197128
P        9.33184553       6.15736685      11.83587037
O        0.96045362       0.05284217       8.33723031
O        5.04086773       3.63576451       1.14816830
O        2.01342720       8.38930720       0.57317384
O        6.43725823       1.68358387       2.05727334
O        1.58763484       9.40462910       2.89589069
O        8.90719094       7.19906156       0.61860178
O        9.60128862       1.77842553      11.08298284
O        3.95866230       8.92304013       2.34551309
Li       6.87666963       4.30006394      11.06125827
Li       7.62618543       1.74268839      11.30224036
Li       6.59958534       9.72831229       8.36135676
Li       7.44572520       1.18175630       3.59972781
Li       0.05426961       1.76655487       9.18893103
Li       1.75895459       0.47351856       1.94154290
P        5.15880094       6.54556784      11.13783980
P        1.41951350       9.17724624       7.77652150
O        7.96294319       5.81840619      11.28875706
O        1.60213556       4.85816322       8.51690585
O        5.37508907       5.16888131      10.59514984
O        4.78956777       4.79043714       5.66571107
O        3.64738796       6.86077582      11.09161775
O        2.34391172       8.47470904       8.77409674
O        1.50107376       3.70358539       6.13780232
O        5.78991577       7.82276903      10.43934770
Li       7.24153657       8.33283814      11.89557797
Li       3.01899164       5.25799961       4.00372247
Li       2.61794547       2.28035115       4.48011984
Li       1.17389008       5.47531932       1.99265455
Li       2.82602145       6.28785240       8.02800907
Li       8.91870760       5.02373662       9.41820906
P        8.57799076       4.13263272       3.69565904
P        5.20569585       0.09748207      10.69562399
O        5.47581923      10.09303980       6.60378179
O        6.56385020       9.64038531       3.61727832
O        9.19371004      10.12814990      12.29006864
N        9.11197072       2.57818349       3.53090465
O        4.37447905      10.21644086      11.99532396
O        7.18822066       4.22172627       2.69051416
O        8.07404503       4.53967085       5.10197736
Li       5.02485500       9.09277213       0.77347268
Li       4.44847655       1.70626906       8.27775570
Li       9.13127030      10.28518552       7.60187340
Li       7.30851067       1.18191838       6.43930204
Li       1.14961659       7.12322358       9.50183699
Li       7.16856853      10.62998937       0.36925306
P        7.64023676       2.51016888       8.49556086
P        4.97544569       0.67879081       5.63749538
O        4.91157243      10.06951616       9.32573707
O        8.88698677       6.22999047       7.83182572
O        7.93276648       0.95756229       8.16858317
O        8.96738015       0.78495779       5.48249827
N        6.41593207       2.83250440       7.62410285
O        6.01017416       1.67695089       5.12190822
O        3.03257228       6.62353082       5.67277548
O        8.94411518       3.24477741       8.45602162
Li       4.04776281       8.18183862       9.37542167
Li       2.89017044       5.72037466      12.29843859
Li       3.07618103       0.85720979      12.31086836
Li       1.15817555       3.48024123      12.04527045
Li       8.92042046       3.45452516      11.34342239
Li       4.71339885       0.32460079       2.77831165
P        7.34981213       8.68433787       2.69004567
P        6.55431447       3.11238179       1.60766297
O        5.01613858       6.38728050       7.58552800
O        9.63508472       5.10362559       3.10098079
O        6.96853113       9.16864494       1.15490112
O        0.15828558       4.86533683      12.23821962
N        8.81172194       9.12046962       3.13905831
O        7.46817820       3.17189304       0.25875016
O        4.64857687       1.52546648      10.47917552
O        6.99727261       7.15844803       2.81277191
Li       1.53326450       7.63611521       5.13789178
Li       7.30926140       6.12544956       1.01287194
Li       9.61879034       7.34855830       2.72878641
Li       9.78572424       9.47031271       1.67336524
Li       9.70800826       3.06731524       1.62218649
P        8.98149461       7.62747020       7.25275890
P        4.59166760       6.44121801       6.02509024
O        7.09413288       2.80267767       9.94336323
N        0.24151006       8.25372631       8.18542709
O        7.82448868       8.70028301       7.43905647
O        5.62198468       7.40938622       5.26855808
O        3.97270359       1.54690741       6.54640117
O        9.35214893       7.67522692       5.74730925
124
Lattice="9.90879 0.0 0.0 0.0 10.6625 0.0 0.0 0.0 12.434" Properties=species:S:1:pos:R:3 material=LiPON model=NEP89 temperature_K=900 phase="NVT production" display_name="LiPON｜NEP89｜900 K｜NVT production計算" report_figures="23_LiPON_lithium_MSD; 24_LiPON_transport_comparison; 25_LiPON_temperature_RDF" source_frame_index=1859 relative_time_ps=185.9 pbc="T T T"
Li       7.01709024       6.93365025       8.64511574
Li       3.84773599       9.29509248       6.08630792
Li       7.95568498       9.76390199       4.43609653
Li       2.17729844       8.10452055      10.59631977
Li       6.80851906       6.97878681       4.63597412
Li       7.26220096       4.62311565       6.56019192
P        3.54483871       3.30008281       2.01145625
P        0.10747850       1.10242838      12.13559121
N        0.70427360       3.58800079       5.45204570
O        1.12984913       7.14579803       2.85287936
O        2.33034054       3.89033420       1.36482277
O        6.34283654      10.03006231      10.81642739
O        3.57237103       1.79670466       1.67728156
O        1.50507056       0.52874311      11.59406879
O        0.51969160       8.15344461      11.59430516
O        3.75196077       3.74736253       3.48830482
Li       4.65280877       3.21240977      10.54527386
Li       3.26526986       0.85429949       7.75920689
Li       1.56424779      10.62327755      10.20050206
Li       5.77841452       4.90030701       8.68666093
Li       0.16378970       3.99503235       7.31340294
Li       3.62567184       4.02878342       6.72265497
P        2.47969147       3.08178230       9.19363580
P        0.21359728       2.09852475       4.61664133
O        0.11881282       2.62702319      11.81575886
O        5.79886367       6.81700117      12.37340532
O        1.86189930       1.76675230       8.73301643
O        4.18169322      10.56280918       4.90038216
O        3.85254948       3.29490049       8.58175919
O        1.42912120       1.87134230       3.72011968
O        2.03234266       9.78784774       7.17545660
O        2.71340469       3.21139648      10.75938469
Li       4.45949298       8.67472452       3.66287982
Li       1.20976263       9.75642242       5.44065693
Li       5.41454734       6.08544892       1.74176504
Li       0.74654127       7.50350664       1.11600412
Li       0.40768084       0.89642709       7.60572268
Li       5.70589066       3.72787899       4.49604452
P        2.31922654       8.15029096       2.97526144
P        9.54542897       6.87142199      11.15651390
O        0.24255990       9.50980303       9.09878461
O        4.85050276       3.79464721       1.23753010
O        2.12950347       9.15655755       1.81119071
O        6.61153791       1.79230257       1.24193246
O        2.19994764       8.85181396       4.49910405
O        9.44917965       6.27624069       0.21221674
O        8.83210623       0.34717242      11.36350842
O        3.59656042       7.38092275       2.72347977
Li       7.46645738       4.50105426      10.83930473
Li       6.68212945       2.08888806      11.57996543
Li       6.71409947       8.13795427      11.15081979
Li       2.88882086       2.69971552       4.95416281
Li       8.19352665      10.13663809       9.54566671
Li       0.91169941       2.75572983       1.90061565
P        4.87175783       6.35906903      11.17199817
P        1.14976255       8.89224277       7.96806919
O        8.11900530       7.19303487      10.44299187
O        1.46370643       4.18644387       8.68187294
O        5.43358354       4.92553995      10.67447688
O        5.09233869       6.83418716       4.94751017
O        3.40266592       6.28509737      11.72039434
O        2.23845459       7.97886727       8.78938757
O        1.77546203       4.31116857       5.84232030
O        5.09000146       7.29626348       9.94965955
Li       7.64380009       6.35707824       0.75616891
Li       3.78959958       5.70468769       4.11375146
Li       2.81507454       0.60022688       3.22359685
Li       1.35545682       4.95140868       2.58201513
Li       3.22072688       5.66543923       9.02060550
Li       0.41202842       5.99089479       8.67028671
P        8.34392905       3.84555315       3.43310563
P        4.93222492      10.63575291      10.62806967
O        6.14952061       0.38431917       6.21613366
O        8.54289851       9.02592032       2.95226197
O        9.81476160       0.79248233       1.30185183
N        8.63686855       2.38062052       4.05679654
O        3.80598832       9.61294741      11.00550414
O        6.83418227       4.02415928       2.60120137
O        8.08058336       4.90284020       4.52666589
Li       4.29258005       8.17468017       0.55037266
Li       5.42005879       1.58960640       8.15567735
Li       5.95211187       9.70056821       7.53455644
Li       7.74450369       1.55464541       6.38742428
Li       9.15716382       9.20532639      12.26958642
Li       6.65921015      10.42696277       0.45602494
P        7.73899867       2.61637516       8.63189783
P        5.05119413       1.07975819       5.37843704
O        4.81731978       0.08950214       9.07783230
O        8.82000710       6.44006376       7.39985723
O        8.26946820       1.07784873       8.20425007
O        9.89580385       0.93797464       5.60078823
N        6.72632125       2.71075633       9.78603173
O        5.79862019       1.87967968       4.26745567
O        3.47147661       5.98130074       6.76105908
O        6.81409150       3.05331652       7.38909168
Li       3.75675399       8.91618226       8.91104724
Li       2.26349280       4.89896640      11.63830296
Li       2.57912106      10.05957260       0.23746466
Li       3.22057591       1.88893253      11.93199096
Li       8.13148690       1.19270879       2.34185258
Li       5.18283032       0.42362602       2.92501448
P        7.15768115       8.76065921       2.31213937
P        6.45038445       3.34216493       1.21281406
O        5.97424070       5.86859180       7.09674663
O        9.58480027       4.21207871       2.61878495
O        7.24019508       8.83448890       0.72117701
O        0.57788899       5.85500070      10.38861608
N        6.80266148       7.17236574       2.38449122
O        7.19669362       4.24585553       0.23833987
O        4.78009316       1.33127434      11.42777368
O        6.18765624       9.69706107       2.87051152
Li       2.14230484       7.24630542       5.75719246
Li       8.98319070       4.17267454       0.35876255
Li       9.73219169       7.55419804       3.96707140
Li       0.37810745       9.85351585       2.19940870
Li       9.89621107       3.69573847      10.07351081
P        8.70538394       7.86482039       6.76013353
P        4.84914683       6.67828810       6.49417923
O        8.80851083       3.62162241       8.76242714
N        0.43146639       8.05319858       6.87376328
O        7.59473497       8.59752762       7.47768553
O        4.80834626       8.02433213       7.27997268
O        4.25772162       2.07732896       6.24536564
O        8.34199956       7.89784903       5.24063164
124
Lattice="9.90879 0.0 0.0 0.0 10.6625 0.0 0.0 0.0 12.434" Properties=species:S:1:pos:R:3 material=LiPON model=NEP89 temperature_K=900 phase="NVT production" display_name="LiPON｜NEP89｜900 K｜NVT production計算" report_figures="23_LiPON_lithium_MSD; 24_LiPON_transport_comparison; 25_LiPON_temperature_RDF" source_frame_index=1889 relative_time_ps=188.9 pbc="T T T"
Li       6.89388865       7.02372652       9.04408308
Li       3.77026978       7.07985261       8.16047491
Li       7.74453582       9.99982346       5.61483146
Li       1.88205801       8.52664954      11.70758026
Li       2.69298933       8.17895748       5.06267610
Li       8.40554484       5.62530425       6.23353670
P        3.29351950       2.79356867       2.14646847
P        9.78472203       0.80764411      11.88866182
N        1.02875493       3.54558385       4.87323783
O        2.07386435       6.84490854       3.36131561
O        2.15578438       3.34630638       1.31459141
O        5.81115756       9.41940406      10.50173666
O        3.25157098       1.20660273       2.00598894
O        1.13124158       0.05974614      11.48948537
O        0.04190891       8.19683850      11.65364713
O        3.66712303       3.49357143       3.42269613
Li       4.49495204       3.10504579      10.94995387
Li       3.41672774       0.46735970       7.89653360
Li       2.06579958       0.76544536      10.13510323
Li       5.22155601       5.01534705       9.36523102
Li       0.55289822       3.71984367       7.32033390
Li       5.63631544       3.84028385       7.09141483
P        2.78557306       3.11591269       8.98172044
P        0.18814289       2.02298408       4.75273524
O        0.32048051       2.31060555      12.06137488
O        5.28107734       6.99152101       0.28602442
O        2.19963702       1.84586409       8.37512010
O        4.25352070       0.24004237       4.86190365
O        4.30987443       3.29768461       8.41057848
O        0.89243156       0.79160136       4.06220080
O        2.63994978       9.43763070       6.93315490
O        2.69696908       3.07496450      10.54819909
Li       4.63433684       9.16268068       4.24490611
Li       1.50858994      10.28642670       5.23750947
Li       4.80309559       8.85323872       0.65862827
Li       9.34073932       6.75429494       3.23431390
Li       6.92045536       3.19665355       5.58680000
Li       5.13409784       7.00841533       2.42310356
P        2.11658232       8.18446115       2.69271652
P        9.33857555       6.77936111      11.34757184
O        0.73315032       9.75843016       8.74144456
O        4.75511366       3.00366276       1.17264426
O        0.70040608       8.48872714       2.01987353
O        6.51480045       1.26337095       1.78095546
O        2.45209022       9.30186474       3.73875125
O        8.94218655       6.17750301       0.24666874
O        8.57494943       0.57123890      10.90595297
O        3.00341028       8.17491490       1.49380188
Li       6.89811488       4.73796812      11.23010744
Li       7.23733696       1.86689846      10.69866110
Li       6.85794856       8.01651703      11.54926271
Li       5.44922649       3.83981224       3.85311225
Li       9.30046571       1.17752293       7.92176825
Li       9.74837446       1.95666526       1.67959135
P        4.55186870       6.50754634      11.36344430
P        1.51058162       8.85187572       7.82896145
O        8.14675948       6.83908209      10.38113782
O        1.73640335       4.27378974       8.53107108
O        4.46748841       5.00041400      11.39389925
O        5.73110343       5.48123926       5.09920495
O        3.14088807       7.02105344      11.14896139
O        2.10341751       7.72780054       8.60057199
O        1.40674006       4.46269893       5.77780727
O        5.17785672       6.81452812      10.02341524
Li       7.33279406       6.37758817       1.07529198
Li       3.33505207       2.31183012       5.52949948
Li       2.86836896       0.66072732       3.59825732
Li       1.74092598       4.09690530       3.02866025
Li       1.63260568       6.59275969       9.85021927
Li       9.08940477       5.50619466       9.06617042
P        8.44846382       3.86087873       3.33753177
P        4.82172383      10.53209605      10.85382896
O        5.07481216       0.61230933       7.22008192
O        8.24650839       9.51585182       3.08482828
O        9.28310501       0.39882659       0.85351527
N        8.77211824       2.35761159       3.74456121
O        4.27498206      10.48357597      12.25083590
O        6.88209231       3.79982369       2.70387701
O        8.39709670       4.76648707       4.48517452
Li       2.46072665       5.06002052      11.99277127
Li       5.26352354       1.86356066       8.66333674
Li       7.03130751      10.37794766       8.90962365
Li       7.29518287       6.44463612       4.30241935
Li       9.78299662       9.45386617      10.11201368
Li       4.90794612       0.34112838       1.94230204
P        7.74101492       3.22969932       8.45424912
P        5.31834685       0.97398813       5.67618784
O        3.69322019      10.16038526       9.80749455
O        9.00097789       6.64247918       7.68008491
O        7.56404144       1.63885052       8.47484141
O        9.87085380       1.73728463       6.23166059
N        6.75330172       3.74370759       9.64499238
O        6.73415607       0.70610862       5.16878381
O        3.48412182       6.43746012       5.90378353
O        7.37768445       3.90576935       7.15580030
Li       2.62253544       5.47601852       4.58963326
Li       0.06083681       9.94243444       2.90536012
Li       2.53702117      10.63948656       0.64089581
Li       2.59996186       2.32400396      12.24466318
Li       7.22761989       0.20733404       0.18050735
Li       7.67065283       0.55950744       3.24410932
P        7.22261846       8.68031983       2.41229586
P        6.31836010       2.83093497       1.46946151
O        5.25915554       6.16926992       7.50951846
O        9.49192928       4.11961722       2.27437516
O        7.29037611       8.81803874       0.86505868
O        0.49457450       5.75613654      10.67665596
N        7.34083812       7.16606169       2.73056481
O        7.15669473       3.09020583       0.27572392
O        5.25428577       1.35279180      10.30097998
O        5.74307168       9.14430044       2.80032895
Li       1.68033174       5.86314546       7.24672178
Li       0.02506104       4.63505284       0.67709865
Li       5.00674329       9.39773819       7.25196460
Li       9.14402606       8.86014921       0.88767389
Li       0.41421366       3.75642844      10.46124924
P        9.05859288       7.87522865       6.73666356
P        5.04397228       6.56520421       6.03484634
O        9.12357403       3.56555319       8.97835147
N        0.49557364       8.62193590       6.60279408
O        8.11922970       9.14503340       7.16215113
O        5.32001541       8.07637480       5.73870381
O        5.33131953       2.50853605       5.55337461
O        8.85802973       7.50646065       5.28188019
124
Lattice="9.90879 0.0 0.0 0.0 10.6625 0.0 0.0 0.0 12.434" Properties=species:S:1:pos:R:3 material=LiPON model=NEP89 temperature_K=900 phase="NVT production" display_name="LiPON｜NEP89｜900 K｜NVT production計算" report_figures="23_LiPON_lithium_MSD; 24_LiPON_transport_comparison; 25_LiPON_temperature_RDF" source_frame_index=1919 relative_time_ps=191.9 pbc="T T T"
Li       6.96669442       7.23229697       9.07916904
Li       3.12491530       1.42872594       7.21177767
Li       6.83609562       8.56802883       5.14879790
Li       3.56386773       8.59515958      10.07607023
Li       3.82833116       9.41062240       7.27981258
Li       7.80268287       5.25940276       6.11396048
P        3.73107563       3.25231811       1.92786568
P        0.24558304       0.65796369      12.33916318
N        1.22928278       3.21776402       4.91527086
O        2.86060822       6.59772335       3.12112694
O        2.45694746       4.02160477       1.45030845
O        6.88324843       8.94530019      10.14421779
O        3.54186140       1.69188619       2.14879947
O        1.58135752       0.05956689      11.76100566
O        0.28699500       7.42971990       0.27590136
O        4.42832819       3.82113515       3.25509153
Li       6.20513873       1.11458782       8.45985656
Li       2.07952957      10.25654262       5.10151944
Li       1.12701600       0.65149847       9.92083964
Li       6.90765714       4.79467134      11.44831785
Li       0.16975661       1.69498182       8.10332100
Li       0.98024982       4.79751502       7.39364706
P        2.71962379       3.09475927       9.06519098
P        0.10079196       2.01693246       4.65456605
O        0.42455349       2.22024908       0.03580127
O        5.04690297       6.24398715       0.57415986
O        1.97537587       1.85720847       8.48644682
O        4.31571637      10.49042402       5.18127960
O        4.26112234       3.21140661       8.74416625
O        0.94975934       0.82662188       4.09161612
O        1.83762786       9.92257597       6.77926753
O        2.63565838       2.77794176      10.61813679
Li       4.68066535       8.88839909       4.44256101
Li       9.55798251       8.91627802       1.50182387
Li       3.82741404       8.18352767       0.83612601
Li       9.74893845       6.08168777       4.31043688
Li       5.76164346       3.03815159       3.98283736
Li       3.87789133       5.58638189       1.67184345
P        1.97359821       7.89685732       3.12264353
P        9.60652084       6.40401294      11.77584498
O        9.87015802      10.33607074       8.48973363
O        4.86067050       3.25422122       0.68240909
O        0.43900236       7.60699349       3.02318205
O        6.23827016       1.08763594       0.77533476
O        2.26697150       8.60914173       4.51715813
O        8.40568176       5.66888708      12.41033476
O        9.03059190       0.30660641      11.29785781
O        2.31568975       8.75696894       1.91561438
Li       6.21527780       5.39261574       1.64081387
Li       5.78253140       2.72505384      10.31609008
Li       7.48962379       7.73081545      11.47489734
Li       3.26602165       5.01023147       4.75542546
Li       8.69816910      10.58702566       6.84487082
Li       0.79983612       1.96540549       2.04739008
P        4.63870863       6.33461538      11.58025978
P        1.14470624       9.32967738       8.04440128
O        8.95852358       7.09654146      10.51428221
O        2.02528270       4.44313748       8.93869198
O        4.06412279       5.11700014      10.87221015
O        5.36424175       7.99049057       6.28512221
O        3.49134388       7.41010236      11.60202303
O        2.27509456       8.81817278       9.10607076
O        1.56789598       4.46206124       5.40812085
O        5.92197379       6.72497894      10.85448134
Li       5.79979696       5.53713810       4.04151694
Li       3.37610444       1.98930671       4.15638163
Li       2.08006458      10.63300839       1.91434582
Li       1.28521287       5.39276162       1.98243797
Li       2.95236089       4.11095817      11.72578722
Li       9.59523583       6.85131463       8.80621833
P        8.41907112       3.69106915       3.20316870
P        5.74877867      10.04312202       9.95096522
O        6.62643383       0.46408687       6.36851302
O        7.27645484       9.44000797       3.63199092
O        9.76825845       0.04709891       1.29543607
N        9.19022893       2.36294727       3.30131437
O        4.76245218       9.68566521      11.09546565
O        7.47935644       3.15642607       1.89137423
O        7.48343432       3.92224082       4.35891501
Li       5.08300136       4.77401103       9.18066196
Li       5.13736446       3.70313973       6.69052157
Li       8.16417260       1.86566920      10.69839956
Li       9.46988193       9.86430441       3.99682945
Li       8.99684927       9.49178630       9.94448469
Li       4.95943287       0.46798908       2.21614333
P        8.11097370       3.90886183       8.29695002
P        5.50724378       0.88923929       5.18030534
O        5.08325224       9.93009484       8.64050895
O        7.91608914       8.08780892       7.66484041
O        8.33444693       2.34659046       8.61049292
O        9.16170601       1.78451505       5.90457746
N        7.01357692       4.30661324       9.36566481
O        6.16785733       1.18140824       3.81642150
O        3.02475548       7.03306282       6.68222111
O        6.91093128       3.91020513       7.15851234
Li       1.79448431       7.98696946       5.99625741
Li       7.79872762       0.73920172       2.95509282
Li       1.56412479       8.62883744      11.79948351
Li       3.64387889       0.55167242      11.15071385
Li       7.74482703      10.58044589       0.54068579
Li       7.31531827       2.31279588       5.89003283
P        6.54292403       8.64011771       2.49573097
P        6.35130426       2.62643997       0.77782051
O        4.72725216       5.56436096       5.86677473
O        9.14831010       4.96608088       2.85974298
O        7.52092412       8.49440384       1.19029099
O        0.85515464       5.39104480      11.33085192
N        6.41334044       7.08602577       2.85367578
O        6.93345612       2.95574344      11.81244232
O        6.10185976       0.82242242      10.34465757
O        5.03813634       9.32127769       2.34078514
Li       2.86930824       5.85183278       9.44395757
Li       8.92009785       3.69494991       0.54632307
Li       6.43044658       9.33876925       7.23256649
Li       8.29950076       6.61887937       1.81572483
Li       0.38694370       3.46617422      10.66017547
P        9.01295777       8.01557536       6.60289153
P        4.55412305       6.74823726       6.72931839
O        9.28276801       4.79248410       8.19979192
N        0.41952198       7.95881869       7.58797134
O        9.18854405       9.29785227       5.71190515
O        4.86847296       6.53093313       8.32002074
O        4.82685695       2.16396702       5.77518223
O        9.07704880       6.77827634       5.81596796
124
Lattice="9.90879 0.0 0.0 0.0 10.6625 0.0 0.0 0.0 12.434" Properties=species:S:1:pos:R:3 material=LiPON model=NEP89 temperature_K=900 phase="NVT production" display_name="LiPON｜NEP89｜900 K｜NVT production計算" report_figures="23_LiPON_lithium_MSD; 24_LiPON_transport_comparison; 25_LiPON_temperature_RDF" source_frame_index=1949 relative_time_ps=194.9 pbc="T T T"
Li       7.18273935       6.33381241       8.26174662
Li       2.43931943       0.92228775       8.71409025
Li       9.35503489       6.41834586       4.63064637
Li       4.57225647       7.96976266       9.49218983
Li       4.41411098       9.40978536       6.82010407
Li       8.23277767       4.65704918       6.07840484
P        3.65432222       3.21170072       1.92261286
P        0.20739052       0.64021760       0.09751237
N        0.75566842       3.63038766       5.38176098
O        2.50224413       6.75356867       3.09515369
O        2.33860400       3.99524759       1.46928139
O        5.52957819       9.21859914       8.71224564
O        3.29964892       1.70258777       2.19878275
O        1.59314996       0.00080941      12.04560533
O        0.51322442       7.20206799       0.68635624
O        4.14906020       3.91120125       3.12084758
Li       5.30290605       1.81222964       8.03902567
Li       3.44889635       2.26127993       4.10862760
Li       0.34744173       1.27611963       7.09139556
Li       6.70777923       5.34554481      11.45388118
Li       2.56312718      10.41222700       5.33538298
Li       0.52644674       1.15004062      10.04869727
P        2.55661201       3.39162466       9.05363512
P        0.32926840       2.15505053       4.50667701
O        0.49925494       2.19516919       0.07593315
O        5.10299967       6.62744792       0.66587452
O        2.05220273       2.47795670       7.78686995
O        4.23667146      10.51912883       4.85374589
O        4.09408404       3.59210879       8.79155779
O        1.55668392       1.47692753       3.95466209
O        2.22818933      10.14849650       6.93556603
O        2.08405577       2.71975420      10.30831942
Li       4.13440619       8.89303270       4.34788911
Li       9.57755827       9.17237875       1.64504931
Li       4.44902184       7.02445719       2.57512745
Li       0.69848543       4.14432220       7.24978830
Li       5.96074118       3.44885767       4.47173379
Li       1.92261366       8.48722281       0.33005999
P        1.80336843       8.08446488       3.33578205
P        9.87909363       6.31057274      11.93616497
O        0.78057449      10.22214450       8.94004812
O        4.74670303       3.17656055       0.77880943
O        0.23080903       7.87489367       3.39768441
O        6.41584582       0.99612720       0.99949347
O        2.29840018       8.45428755       4.74051055
O        8.34579306       6.18951934      11.86529722
O        8.93479008       0.48176316      11.39394076
O        2.01976165       9.15650386       2.21627286
Li       8.29228947       6.83760361       1.64639820
Li       4.87739688       5.03771313       9.87344192
Li       7.04915576       8.19295426      10.17921830
Li       2.54573481       4.90429270       4.03114227
Li       6.88898408       6.79009495       4.89726090
Li       1.89611425       0.23828437       2.54613876
P        4.45263300       6.66168664      11.67691229
P        1.60820376       9.25062067       7.96020476
O        0.53018455       7.06198027      10.55592464
O        1.78180594       4.68227031       8.96666978
O        3.85701695       5.36946053      11.30065522
O        5.02603789       5.97667272       7.81299510
O        3.56876090       7.90220328      11.34923289
O        2.66107636       8.37938238       8.60317783
O        1.10050028       4.86068885       5.14483612
O        5.86077103       6.84553542      10.73186030
Li       6.40191133       5.24556262       2.76066024
Li       2.64546280       2.99814315       6.30343841
Li       4.92799372       9.12730065       0.15050727
Li       0.73154822       2.95254987       1.75083446
Li       1.80719143       3.48497990      12.04065186
Li       9.87882308       5.77443377       8.98076375
P        8.38686157       3.86374055       2.97115782
P        5.42225393      10.41841125       9.78281032
O        5.97030057       0.52955454       6.46143339
O        7.55556344       9.38266672       3.77354553
O        9.57062033       0.23412636       1.44339100
N        9.39008549       2.56600685       3.28979496
O        5.97644769       9.60405903      11.16308752
O        6.93885173       3.29479646       2.27785058
O        8.01537561       4.41072581       4.34385513
Li       5.02687475       3.77445890       7.12975673
Li       2.88340400       6.41787444       8.35211045
Li       7.59016853       1.81596644      10.79427139
Li       9.30376859       8.96319133       4.64067999
Li       9.23691504       9.19220357      10.02086734
Li       4.36197429       0.24077309       2.62511688
P        7.93041775       3.62208796       8.34707199
P        5.12951447       0.95073942       5.38336030
O        3.87149673       0.12218075       9.88691054
O        8.23521111       7.77974557       8.66673528
O        8.82864653       2.54982959       9.10396335
O        9.39227791       1.37211282       5.45231977
N        7.03243460       4.28395396       9.48330926
O        6.06997810       1.42215075       4.26571212
O        3.10581902       5.46374495       6.22301163
O        6.91945189       3.20955378       7.29985849
Li       1.90704449       7.05873755       6.14859609
Li       8.16004613       0.86532292       2.32844449
Li       2.51708297       9.69972333      10.47755248
Li       3.03432253       1.35965996      11.44120261
Li       7.30712444      10.22816866      12.31395613
Li       7.65136418       0.72503369       5.22459260
P        6.73958744       8.73099562       2.68184894
P        6.33801537       2.54936359       0.76510239
O        4.52532641       7.73063020       6.00665879
O        9.38588480       4.74842965       2.27707575
O        7.38781820       8.94299553       1.24732771
O        0.59400769       4.83900708      11.90983066
N        6.71338465       7.21805930       2.98013267
O        7.05308958       3.14327913      12.05030961
O        6.26372781       0.95185947       9.46516527
O        5.25448713       9.21064885       2.58519599
Li       1.99756133       5.63777906      10.73718424
Li       9.30619258       3.52169343       0.00278095
Li       6.77914283      10.08027863       7.48734334
Li       1.41925160       5.69472343       1.46220159
Li       9.89159471       3.73945846      10.20739234
P        8.93920116       8.30585771       7.34333676
P        4.54047400       6.13973524       6.25269071
O        9.00248792       4.67342271       7.70991944
N        0.55787284       8.20986657       7.46739539
O        8.51908676       9.63160988       6.85961315
O        5.56736262       5.47475209       5.39141440
O        4.38057141       2.25040337       5.88907080
O        8.58458166       7.26327145       6.28150049
124
Lattice="9.90879 0.0 0.0 0.0 10.6625 0.0 0.0 0.0 12.434" Properties=species:S:1:pos:R:3 material=LiPON model=NEP89 temperature_K=900 phase="NVT production" display_name="LiPON｜NEP89｜900 K｜NVT production計算" report_figures="23_LiPON_lithium_MSD; 24_LiPON_transport_comparison; 25_LiPON_temperature_RDF" source_frame_index=1979 relative_time_ps=197.9 pbc="T T T"
Li       6.86165278       8.25434259       9.56410845
Li       2.22242020      10.62860306       4.51309013
Li       9.08677576       7.46659417       4.40519192
Li       4.27890660       8.06656411       9.21832420
Li       5.82353728       9.47204305       7.52415822
Li       7.85494408       5.43668520       5.86200821
P        3.66882166       3.50583925       1.50198875
P        0.17221356      10.49734591      12.32749669
N        0.96827692       3.63161318       5.37822531
O        2.24097727       6.53773522       3.29744830
O        2.57682353       4.33113612       0.98813576
O        4.98606556       9.83697085       9.26761339
O        3.15878589       2.07595484       1.54963793
O        1.60003719      10.08370976      12.03870902
O        1.26627032       6.57214316      12.34290960
O        4.14372255       3.86070568       2.95033816
Li       4.82750965       4.94715226       9.07301754
Li       1.51290357       1.30271898       2.36549463
Li       0.74923284       0.86281215       9.27402472
Li       7.61858183       6.30241305       8.85346486
Li       0.61612831       0.74533487       6.96709927
Li       3.33540633       0.17275262       8.29336859
P        2.42680963       2.95548208       9.14987004
P        0.00102637       2.38094805       4.91328552
O        9.59578332       0.76408591      11.19547282
O        5.08515465       6.20871541       0.63108213
O        1.80393026       1.92659176       8.27817840
O        4.11277401       0.66148260       4.11364684
O        3.90478263       2.96653869       9.19650363
O        1.06005989       1.40638063       4.26551731
O        2.28002930       9.87057738       7.11110543
O        2.13334170       2.63913111      10.62053799
Li       3.54296903       8.77422019       5.48208020
Li       9.85674603       7.46814153       0.94727415
Li       4.21668559       6.55088601       2.33582464
Li       0.16269363       3.33352839       8.29198460
Li       7.07230280       0.90084757       3.59054266
Li       1.95594101       8.39783411       0.55781988
P        1.72817081       8.00820867       3.19874080
P        0.28765838       5.83411411      11.43148568
O        2.35137462       8.67010787       9.14870794
O        5.03024540       3.67476453       0.65726410
O        0.30536583       8.21775450       2.70132699
O        6.35257510       1.71019616       2.02388437
O        1.85288831       8.65554527       4.56923737
O        8.77823281       6.29646099      11.79810202
O        9.40013001       9.09532528      12.25104555
O        2.76087602       8.51205741       2.18723447
Li       6.94683222       6.49990077       0.25440298
Li       5.25930860       3.43223693       6.31412068
Li       8.21560187       0.49449873       9.78733571
Li       3.35984116       5.44970435       4.39643696
Li       7.75021538      10.23861742       5.30821493
Li       4.08383816       9.10593022       0.90740879
P        4.65762936       6.83410209      11.65250981
P        1.46570348       8.92645437       7.95100299
O        0.53247573       6.34495979      10.04358963
O        1.79167688       4.39522501       8.67216164
O        4.01323502       5.79970551      10.64148794
O        5.02040605       7.06426199       7.77986451
O        3.74438253       7.95995398      11.95413403
O        1.07915180       7.58947558       7.23858373
O        1.47363959       4.80875356       5.14048296
O        6.14892951       7.39512283      11.24648054
Li       6.64439721       5.84933017       3.77559347
Li       2.90163928       2.53658550       3.81810668
Li       7.43516497       8.72562351      12.25664756
Li       1.24592721       3.07370591       0.52514690
Li       2.59095744       4.66446433      11.60812857
Li       0.12712866       6.20420053       8.27188241
P        8.63273249       4.10062654       3.17479347
P        5.59755382       0.04350839      10.46968828
O        4.84365821       9.75772585       5.80291632
O        7.38542997       9.33175075       3.48319215
O        0.02862702       0.59464098       1.20328916
N        8.78209216       2.64541175       3.75734957
O        6.98003899       9.96279436      10.94249095
O        6.95948036       4.17282964       2.46232944
O        8.43149392       5.27319021       4.06641768
Li       5.46462910       1.77365201       8.22201780
Li       2.60521450       3.69687055       6.72126595
Li       5.75911082       3.05255265      10.93169304
Li       9.10245809       9.99966820       2.92381185
Li       9.41262213       8.35823538      10.35265596
Li       4.26979953       0.68622600       2.21510416
P        7.53256225       3.89250553       8.63714954
P        4.83486498       0.58613136       5.52392524
O        4.66019725       0.23047391      11.75856997
O        8.27498093       8.06200449       8.79517514
O        8.57233756       2.89189285       9.32149797
O        9.25938271       2.13400114       6.33286118
N        6.66515163       4.73382783       9.63032750
O        6.31919822       1.01155019       5.35516643
O        4.10053744       4.78009408       7.19824156
O        6.68810437       3.26725035       7.53064618
Li       1.94143953       6.83121371       5.65167983
Li       9.00316993       2.30066668       1.10940365
Li       2.17933440       8.21058453      10.87700604
Li       2.70811666       0.76421005      11.58005684
Li       6.66334881      10.56965352       0.44336390
Li       7.52021825       1.79228200       6.76147530
P        6.51338328       8.68959681       2.35389327
P        6.52753440       3.16745297       1.41017221
O        3.94071802       6.72995373       5.48697680
O        9.54387235       4.28897173       1.82829577
O        7.56640933       8.05669915       1.39463760
O        0.32640683       4.31822991      11.74045265
N        5.91533645       7.42247334       3.12062781
O        7.25936493       3.14775429       0.00100061
O        5.90872601       1.45014033       9.99895576
O        5.49200222       9.73052596       1.90913928
Li       2.66857453       6.08991827       9.18424292
Li       8.62302849       4.70128315       0.47578029
Li       6.40326931       8.53881639       4.79806089
Li       1.22965773       5.31532881       2.31849872
Li       8.81195692       2.53102078      11.10395698
P        8.59072595       9.24663229       7.71900086
P        4.78133904       6.09052177       6.70046665
O        8.48711417       4.93469590       7.88819855
N        0.10645064       9.76347597       8.09665887
O        7.66422279      10.57568159       7.65724826
O        6.12373828       5.77845189       6.09850289
O        4.09042132       1.37854934       6.60023570
O        8.46330024       8.66079179       6.25528787
124
Lattice="9.90879 0.0 0.0 0.0 10.6625 0.0 0.0 0.0 12.434" Properties=species:S:1:pos:R:3 material=LiPON model=NEP89 temperature_K=900 phase="NVT production" display_name="LiPON｜NEP89｜900 K｜NVT production計算" report_figures="23_LiPON_lithium_MSD; 24_LiPON_transport_comparison; 25_LiPON_temperature_RDF" source_frame_index=2009 relative_time_ps=200.9 pbc="T T T"
Li       7.25333346       6.72359623       9.15102819
Li       2.45260703       1.17849456       5.95159603
Li       0.66302564       9.88750703       5.13526214
Li       2.59893993       7.87487707       5.96743662
Li       5.54635097       8.63666705       9.06183034
Li       7.56500151       5.29476459       6.11999528
P        4.26582910       3.44140755       1.62352577
P        0.40203893       0.27617044       0.39090445
N        1.25563544       2.69358690       5.02121190
O        0.99835578       6.49073526       4.88111265
O        3.06555962       4.27387048       0.95545531
O        5.19364639       0.19267385       9.32290494
O        3.83766697       1.92364053       1.67850036
O        0.90807452       1.70981736       0.85660671
O        1.38432784       6.77327220      12.25128371
O        4.56368670       4.10030514       2.93957411
Li       2.82841315       6.59466143       8.46278291
Li       9.11398010       8.44161857       1.18912172
Li       2.66402697       2.37201506      12.11275352
Li       7.42632042       4.47688144      11.43194393
Li       0.01465058       1.19564913       8.21085244
Li       3.40669939       0.71063000       8.33167903
P        2.16957812       3.47189667       9.14623676
P        9.68407156       2.03916099       4.69675060
O        9.85988088       0.53221718      11.24992562
O        4.26638217       5.39279173      10.68169270
O        1.58132844       2.45516573       8.05539491
O        3.64369101       0.58444203       4.55384797
O        3.69184619       3.43149196       8.86537378
O        0.19899751       0.76575125       3.94898973
O        1.96033964      10.51087189       6.89423725
O        1.79425646       3.10578327      10.69030472
Li       4.75975424       8.53722599       4.09494902
Li       8.62798552       7.73008511       4.16152252
Li       4.08947519       6.59141783       3.11393268
Li       1.57869534       4.28050724       6.65026576
Li       5.07909047       1.14853335       3.00500353
Li       1.70237681       8.24520968       1.07514638
P        1.52083519       7.47306018       3.65246864
P        9.88664330       6.57681905      11.56617161
O        1.90759246      10.09312967       9.46141770
O        5.55670554       3.39145430       0.66325685
O        0.37484018       8.09822983       2.87737941
O        6.85454404       1.71713028       1.94509458
O        2.30962809       8.62230682       4.29685740
O        8.85400286       7.16503489       0.00241793
O        1.63779676      10.14316703       0.50493030
O        2.35912749       6.54850277       2.71310059
Li       5.63918796       6.03957154       1.11694250
Li       7.19668429       2.91043675       5.10450613
Li       7.90147755       1.37890644      11.05223518
Li       1.63714374       5.33830137       1.47126445
Li       6.37885889       8.31311261       6.25653201
Li       4.62235855       9.10866302       0.39005144
P        4.53502866       6.92279850      11.10928018
P        1.41740328       9.61422467       7.99894878
O        0.04337950       7.16342132      10.18444721
O        1.59566831       5.00619816       8.91229023
O        3.85328166       7.83697488      10.06050445
O        5.44778815       6.43969601       7.61575822
O        4.27287463       7.20020617       0.16306173
O        1.94461329       8.20818422       7.76706846
O        2.51662284       2.99293086       5.02397301
O        6.11784207       7.08885530      10.84530382
Li       6.29650065       5.48891120       3.91380183
Li       4.21601779       3.52096590       4.73699833
Li       7.27041586       8.22728486      11.59547242
Li       2.11833223       1.46117315       2.63241113
Li       2.56284934       5.11562569      10.99380282
Li       9.58129392       5.47512869       9.09621210
P        8.73312979       4.34754913       3.17000900
P        5.65330738       0.52307488      10.78166547
O        5.30768461       9.80958388       5.71960328
O        7.55949088       8.86762514       3.27982437
O        9.15806271      10.29841542       1.22883075
N        8.78917286       2.86833414       3.65653441
O        7.07522794      10.39260568      10.97264177
O        7.71378604       4.28757165       1.82212833
O        8.03407409       5.28926224       4.28440840
Li       6.96719140       0.76833841       7.56867700
Li       4.62087201       2.93470291       7.11258055
Li       4.94616007       5.19312019       8.82023485
Li       8.95947231      10.14963044       3.07831261
Li       8.54138319      10.45050905       9.76066118
Li       3.65699372       0.48310443       0.75336514
P        7.53149096       3.60833521       8.59921662
P        4.84340613       0.59697589       5.61767739
O        4.62419583       0.00126783      11.76575598
O        8.66061720       7.20060470       7.77655710
O        8.43704445       2.62538158       9.43639944
O        8.91029322       1.79619468       5.94588893
N        6.95931292       4.52734635       9.67186713
O        5.72694359       1.54830124       4.83463314
O        5.52568236       4.61035413       5.89253809
O        6.42995785       2.81275547       7.90375720
Li       0.13127171       6.58548213       6.65817429
Li       3.06185208       9.85956392       3.28101980
Li       3.17083933       9.61634303      10.66679388
Li       5.45479357       3.84291032      10.63375920
Li       7.34740497       0.21700969       0.94041071
Li       7.64292542       0.33415767       5.05056297
P        6.46414347       8.55413148       2.36040417
P        7.09411345       3.02604656       1.13574262
O        3.19792100       5.82399290       6.39218031
O        0.00751856       4.87181710       2.48000092
O        6.96439012       8.74009644       0.94141882
O        9.45127798       4.98759170      11.40603437
N        5.90708133       7.12547968       2.79739553
O        8.01297366       2.70063111       0.02658119
O        5.59789455       2.06488246      10.81301224
O        5.03519711       9.31405386       2.30658466
Li       1.67162259       8.18697063       9.83415045
Li       8.95025797       1.89112291       1.89653467
Li       1.58237275       4.71837811       3.91797282
Li       9.52071546       3.16742787      11.30060878
Li       1.67126718       1.02762359      10.49066040
P        8.55058292       8.68160096       7.49291055
P        4.84358268       5.92015748       6.28343801
O        8.37792597       4.36589862       7.53364600
N        9.69206730       9.78600983       8.17654192
O        7.19889414       9.05213248       8.22247096
O        5.42732498       6.84639880       5.30575871
O        4.33872816       1.30745653       6.89509753
O        8.46130178       9.21064816       5.95583617
124
Lattice="9.90879 0.0 0.0 0.0 10.6625 0.0 0.0 0.0 12.434" Properties=species:S:1:pos:R:3 material=LiPON model=NEP89 temperature_K=900 phase="NVT production" display_name="LiPON｜NEP89｜900 K｜NVT production計算" report_figures="23_LiPON_lithium_MSD; 24_LiPON_transport_comparison; 25_LiPON_temperature_RDF" source_frame_index=2039 relative_time_ps=203.9 pbc="T T T"
Li       7.45909397       2.75329929       5.82684738
Li       3.19504298       2.05506986       6.31788918
Li       9.59578382       9.48176724       4.25758866
Li       2.20323022       7.61178390       5.77239207
Li       3.87355210       9.36201909      10.87165031
Li       7.81164968       5.41767481       6.22808202
P        4.00045137       3.58852826       1.77639404
P        0.20765561       0.54393730      12.20653529
N        1.44658265       2.73918904       5.00352813
O        2.17513336       6.47762111       4.02184567
O        2.98979865       4.23385123       0.83581520
O        5.15466299       0.03127310       9.75277995
O        3.40761138       2.11124759       2.05266156
O        0.78563369       1.92192851       0.08600995
O        0.19864540       5.18156025      11.85266275
O        4.21097836       4.27857777       3.14954666
Li       3.36716873       5.92017196       7.86839761
Li       7.14399790       0.29479179       9.19629372
Li       1.33228966       0.09357364       1.97573015
Li       6.93323856       4.58820889      10.48745147
Li       0.36934327       3.72283319      10.51117782
Li       2.57713103       0.80385254       9.18616073
P        2.24893778       3.36413959       8.48012323
P        0.02416297       1.91372653       4.75457627
O        9.70835742       0.48541365      10.76001163
O        5.00787320       6.10562296      12.01777929
O        1.87845245       1.97530127       7.96490837
O        3.91279951       0.55532308       4.64266411
O        3.63193330       3.73120050       7.88643698
O        0.33595858       0.55112395       3.95390527
O        2.88561269       9.20116514       6.97282253
O        2.11069296       3.42549664      10.05021965
Li       4.72321070       9.40324806       7.46285307
Li       8.56275462       7.13324849       5.12090059
Li       3.79583150       9.38008190       4.00788354
Li       0.23890123       3.08822221       7.19365087
Li       3.37018474       9.60449322       1.10987518
Li       9.18443079       8.90713353       1.20593674
P        1.73858953       7.72072920       3.29145830
P        9.21078273       6.51706071      11.49239555
O        2.31496745       9.28855330       9.50109452
O        5.56989326       3.55953415       1.11812669
O        0.18296716       7.62925988       2.92149762
O        6.83775781       1.58629943       2.06300458
O        2.02005563       8.89520564       4.26002387
O        9.24052200       7.48703746       0.15774708
O        1.45593039      10.27032263       0.12977941
O        2.75904182       7.76208601       2.06853977
Li       6.73273789       6.00049040       0.38512336
Li       7.84149680       0.33858736       6.76329184
Li       8.14967723       1.95602027      11.00168486
Li       9.13635573       6.32356215       1.90061292
Li       7.07063557       9.30889987       5.23856958
Li       6.70209952       9.05488358      11.44355246
P        4.38779817       6.82595376      10.74211339
P        1.97143583       8.67240093       8.12496772
O        9.76892749       7.12969538      10.16295942
O        1.17870261       4.43341865       8.04725522
O        4.09011453       5.80202743       9.56506241
O        6.14088751       6.54507662       7.64019951
O        2.95299447       7.12677310      11.31441506
O        1.95964392       7.13001515       8.18710894
O        2.05581995       3.83140887       5.44310573
O        5.33084077       8.03959212      10.51947633
Li       6.01460065       5.98975299       3.46679030
Li       3.51976453       5.42516276       4.66676072
Li       5.57346800       5.34664961       8.66224865
Li       3.41245448       2.41173046       4.02530471
Li       2.16005846       5.97906042       0.28801851
Li       0.25111625       6.02079594       8.31006982
P        8.79251699       4.32037148       3.69907442
P        5.26045506       0.90101797      11.11976901
O        6.52042023       0.64042917       5.08454772
O        7.42640633       9.12247916       3.27146864
O        9.03173398       0.18331867       0.84275228
N        8.60406422       2.83583611       4.27842791
O        6.76745594       0.54605076      11.38125895
O        7.31006665       4.03731872       2.91900712
O        8.95952665       5.21203448       4.92923384
Li       6.73821009       7.93636307       9.16735953
Li       5.19567273       1.88635183       8.28055542
Li       5.27957922       3.76167578       6.79443703
Li       1.78392282       8.37726153      10.99168659
Li       9.59433658       9.36147900       9.67736439
Li       2.69206754       2.05394931      12.23084871
P        7.56670675       2.97020832       8.50316555
P        5.11537890       1.03571868       5.55516438
O        4.33463160       0.25418010      12.11573725
O        8.62133710       7.07387968       7.09707140
O        8.35843515       3.26832448       9.79999904
O        9.51572350       1.45235460       6.11254308
N        6.19931687       3.55295575       8.71155805
O        4.97826226       2.60389559       5.57605470
O        6.36229505       6.15648812       5.12128425
O        7.78659506       1.56395823       7.99726990
Li       0.73315414       5.42066958       5.75958913
Li       2.15392918      10.33524792       5.36674923
Li       4.32578872       7.31083512       1.07028356
Li       4.05968084       3.87130125      11.16509053
Li       6.83615592       0.17671610       0.66247576
Li       0.43553144       0.39243125       7.52179694
P        6.44609531       8.73891870       2.18895792
P        6.95780504       3.05494353       1.52777977
O        4.21938455       6.30229842       6.22508030
O        9.90256923       4.67684613       2.69071193
O        7.03997193       8.94920800       0.80538937
O        7.64973511       6.04957301      11.26116776
N        5.91958749       7.30688866       2.00142381
O        8.00741765       3.13166871       0.51818573
O        5.00751622       2.40966195      11.11299520
O        5.12546593       9.59356712       2.52797231
Li       2.31511875       5.60519458      10.56048819
Li       4.81226143       0.90638352       2.55353157
Li       2.00989996       4.80141848       3.06830727
Li       7.88979622       0.71994865       3.70771265
Li       9.81344529       3.61628398       0.81882740
P        8.94982277       8.62461428       7.36088660
P        5.67694411       6.93248709       6.26343655
O        8.11763124       3.98314319       7.32642897
N        0.53025556       9.09937985       7.91404546
O        8.09822020       9.31975465       8.43812133
O        5.83641907       8.52714878       6.28994831
O        4.83647854       0.67856509       6.94393867
O        8.93589006       9.53895261       6.06675026
124
Lattice="9.90879 0.0 0.0 0.0 10.6625 0.0 0.0 0.0 12.434" Properties=species:S:1:pos:R:3 material=LiPON model=NEP89 temperature_K=900 phase="NVT production" display_name="LiPON｜NEP89｜900 K｜NVT production計算" report_figures="23_LiPON_lithium_MSD; 24_LiPON_transport_comparison; 25_LiPON_temperature_RDF" source_frame_index=2069 relative_time_ps=206.9 pbc="T T T"
Li       7.18873077       3.57954735       5.65351141
Li       4.27308960       0.95263804       1.68175931
Li       2.52225377       2.21306379       6.47649210
Li       3.16159397       5.96382547       8.36930945
Li       2.00193150      10.58981689      10.05020595
Li       8.81430466       5.67317797       6.35201479
P        4.11840222       3.95653858       1.26919548
P        0.86719931       0.31719614       0.58155723
N        1.63712786       3.11388020       4.92598772
O        0.51489538       6.79426616       5.29349037
O        3.08335460       4.21485402       0.13592993
O        4.52106660       0.15693238       9.22054460
O        3.65300675       2.66522878       1.86239440
O        1.13187447       1.77862492       0.65397901
O        9.78435685       5.75340022      10.85589128
O        4.16515929       5.11678564       2.22144077
Li       3.33794596       8.44997422       9.80181571
Li       3.11427024       0.30170632       8.17648924
Li       9.47678015      10.14474932       3.02340483
Li       7.52491667       4.94246001      11.43069018
Li       8.67451960       6.80285939       8.39475277
Li       9.54757350       0.97765168       9.62457665
P        2.12578127       3.16175610       9.00716191
P        0.28702794       2.06064532       4.71733584
O        0.49016919       0.02476750      11.46071823
O        5.97391559       5.98231852      11.72195714
O        1.75867753       1.70303630       8.52848277
O        4.07605963       0.27901104       4.37515034
O        3.63434090       3.39136151       8.81097156
O        0.74197444       0.75938180       3.94184493
O        1.64054130       9.88032596       7.48484770
O        1.62801090       3.28171676      10.48795271
Li       3.51467028       7.96969383       6.16608905
Li       0.54364775       9.24124551       5.72683130
Li       4.13746790       9.13998904       3.98599230
Li       9.71563496       3.46342586       6.73417155
Li       2.54070226       8.53889572       0.51343998
Li       8.86548413       8.85727435       0.72254234
P        1.24389043       7.44766041       3.95566567
P        9.65083351       6.92789524      11.83921794
O        1.64845670       8.79904265       9.56763396
O        5.53777505       3.58281879       0.57369456
O        0.09899227       7.99766544       3.13276274
O        6.98452093       1.55008878       1.70162466
O        2.08444552       8.72401816       4.48000395
O        8.79575359       6.46078950       0.63413298
O        1.97837551      10.12361770       1.20799773
O        2.35233692       6.62926725       3.23476767
Li       6.86612761       5.96539108       1.10382490
Li       7.48229846       1.35465435       6.67563082
Li       7.56804691       2.09132502      10.92541840
Li       9.73418620       6.23304691       2.11363481
Li       6.95706016       9.02394659       5.29263919
Li       7.34280612       8.92922007      10.17347318
P        4.76379024       6.90465331      11.10085312
P        1.38960136       8.47070921       8.09736981
O        1.09830360       7.40074109      12.22634539
O        1.38116140       4.19728393       8.05786818
O        3.66917673       5.94611381      10.41137574
O        4.98033390       5.87198217       7.41108924
O        3.92848197       7.90451028      11.95491894
O        2.05066644       7.16630158       7.60920947
O        2.93289016       3.32832688       5.02339290
O        5.14279943       7.91284222       9.89194762
Li       8.23985079       7.34853916       4.24568153
Li       5.42232358       2.63491028       3.34422945
Li       6.04365978       6.47884008       8.55033918
Li       6.48640220       5.48612693       3.73861248
Li       0.01619396       4.29474392      12.09326607
Li       1.37559760       5.72895614       6.46869973
P        8.79954997       4.01357262       3.31071859
P        5.04721812       0.61787536      10.69759930
O        5.61798991      10.29749422       6.22640709
O        7.32274861       9.66902056       3.41918237
O        9.27957283       0.05707572       1.23786798
N        9.17146424       2.49056816       3.64794169
O        6.30936197      10.37992855      11.08655859
O        7.39014384       4.02164886       2.51930452
O        8.52385904       4.95749327       4.54328596
Li       5.59996356       9.84786602       8.10846038
Li       4.48041437       3.92019627       7.10407804
Li       5.36238390       1.89659959       8.50148037
Li       2.28962359       5.38391694      11.43525993
Li       0.13935246       9.20456359      10.53179754
Li       2.56068407       2.52626551      11.84143986
P        7.64012620       3.72733574       8.62173226
P        5.05113725       0.87600880       5.52779698
O        3.97919638       0.45297204      11.79202446
O        7.43080114       8.26674327       8.28492605
O        8.30508808       2.65160717       9.37590950
O        9.56508850       1.75508892       6.04482666
N        6.82510025       4.67245455       9.50397524
O        6.21070621       1.63147452       4.73380609
O        6.90685122       6.66762852       5.78461998
O        6.81743288       2.95906248       7.46244306
Li       4.14796050       7.03052875       3.01630503
Li       2.10263322      10.18615971       3.13838764
Li       1.68921082       5.07357500       2.45754297
Li       4.89969573       3.93658436      10.44679396
Li       7.52267580       0.11801304       0.50385418
Li       0.33430748       0.94117509       7.67441101
P        6.56515993       8.72832134       2.41147366
P        6.94580905       2.94421661       1.09761457
O        5.53047891       4.60088702       5.42658967
O        0.02417808       4.45186114       2.35911301
O        7.11236674       8.97252833       0.99913106
O        8.83965509       8.18000216      11.20119984
N        6.75743960       7.21727015       2.67410657
O        8.12986010       3.18524195       0.15459299
O        5.45653132       1.98876734      10.49653733
O        4.99671348       9.03103077       2.42268035
Li       0.36272430       5.37470666       9.07051207
Li       5.54357982       9.36443256      12.42266186
Li       1.86419085       2.07154784       2.58812656
Li       7.78163003       1.24399185       3.50613974
Li       9.32358680       2.16763695       1.22600194
P        8.56514459       9.16046439       7.83302993
P        5.45737708       6.08303847       5.89122520
O        8.52568636       4.77325407       7.89964093
N        9.76799665       8.22103570       7.77777138
O        8.73104095      10.28505861       8.78893914
O        4.53726245       6.93040255       5.01129824
O        4.47470738       1.63620021       6.70507853
O        8.58740531       9.51262785       6.33216808
124
Lattice="9.90879 0.0 0.0 0.0 10.6625 0.0 0.0 0.0 12.434" Properties=species:S:1:pos:R:3 material=LiPON model=NEP89 temperature_K=900 phase="NVT production" display_name="LiPON｜NEP89｜900 K｜NVT production計算" report_figures="23_LiPON_lithium_MSD; 24_LiPON_transport_comparison; 25_LiPON_temperature_RDF" source_frame_index=2099 relative_time_ps=209.9 pbc="T T T"
Li       7.41267991       3.91510543       5.80248463
Li       4.78057201       0.73416040       2.03237770
Li       1.98930469       1.12302233       6.59456703
Li       2.33243657       5.51920412       8.74006061
Li       3.45260913       1.73187041      12.18066035
Li       9.51999631       5.62188915       5.89059867
P        3.61511940       3.81886942       1.70073737
P        0.56520816       1.02826453      12.24425363
N        0.63438870       3.77445147       5.62474132
O        1.27892527       6.88016470       4.12458747
O        2.65453386       4.54947040       0.81625480
O        4.81663960      10.22552757       9.11791942
O        3.10640372       2.35812585       1.85624320
O        0.73651665       2.57283395      12.42705513
O        0.69258890       6.07544152      10.63632184
O        3.74694974       4.34102494       3.18675599
Li       1.72482197       9.23551779      12.13038338
Li       3.56459508      10.27023803       7.77583271
Li       1.29575472       0.05764677       2.84380858
Li       6.81334231       5.15871530      11.13720717
Li       8.99046552       6.31304673       9.33091580
Li       0.64617204       0.38743004       8.81854186
P        2.94575251       2.59936626       9.33409436
P        0.32763487       2.21306686       5.16881194
O        9.55155694       0.75509681      10.98616708
O        5.39587773       6.13922369      12.27511653
O        2.66150800       1.04839643       9.01288709
O        4.88570273      10.58506189       6.30351222
O        4.12500416       3.16599965       8.55975848
O        1.53297235       1.74891402       4.34210306
O        2.27190294       9.03026927       7.22471357
O        3.30249105       2.87180447      10.77169103
Li       3.87429325       7.81071273       8.85880224
Li       8.90727253       9.21604108       4.95054930
Li       4.11232554       9.56940292       3.38025479
Li       0.13705967       3.43749995       7.96338082
Li       6.15530425       5.73150570       1.43878654
Li       9.54031010       9.23286518       1.32011147
P        1.25825185       8.08388442       3.24610113
P        9.56566945       6.64013214      11.74243437
O        2.04435127       8.67533906       9.78190218
O        5.00080395       3.63282517       0.77044996
O        9.72981679       8.48732084       2.98975619
O        6.45191779       1.45941629       1.32960385
O        1.88520869       9.24158939       3.90067365
O        9.35474114       5.90531443       0.67282416
O        1.90338953       0.25485713      12.05103725
O        2.22838084       7.77264572       2.09631008
Li       8.22237234       6.85399772       2.12883813
Li       7.78181150       1.63786723       6.66412202
Li       8.12185875       1.97050871      10.86803045
Li       7.24221681       7.17332268       4.83883400
Li       6.53350902       9.31508699       5.63446791
Li       6.65851391       8.15925931      11.46631203
P        4.53117376       6.85988004      11.23963280
P        1.43992031       8.38841022       8.37106783
O        0.21574245       8.04416045      12.13927653
O        1.66326328       3.50892997       9.07102182
O        3.47334405       5.88748594      10.61012978
O        4.02863910       6.33934481       7.56687716
O        3.62927710       7.94754277      12.00341911
O        1.09589731       6.97672133       8.22940332
O        1.37246817       4.81194187       5.99911354
O        5.38647821       7.44094276      10.15073079
Li       5.60001637       4.10421656       4.16456186
Li       7.47455081       0.83690218       3.94301344
Li       6.08032428       6.77597443       8.58552314
Li       2.92152269       6.06515577       3.62319842
Li       2.90036532      10.39432615      10.34096525
Li       2.14182490       6.56836272       5.99090247
P        8.56118447       3.60463343       3.54078027
P        5.63202414       0.09793431      10.36870148
O        4.15638559       2.20099380       5.93688429
O        7.20026834       9.47272365       3.65379097
O        9.79150311       0.57323682       1.19467796
N        8.87868608       2.26728362       4.26663930
O        6.94507829       9.89519692      10.65687997
O        6.91880075       3.29405350       2.75337481
O        8.31312408       4.74893513       4.49302740
Li       6.70238703       9.50435685       8.30344925
Li       4.42033511       3.72439818       6.85512757
Li       5.41562720       1.33869068       8.12028230
Li       1.84931353       7.26507664      11.10357248
Li       9.01641738       9.40540684      10.25927572
Li       5.07708524       3.09053685      10.89397586
P        7.70080471       4.00615213       8.71621363
P        5.00932179       1.01849561       5.41947771
O        4.69578942       0.21076477      11.58317678
O        9.16864888       7.84609770       6.13774131
O        8.54526772       3.34827068       9.80631980
O        0.10806901       1.39577324       6.47446253
N        6.59610617       4.87937567       9.37147718
O        6.55849709       1.35433036       5.29098556
O        6.12266297       7.34067551       6.52561335
O        7.03066627       2.93323388       7.76500743
Li       3.39572456       6.59320946       1.05387274
Li       3.43511627       2.43399723       3.63963738
Li       0.57896657       5.13647302       2.04087354
Li       4.59573683       4.95675755       9.18922185
Li       8.02379699      10.49320312      12.30386466
Li       2.59483529       9.26086701       5.55571940
P        6.52834899       8.61294196       2.44662920
P        6.55841346       2.96998693       1.16755129
O        5.22707075       5.30478455       5.47164807
O        9.63117669       3.69931972       2.51891214
O        7.36207580       8.48610252       1.17604993
O        8.19174768       6.71936235      11.06600574
N        6.21529289       7.12775013       2.89710530
O        7.44889979       3.49933837       0.01340684
O        6.06526220       1.48930648       9.90216865
O        5.17400502       9.29425851       2.01548078
Li       0.36807508       3.82567000      10.49759494
Li       4.32001342       9.34250794       0.44561534
Li       2.63018420       4.54672276      11.29380971
Li       1.42748179       2.60772175       2.65339910
Li       9.24017368       4.00844099       0.30896419
P        8.76744565       8.66440330       7.39050478
P        4.79970516       6.58062590       6.18127013
O        8.70870597       4.89967643       7.78040736
N        0.02730212       9.17953700       8.42950991
O        8.01419943       7.73820089       8.36529150
O        3.89362144       7.43842213       5.14448401
O        4.66837894       0.78748805       3.84621001
O        7.93260342       9.88183265       7.04763066
124
Lattice="9.90879 0.0 0.0 0.0 10.6625 0.0 0.0 0.0 12.434" Properties=species:S:1:pos:R:3 material=LiPON model=NEP89 temperature_K=900 phase="NVT production" display_name="LiPON｜NEP89｜900 K｜NVT production計算" report_figures="23_LiPON_lithium_MSD; 24_LiPON_transport_comparison; 25_LiPON_temperature_RDF" source_frame_index=2129 relative_time_ps=212.9 pbc="T T T"
Li       7.16911335       3.14686952       5.93842612
Li       4.82819441       1.08967303       2.19898445
Li       2.54970207       1.15414622       4.55290153
Li       2.12038966       6.59766474       6.73597325
Li       9.70236594       0.80213649       9.05169680
Li       8.82959923       8.04448472       4.69085863
P        3.48473282       3.41473702       1.73264554
P        9.80788196       0.97805405      12.30243102
N        1.11462472       3.99599392       5.19352713
O        2.44769583       6.84834604       3.04181091
O        2.31108758       3.99464284       0.97771026
O        4.93162598       0.02103715       9.41015456
O        3.43833106       1.90685700       1.62439610
O        0.18788295       2.42794035       0.05564508
O        9.34600221       5.26328358      11.71579731
O        3.56894985       4.05901080       3.15843536
Li       1.79604315       8.92330090       0.11415579
Li       3.67862017       0.44538778       7.87451244
Li       2.39004132      10.65710302      10.43335755
Li       7.59534380       4.72506208      11.03905138
Li       9.42590740       6.62607676       8.94898974
Li       1.15557898       9.95586700       5.76803960
P        2.56355251       2.41317874       9.31754980
P        0.35387963       2.74081774       4.65535042
O        9.01804043       0.75822544      10.96682319
O        6.20426422       6.28290296      11.60454372
O        1.74639924       1.27547460       8.59366176
O        5.40661931       0.31311128       6.70147367
O        4.02336544       2.60756026       8.65398667
O        1.15428218       1.98121990       3.51478595
O        2.73927414       9.46349576       7.70695338
O        2.83336405       1.96827354      10.76137829
Li       4.07781534       8.92097763       9.08850225
Li       1.09660252       0.56072668       1.97364904
Li       4.47305685       6.59021119       3.10029172
Li       0.60475230       3.32419744       7.76762458
Li       6.75804286       6.19662332       0.73487749
Li       8.22984329       7.31996746       2.81611382
P        1.66628596       8.28156708       3.26045768
P        9.41565327       6.80514989      11.98223044
O        1.80137232       9.09299837      10.13767472
O        4.99013005       3.95353685       1.01097432
O        0.15961137       7.87158507       3.24569990
O        6.48561130       1.88901861       1.89250847
O        2.11328776       8.88544745       4.57582953
O        8.49928417       7.30123901       0.65450897
O        1.26951605       0.29968520      12.43158972
O        2.02560567       9.38182150       2.17659306
Li       7.84263803       6.20312150       6.52717667
Li       7.75269309       2.08794561      10.60400864
Li       5.47071697       3.27298870      10.87006922
Li       6.33161717       7.00005349       8.59984817
Li       8.38183059      10.27610921       4.44413534
Li       9.01132417       9.27151364       1.58217787
P        4.78129393       6.48392831      11.03159537
P        1.66306156       8.63282470       8.59981945
O        1.06069168       7.13743210      12.27610071
O        1.93823918       3.86686645       9.53281689
O        4.03126206       5.23936258      10.57358580
O        4.41332407       4.98598136       7.61472063
O        3.99668048       7.05776817      12.26283746
O        1.90072917       7.04948109       8.53490856
O        1.22463298       4.89334787       6.35357452
O        4.66279518       7.40798059       9.80017029
Li       5.38211860       4.02827808       3.95037066
Li       7.31809164       1.26649271       3.22199988
Li       7.35146650       8.18554203      11.94995723
Li       2.37827551       5.63867416       4.50611443
Li       2.41010649       7.14357986      10.58379872
Li       4.01886520       8.01727974       5.46583601
P        8.46222433       4.46596675       3.28135603
P        5.30870166       0.11582033      10.85445944
O        5.42858219       2.65241412       5.20431632
O        5.47950923       8.51353607       4.23580431
O        9.04515529       0.65459112       1.25312588
N        8.70676741       3.27960799       4.39225014
O        6.45100473       9.96404178      11.50671561
O        6.83150502       4.30129327       2.63204941
O        8.56091879       5.81811976       4.01878157
Li       6.50131189       9.03069556       6.76857211
Li       4.61774717       3.32884729       6.85810481
Li       8.55105471       0.79557162       6.49575558
Li       2.70507982       5.36397662       8.70388711
Li       8.26434768       9.43927614      10.05936266
Li       6.63926748       0.88666581       8.10758758
P        7.89127914       3.54074624       8.55934576
P        5.49089583       1.06097001       5.34288431
O        3.90434816      10.37315296      11.59122468
O        7.73696936       7.83705677       7.76506649
O        9.05252787       2.74315991       9.29784875
O        0.02688371       1.83691728       5.80714976
N        6.72449373       3.69492564       9.57330218
O        6.89015847       0.59464696       4.69488749
O        5.10501355       7.51194395       7.00477442
O        7.24075857       2.47236373       7.56128874
Li       2.58132857       5.84777574       0.46079859
Li       3.03180434       0.82007269       0.28330991
Li       0.87990328       5.91896971       2.38478250
Li       4.79581401       4.20818889       9.11024708
Li       7.19676608       0.44084620       0.36663325
Li       3.75060289       9.75243653       3.24973026
P        6.20123334       8.66238041       2.83551285
P        6.41926532       3.32855538       1.38427109
O        6.19288445       5.50905543       5.76149896
O        9.32922440       4.38977518       2.11298753
O        7.73514395       9.03445994       2.92242195
O        8.96889357       7.36394531      10.56611317
N        6.36678710       7.21596903       2.29272932
O        7.29881806       3.54718479       0.17603846
O        5.55962823       1.60246390      11.35287681
O        5.33048096       9.53554723       1.99722837
Li       0.20297880       3.51263807      10.39598769
Li       4.24588257       8.86527235       0.62319999
Li       2.66510731       3.62244755      11.57158071
Li       0.87506020       3.06579203       1.88553038
Li       8.97984878       3.82453498       0.46228614
P        8.68195779       9.06172929       7.62613838
P        4.94941805       5.97141801       6.56889481
O        8.41938351       4.78430856       7.87753601
N        0.20653556       8.82781187       8.11214062
O        8.05834754      10.36000273       8.14062851
O        3.79940156       6.33544368       5.44878399
O        4.31082509       0.52399627       4.48922434
O        8.98668842       9.30229909       6.07454711
124
Lattice="9.90879 0.0 0.0 0.0 10.6625 0.0 0.0 0.0 12.434" Properties=species:S:1:pos:R:3 material=LiPON model=NEP89 temperature_K=900 phase="NVT production" display_name="LiPON｜NEP89｜900 K｜NVT production計算" report_figures="23_LiPON_lithium_MSD; 24_LiPON_transport_comparison; 25_LiPON_temperature_RDF" source_frame_index=2159 relative_time_ps=215.9 pbc="T T T"
Li       7.76039907       4.18065709       5.90301645
Li       3.90417389       0.37448601       1.20915869
Li       2.81646395       3.08602028       5.68371095
Li       0.71363305       5.56329974       8.57744744
Li       9.83800492       1.25512243       9.72345864
Li       7.77680177       7.02635739       5.13982967
P        3.63291423       3.53635840       1.58929123
P        0.07564995       0.44475896       0.19176853
N        1.10035309       3.43763679       5.30822042
O        1.75631193       6.50782875       3.31377932
O        2.55907858       4.47642208       0.96802280
O        4.68444799      10.26296728       9.17841847
O        3.81408122       2.24684900       0.77188458
O        9.83474478       1.96465884       0.12325498
O        1.21736148       6.10000518      10.72279062
O        3.12736620       3.11034428       2.97341798
Li       2.22838409       9.15078632       0.23342632
Li       1.20254582       0.86668766       6.79724807
Li       2.60462507      10.42914749       9.80041105
Li       7.22222481       4.84193064      11.41098339
Li       9.16787401       7.03090230       9.19032849
Li       9.35070919      10.13168640       4.67437352
P        2.46643749       2.75886292       8.93758699
P        9.87948942       2.28067122       4.73037382
O        9.84923491      10.52956530      11.13993397
O        6.30733202       6.55968059      11.63032574
O        1.74314628       1.45850364       8.59213445
O        4.97899101      10.14528212       6.09743241
O        4.04028815       2.46228469       8.40133058
O        0.36888250       1.49633413       3.38176697
O        1.95590615       9.58646720       7.43918709
O        2.48840404       2.78531034      10.53592368
Li       3.33322938       5.96565082       7.87529705
Li       2.33108574       1.41301435       3.30920638
Li       3.83746582       6.78926932       4.53389937
Li       1.23450152       6.30183969       5.05539995
Li       7.58636956       6.57680019       0.64614757
Li       9.64434138       7.04855611       2.76474609
P        1.89351355       8.02078743       3.35330483
P        0.15754724       6.49708395      11.70597882
O        1.67914314       8.69644521       9.71354472
O        5.11517993       4.15051122       1.85056237
O        0.55868294       8.70665769       3.42539985
O        6.83090186       2.24857706       2.74951781
O        2.57675024       8.51753416       4.60175478
O        9.26381108       5.25693721      12.24328842
O        1.45128084       0.09321115       0.79247607
O        2.60410651       8.60370193       2.06352283
Li       7.28974216       6.53045705       8.30323380
Li       7.28490096       1.94265497      10.97373882
Li       4.43697331       2.93696042      11.21193065
Li       6.82344758       8.14045427      10.34830211
Li       9.77406040      10.10430342       2.48647270
Li       7.30214126       1.97488470       4.41216740
P        4.83108703       6.41359203      11.16678692
P        1.28980534       8.52803670       8.22373140
O        0.90370223       7.19120915       0.46969849
O        2.12978070       4.13753338       8.27560478
O        4.23441692       5.00887115      11.08456276
O        4.86024258       4.95024484       7.49352583
O        3.96656965       7.21751279      12.11892157
O        1.58668043       7.03007137       8.06740046
O        1.72870061       4.57007046       5.38380781
O        4.71442021       7.17716763       9.79589674
Li       4.91521988       3.03514544       3.69672521
Li       8.45323799       1.67689590       7.45100202
Li       8.31569339       8.96138446       0.38949244
Li       1.70962657       4.41398892       3.30482112
Li       5.22956189       8.60481922       7.89010628
Li       3.45309345       8.81786103       6.15431800
P        8.70778439       4.63352945       3.45226611
P        5.10738261      10.58375910      10.57355490
O        2.92788132       1.27203475       5.84620296
O        6.00269040       8.16157081       3.70049690
O        8.90095751      10.56205543       1.11141563
N        8.58855940       3.19309356       4.34396437
O        6.08432941       9.58165038      11.27368815
O        7.44569819       4.73863005       2.50485357
O        8.92955618       5.70490746       4.49259656
Li       6.63418663       9.63521002       5.20862145
Li       5.29924828       3.01357669       6.96174619
Li       6.28667722       0.35003691       8.26921632
Li       2.87937881       7.37551993      10.09539284
Li       9.86196798       8.94607681      10.29768554
Li       3.91955551       0.57739522       7.57839779
P        7.92833099       3.93141180       8.75472373
P        4.31616870       0.83324683       5.20323802
O        3.75712457      10.33252954      11.54703071
O        7.50855030       8.40984957       8.56392303
O        7.35481019       3.32199855       7.49151978
O        9.45481154       1.31688017       5.78843574
N        8.67421767       2.60765475       9.14899644
O        5.21159694       2.09346606       5.36663575
O        4.57399456       7.23060283       6.41531185
O        6.69026479       4.25519405       9.59042512
Li       2.76399119       6.61499904       0.94897982
Li       2.78334935       1.21582723      11.89383972
Li       0.95637041       5.56437609       1.36104379
Li       4.86442476       4.03446613       9.33575282
Li       7.10720247       0.52757157       1.61617050
Li       4.34394488       9.56763776       3.48365134
P        7.01298409       8.93816182       2.76709327
P        6.59771976       3.44371053       1.85319877
O        6.81995455       6.11326035       6.47655657
O        9.84855910       4.37372536       2.47173970
O        7.86078304       9.94946468       3.66490067
O        8.88409545       7.38884740      11.18819108
N        7.93384614       7.91243359       1.93484995
O        6.98226159       3.32052248       0.31523337
O        5.61357784       1.34762792      10.69056215
O        6.11055116       9.61695765       1.65876570
Li       0.29040694       3.30487214      10.84960579
Li       5.12647324       8.71810306       0.11727426
Li       2.41262557       4.55362606      11.21816628
Li       0.42143025       2.56389402       1.85507632
Li       8.90198865       3.38231645       0.50787310
P        8.35686799       9.38837367       7.64036918
P        5.35863502       5.88425976       6.36116197
O        8.79185620       5.11426197       8.46451281
N        9.83223189       9.05821508       7.86743639
O        7.94030014       0.10292827       8.09323131
O        5.00337563       5.22532514       4.97570066
O        4.11718052       0.65852107       3.60200886
O        8.17785511       9.11581255       6.14055772
124
Lattice="9.90879 0.0 0.0 0.0 10.6625 0.0 0.0 0.0 12.434" Properties=species:S:1:pos:R:3 material=LiPON model=NEP89 temperature_K=900 phase="NVT production" display_name="LiPON｜NEP89｜900 K｜NVT production計算" report_figures="23_LiPON_lithium_MSD; 24_LiPON_transport_comparison; 25_LiPON_temperature_RDF" source_frame_index=2189 relative_time_ps=218.9 pbc="T T T"
Li       7.02158187       2.71729476       5.93162824
Li       4.80046520       1.12501877       2.68511622
Li       2.73269424       1.89578051       4.42240429
Li       0.57491917       2.23237223       7.59426388
Li       0.08780094       0.61283869       9.87403439
Li       8.12241408       5.96236650       6.53597621
P        3.47425391       3.35826969       1.73641336
P        0.11593334       0.70187270       0.24987008
N        1.18078066       3.41353035       5.36910471
O        1.29357902       7.14098761       2.39678933
O        2.47104733       4.29227825       1.10707317
O        5.63782444      10.56683378       9.24194278
O        3.50215160       1.67956337       1.28466204
O        0.43661542       2.08523133       0.73664600
O        0.38980849       6.47993658      10.13776041
O        3.45675265       3.28853880       3.28418775
Li       1.99718389       8.91236303       0.17202565
Li       2.06191810       6.47710628       6.20784759
Li       2.45978791      10.51748437      10.64312852
Li       6.87212296       4.93682397      11.34209676
Li       7.91405685       6.08633524       8.97824372
Li       9.44443626       8.87189368       5.08179987
P        2.83986057       3.11903074       9.32436949
P        0.00659331       2.32005643       4.77718917
O        1.20029281       0.24089220      11.69131386
O        5.31137185       7.15193289       0.22509227
O        2.35457352       2.34614462       8.08594069
O        4.96401938       0.07851428       6.63319747
O        4.15369012       3.68603221       8.93854977
O        0.84465475       1.37684233       3.88994343
O        2.68329536       9.42916743       6.65162700
O        2.96307447       1.94723330      10.45342974
Li       3.79129289       7.25785676       8.28330429
Li       1.54854973       1.24398848       1.98961979
Li       6.65826123       6.08118953       4.47923764
Li       3.74457238       8.89194649       5.27519085
Li       7.26448309       8.07338650       0.00270180
Li       9.23128368       6.57756975       2.74371358
P        2.05350136       8.21027902       3.24081334
P        9.35226728       6.85857458      11.23615945
O        1.90702215      10.11453079       8.84459133
O        4.91510201       3.79285855       1.34551141
O        1.05150774       9.17705594       4.02845403
O        6.60248523       1.83690993       1.95253838
O        3.05407157       7.50157665       4.15182295
O        7.89357700       6.64242718      10.80356130
O        0.25745125      10.22137214       1.36640254
O        2.88664312       9.18395441       2.34321486
Li       5.20942120       5.37773060       9.01771880
Li       7.81414376       1.93149025      10.96288823
Li       5.33980067       3.01980822      10.43849246
Li       6.39712433       8.26504419       9.84912270
Li       0.11452225      10.51180344       3.12515978
Li       7.81237047       1.38170096       3.54797148
P        4.38337439       6.62847503      11.42877656
P        1.55910690       9.02887521       7.80485347
O        9.54576013       5.91869477      12.41780341
O        1.75696939       4.09981846       9.79622293
O        4.61457588       5.19330536      11.23608314
O        3.61055568       5.54930611       7.06308441
O        2.79582535       6.75445567      11.75185927
O        1.90862765       7.62650769       8.29975496
O        1.17310585       4.69038608       5.62873394
O        4.74455581       7.41413930      10.13104973
Li       4.91794157       3.81196428       4.60263556
Li       7.64758176       0.49449289       6.15985428
Li       9.51640665       8.49384393       1.39116885
Li       1.38020365       3.72912201       3.59570475
Li       5.64368711       9.27023829       7.63892504
Li       1.29585012      10.32847812       5.46915856
P        8.58062211       4.35028251       3.51968663
P        5.53516289      10.56091431      10.78548127
O        4.48352739       2.52130187       5.92920894
O        6.06516130       8.02423979       3.70316863
O        8.60440740       0.53346915      12.02495337
N        8.51376643       2.93720918       4.31670970
O        6.55747583       9.50540561      11.38326150
O        7.29047277       4.41864999       2.53071659
O        8.39997597       5.61295264       4.56397822
Li       6.31407121       9.37539081       5.23799378
Li       5.56253395       3.63614271       7.37146147
Li       7.12566102       0.61003023       8.55709786
Li       1.32740653       7.81631557      10.28280050
Li       8.47845093       9.72716634      10.80892258
Li       3.50328495       0.56023374       7.68936622
P        8.00202543       3.38516548       8.78068089
P        4.89375296       1.06147103       5.44346702
O        4.12288215      10.15164344      11.36700358
O        8.02328545       7.75223124       8.27023442
O        7.08002615       2.45047476       7.81963839
O        9.50500406       1.54016191       6.18558357
N        9.00297895       2.36126246       9.43557509
O        6.40981367       1.00042790       4.91043451
O        4.77314832       5.70699889       4.84447276
O        6.97172500       3.91313348       9.83839858
Li       1.08748489       5.54424181       1.30389873
Li       3.82736672       1.20718543      12.12248001
Li       9.29173363       3.69770470       1.08517266
Li       2.72308099       4.03157939       6.63336149
Li       6.86763628       0.58807460       0.34722321
Li       4.54487761       6.81146448       3.36423484
P        7.12180610       8.70208031       2.68173678
P        6.40661824       3.23902282       1.45400049
O        5.06776907       7.53762776       6.68227172
O        9.81967905       4.54449907       2.66460625
O        8.15373027       9.63786304       3.49938146
O        9.69381496       8.40186521      11.45794720
N        7.85273024       7.70404168       1.71955495
O        7.23198930       3.42212633       0.12832655
O        5.83433183       1.31809731      11.46400377
O        6.21960442       9.60004072       1.72382552
Li       0.54721567       5.41154036       8.69653129
Li       4.41897149       9.67180891       1.39170035
Li       2.44029655       4.91673288      11.50528395
Li       1.41489779       2.93546744      11.73185604
Li       6.96264511       6.04961694       0.90206096
P        8.50191595       9.05777485       7.94531496
P        4.98486902       6.05511885       6.32831659
O        8.68426950       4.65917649       7.87674334
N        0.10316744       9.06982858       7.19260565
O        8.80306572      10.05137287       9.08770119
O        6.24059827       5.29643559       6.92375126
O        4.05382132       0.33457899       4.35480135
O        7.65447153       9.59171008       6.81339911
124
Lattice="9.90879 0.0 0.0 0.0 10.6625 0.0 0.0 0.0 12.434" Properties=species:S:1:pos:R:3 material=LiPON model=NEP89 temperature_K=900 phase="NVT production" display_name="LiPON｜NEP89｜900 K｜NVT production計算" report_figures="23_LiPON_lithium_MSD; 24_LiPON_transport_comparison; 25_LiPON_temperature_RDF" source_frame_index=2219 relative_time_ps=221.9 pbc="T T T"
Li       6.75968163       1.67554680       4.04006008
Li       4.97901711       1.76807640       0.99128493
Li       2.31515305       0.87544531       3.52451900
Li       0.45865357       0.75739523       8.79001657
Li       0.68318829       9.59511868      10.45577589
Li       7.50792749       5.38618694       6.47903781
P        3.34250838       3.23722492       2.23789521
P        0.06298359       1.00415021      12.24224412
N        1.01051668       3.66097915       5.37791703
O        3.19159295       9.28598385       1.45605901
O        2.35665497       3.68757984       1.24640471
O        5.02554717       0.07704468       9.60415594
O        3.40753618       1.58844882       2.23361481
O        9.38366997       2.35674687       0.31028265
O        9.79195640       5.75868714      10.54008872
O        2.95292215       3.86478281       3.62969113
Li       2.08726427       6.31119958      10.30622865
Li       3.72547463       5.61675514       3.27456435
Li       2.66774707       1.38270940      10.63211253
Li       7.00621177       5.44996673      11.30141633
Li       9.47628844       5.96620148       8.71085507
Li       9.85576329       7.14120919       2.22277580
P        2.77472719       3.27769166       8.98405772
P        9.80513150       2.55553217       4.78551970
O        0.98024427       0.88571036      10.99806055
O        5.37683616       6.90394392       0.33905093
O        1.92722261       1.99725140       8.84866897
O        3.15696648       0.47021569       5.41158344
O        3.25735126       3.76781776       7.58915147
O        0.54202962       1.89293606       3.49818427
O        0.93070120       8.63809245       6.35610521
O        4.04137646       2.51992909       9.84789787
Li       3.11396675       9.06270019      10.77277475
Li       0.96517714       8.90636744       0.62239183
Li       6.52564940       6.37417111       4.07274804
Li       2.54457046       9.02225950       5.18694827
Li       7.77553996       9.15330674      12.25182378
Li       0.16365559       3.96608651      10.26201195
P        2.78518185       8.40978910       2.60613017
P        9.56448310       6.94561070      11.45026933
O        2.47645601       9.44499734       8.33039634
O        4.78009298       3.69072513       1.80892293
O        2.04508310       9.34760537       3.53992645
O        6.87802978       2.14418439       2.07705077
O        1.69101884       7.39174548       2.08577669
O        8.06281219       7.32674003      11.20657842
O        0.87519516       0.22775733       0.90870711
O        3.95027746       7.66178713       3.19378806
Li       4.40542255       5.01453251       9.23653135
Li       7.66118335       2.55826477      11.75265388
Li       5.57517886       3.42062943      10.54361859
Li       6.66809758       8.33820864       9.95279654
Li       9.68670072       9.43938689       5.12266842
Li       8.45414769       1.60497252       2.75710251
P        4.31974098       6.49855430      11.78463690
P        1.21264657       8.65365978       7.81555481
O        9.73176142       6.40486283       0.40931299
O        2.24058664       4.48053345       9.82368001
O        4.81609052       5.15539074      11.12353298
O        3.54580736       6.30550408       5.92172182
O        2.83681594       6.03541107      12.24582928
O        1.21740169       7.27476313       8.38258754
O        1.12598796       4.86467160       5.88577418
O        4.24390240       7.51696842      10.57172688
Li       5.14430962       3.98863674       4.52731048
Li       7.75779763       1.75541073       6.52840433
Li       0.11369824      10.21846351       2.71776107
Li       2.98016838       3.11058264       5.71401118
Li       6.38942211      10.31100568       7.98181146
Li       9.41906891       6.27410533       6.13948277
P        8.44274232       4.58609561       3.69565959
P        5.27773448       0.08465395      11.15097878
O        4.83092400       2.24225135       4.84727044
O        6.92859684       8.06367356       3.23183357
O        8.70290020       0.15917455      12.02842111
N        8.40388930       3.15960160       4.33395458
O        5.93592698       9.39850270      11.36769169
O        6.79489157       4.40465624       3.23041395
O        8.19780019       5.83401746       4.52216088
Li       6.78487875       9.21821179       5.61494695
Li       5.23710504       1.87976160       8.82087518
Li       3.65364963       7.72825621       8.64624447
Li       2.02395960       5.54565422       7.26490637
Li       7.94556284       0.51236575      10.27701595
Li       3.06243471       0.97280875       7.69669442
P        7.73988133       3.45772397       8.89994061
P        4.67013888       0.77650675       5.49502334
O        4.01238373       0.13015702      11.89339107
O        8.34877362       9.51155899       6.60962483
O        6.56028951       3.11556862       8.07644935
O        9.77905364       1.63869177       6.09064333
N        8.72103899       2.20797019       9.02138630
O        4.89710558       1.07109156       7.04629768
O        5.80963373       5.27478795       5.77222086
O        7.48622248       3.90614049      10.48385653
Li       1.47832531       5.85477939       0.94536416
Li       2.76414362       0.75505363       0.81394080
Li       8.77894147       4.72116774       0.80688107
Li       5.06925826       3.70131968       7.08732062
Li       7.28504525       0.67498624       0.78656855
Li       5.10074819       8.50673562       4.27586725
P        7.71115218       9.17059003       2.57617121
P        6.45451298       3.65003113       1.84125012
O        5.60957987       7.70380074       5.93648247
O        9.46710940       4.66985102       2.60320797
O        8.33278371      10.02227044       3.69504527
O        0.77044369       8.01251259      11.23819331
N        8.99066668       8.65486987       1.85240700
O        7.04725957       4.33420025       0.66635790
O        6.35338797       1.21565552      11.54083438
O        6.71073130       9.78393730       1.58742206
Li       0.51424603       2.99401558       7.38315126
Li       5.11802687       9.19679259       0.95694870
Li       3.33229486       3.96734637      11.88712202
Li       0.81306000       2.89388154       1.73025536
Li       6.78652209       6.63049505       1.22181955
P        8.56426171       8.81563238       7.96300275
P        4.94852512       6.50730493       6.47630336
O        8.60121195       4.38840932       8.00335899
N        0.03003889       9.28339602       8.68765379
O        8.46015877       7.26764582       7.80423340
O        4.88130795       6.26063595       8.02461438
O        5.53153271      10.31689200       4.93111550
O        7.59131781       9.38224762       8.96272850
124
Lattice="9.90879 0.0 0.0 0.0 10.6625 0.0 0.0 0.0 12.434" Properties=species:S:1:pos:R:3 material=LiPON model=NEP89 temperature_K=900 phase="NVT production" display_name="LiPON｜NEP89｜900 K｜NVT production計算" report_figures="23_LiPON_lithium_MSD; 24_LiPON_transport_comparison; 25_LiPON_temperature_RDF" source_frame_index=2249 relative_time_ps=224.9 pbc="T T T"
Li       7.41066298       1.79315941       3.52479635
Li       4.66214010       0.03855001       2.89041551
Li       2.45094064       3.09444043       5.54476617
Li       0.55807698       1.39381812       9.39101982
Li       2.63959100       0.12441346       1.35608433
Li       6.95011377       6.42373827       8.97521967
P        3.69621421       3.16903413       1.83478105
P        0.09164941       0.61595259       0.06262764
N        0.63185584       4.01805540       4.94733613
O        3.28039960       8.78533504       1.48190767
O        2.39092586       3.58701647       1.22774247
O        4.17154339      10.22365535       9.67324457
O        3.64491213       1.59715467       2.05233980
O        9.70902301       2.10575864       0.36994032
O        0.80381363       6.51095731      10.18791982
O        3.88245744       3.99955630       3.16881342
Li       2.93605708       3.13899824      11.62025030
Li       3.02970644       5.54297000       4.26559071
Li       5.49356002       9.30955839       8.36440068
Li       6.94536632       4.50894569      10.94407249
Li       9.41089995       6.88457284       8.92209620
Li       0.48555238       6.56138477       3.94248288
P        2.37157119       3.38380181       8.86144787
P        9.78736393       2.62301400       4.41347213
O        1.06938837       0.65515856      11.32909550
O        5.25829292       6.53552592       0.61189343
O        1.73130394       2.10369532       8.06740825
O        3.22972514       0.61813759       5.54266450
O        1.93654248       4.77713539       8.23341155
O        0.99593507       1.86518556       3.61993330
O        9.43268262       7.64577426       5.42034813
O        3.93471468       3.06809817       9.00413370
Li       2.88335763       8.45256141      12.31535012
Li       0.67129741       8.83846544       1.46776085
Li       7.69389678       8.00142919       5.79501746
Li       3.21917251       9.29989481       5.81230928
Li       6.82149765       7.89359103      10.39096523
Li       0.00650755       3.32032241      11.51066575
P        2.91433281       8.11762770       2.85020181
P        0.03077624       6.76882430      11.45357924
O        1.02112260       9.63184168       6.00716622
O        5.01348556       3.64805710       0.79368924
O        3.21696163       9.08324021       3.97147371
O        6.68846507       1.98560496       1.69209584
O        1.38387089       7.73414358       2.74560074
O        8.41984809       7.10113269      11.24212109
O        0.88758362       0.14743593       1.41149079
O        3.66588466       6.73158912       3.12519055
Li       4.79439258       4.96685478       9.37611575
Li       8.16755746       1.59229983      10.70163159
Li       5.17272758       2.81214294      10.63569097
Li       7.62271889       8.93596374      12.25459844
Li       9.62053556       0.02285139       5.29328907
Li       7.02757490       0.41519239       0.38147030
P        4.76721495       6.30667972      11.55610357
P        0.58950475       8.20829710       6.49763566
O        0.29609818       5.44888375      12.31396445
O        1.72301352       3.42890926      10.23935794
O        6.21380743       6.15670270      10.85373147
O        4.53113286       6.05736303       5.69875725
O        4.05218408       4.92158217      11.33667980
O        1.65764829       7.26960434       6.44303472
O        1.34549408       5.17524611       4.73985339
O        3.80465223       7.44645073      11.04252536
Li       5.07765276       4.21890613       4.76468094
Li       7.42710584       1.37182213       6.40366677
Li       1.82581235      10.37305214       4.11223367
Li       2.79046866       5.66078472       6.77293567
Li       6.90418196       0.37298653       9.06620205
Li       0.12736666       4.93846906       8.97928789
P        8.10359300       4.57846518       3.52919474
P        4.98093551      10.42227363      11.01902799
O        4.36148182       2.83216480       6.10551259
O        6.81298794       8.59288602       4.08981464
O        8.74201264      10.50366151      12.16712191
N        8.78002484       3.04734224       3.26100033
O        6.11960908       9.25672254      11.32197626
O        6.65584369       4.54818155       2.51444137
O        7.52368873       4.77533002       4.88346739
Li       6.01380531       9.90221286       5.90234765
Li       5.66377438       2.73187375       7.63729210
Li       3.34553591       7.55127896       9.30632581
Li       2.53552497       5.69046802      10.59885971
Li       0.00012867       9.63911775      10.53527223
Li       1.78528094       0.45471226       7.00770327
P        7.90003207       3.49817539       8.90293672
P        4.65490225       1.29616261       5.92711014
O        4.03405455      10.40907139      12.20428047
O        8.95571990      10.24200900       9.09809945
O        7.64316093       2.55613111       7.76624959
O        8.95108184       1.82051549       5.49177018
N        9.12140809       2.96902797       9.67780094
O        5.18224012       0.69986751       7.21973232
O        6.70816275       6.76931303       6.93594730
O        6.59148114       3.52348355       9.71098665
Li       2.17849491       5.68381068       2.06589136
Li       1.20115766       2.28857705       1.78733738
Li       7.22133154       6.21197826       0.08756664
Li       8.11617051       5.54815832       6.57180890
Li       5.13954049       1.23128423       0.97048043
Li       5.60827129       7.35550063       4.44909710
P        7.38457805       9.26978759       2.76685057
P        6.53744189       3.52049257       1.18808069
O        4.88352971       8.49163579       6.65587502
O        8.93743710       5.60453474       2.80431653
O        8.56768599      10.16101965       3.05058468
O        0.73815171       8.07120212      12.06455133
N        7.80931512       8.29086758       1.54788305
O        7.47513843       4.01545873       0.00303769
O        6.06633424       0.85396048      11.03066386
O        6.25966145       9.91837162       1.94207457
Li       9.49800413       2.57507830       7.08506485
Li       5.73354115       8.34542769       0.99818143
Li       3.71395987       1.13675949       8.65764539
Li       9.25230465       4.02296899       1.30001657
Li       5.05847985       5.59558197       2.23781995
P        8.48855135       9.25645097       8.05149059
P        5.21881026       6.95915921       6.86798129
O        8.18283852       4.97082158       8.46276750
N        9.68208091       8.25225369       7.80329359
O        7.89727262       9.96461774       6.76358760
O        4.55888860       6.38360260       8.24263890
O        5.52349227       1.31780931       4.63117345
O        7.38634067       8.41196903       8.80629383
124
Lattice="9.90879 0.0 0.0 0.0 10.6625 0.0 0.0 0.0 12.434" Properties=species:S:1:pos:R:3 material=LiPON model=NEP89 temperature_K=900 phase="NVT production" display_name="LiPON｜NEP89｜900 K｜NVT production計算" report_figures="23_LiPON_lithium_MSD; 24_LiPON_transport_comparison; 25_LiPON_temperature_RDF" source_frame_index=2279 relative_time_ps=227.9 pbc="T T T"
Li       6.56920956       9.76353180       5.59207330
Li       5.02205347       0.63034149       2.21785087
Li       1.86635121       0.25629374       4.61106092
Li       1.67659618       1.40240469       7.09465385
Li       2.88971744       0.45126797       1.21242244
Li       6.69155798       6.84067424       8.68086206
P        4.03517291       4.12856450       1.66578062
P        0.37553466       0.48887388      12.00676407
N        1.40092613       3.48741230       5.11912956
O        2.71999424       9.23523710       1.49085443
O        3.07347361       5.05506464       0.92549107
O        4.53179237      10.00299714       9.48193254
O        3.44880556       2.62548549       1.92218404
O        9.86352079       1.64939537      11.11075664
O        9.90010782       6.79713863      10.00603804
O        4.45601321       4.80581580       3.02706281
Li       1.44814754       2.63432739       1.93554572
Li       2.54769993       5.81535704       4.17404191
Li       4.25230089       8.03019678       9.27359170
Li       7.67825740       4.32242661      11.10844070
Li       0.08474061       8.66346593      10.15072019
Li       9.47691933       9.54676496       5.06245831
P        2.68511450       3.05379076       9.13458308
P        0.12744194       2.38900634       5.10570387
O        0.94032560       9.88916101      11.31694950
O        5.21197207       7.14268236       0.22605901
O        2.13202168       1.57879259       8.85275693
O        3.18374170       1.09437219       5.62712802
O        1.56807618       4.03833529       8.76422172
O        0.41052432       1.24917697       4.24047287
O        0.94091776       7.71680007       6.53154472
O        4.07380391       3.45553848       8.44172547
Li       2.44400760       7.64287098       0.14501025
Li       0.07506412       0.23906864       2.14851637
Li       9.90184282       5.48187513       8.75136827
Li       2.65832658       8.12783461       5.50659343
Li       7.30914499       8.37440694      10.33817001
Li       0.62861609       0.68925446       8.99733352
P        2.19144045       8.66090697       2.83003754
P        9.78384664       6.27959087      11.53146887
O        1.93847799       9.93225325       6.65450812
O        5.36367266       4.16807443       0.88843211
O        2.88150377       9.27906540       4.00201751
O        6.33698145       1.65378216       1.87046216
O        0.72330763       9.09293868       2.85984367
O        8.12727983       6.48316600      11.76337059
O        1.43944555       1.29585567       0.51472600
O        2.12145566       7.04278448       2.73125739
Li       4.91820448       5.12776100       9.13456884
Li       4.81862121       3.24994028      10.78210422
Li       2.72847776       1.82932140      11.85781698
Li       9.40407343       8.71166425       1.15285159
Li       8.80376313       7.30459348       7.66745335
Li       7.11525896       0.01808510       0.29702198
P        4.75581568       7.00085576      11.25784886
P        1.31907275       8.84507642       7.52125201
O        0.25483114       4.74826383      11.79347528
O        2.84350400       3.10444482      10.66001161
O        5.69386141       7.50957750      10.18279043
O        3.58231840       6.62301101       5.75050165
O        4.35165827       5.63100245      10.67470856
O        2.25820215       8.30795976       8.56003614
O        1.42270639       4.80474399       5.23277571
O        3.34755411       7.64001597      11.09661836
Li       5.79039469       3.73603322       3.64882210
Li       7.94181078       1.68322969       7.02561735
Li       3.65612777       0.19874368       8.09948767
Li       2.18230437       5.81247295       7.03063542
Li       7.78198284       1.49861184      10.28445328
Li       0.41365169       3.13834441       9.93672486
P        8.81904411       4.17861079       3.22302572
P        5.29212717       0.10199920      10.57705620
O        5.01041507       2.43135986       4.78036132
O        5.78349189       7.67865281       3.29381107
O        8.97706763      10.48483548       0.35471933
N        8.70551793       3.10446028       4.43020059
O        6.68596044      10.25626257      10.90532647
O        7.58465541       3.95195824       2.28340436
O        8.95628711       5.55351143       3.87181803
Li       6.52786362       6.05762713       4.11143702
Li       3.17920441       3.44279399       4.13082562
Li       2.07801867       6.97943824       9.78224481
Li       2.16800030       4.98811200      11.61760617
Li       3.04708143       9.57185953      11.03679748
Li       5.51328736       9.53393693       7.72154528
P        7.45784038       4.14783577       8.42807772
P        4.65018473       1.03701588       5.31454912
O        4.41468689       0.24527216      11.91196252
O        8.39594558       0.45235713       8.88483527
O        6.92292995       3.26857420       7.33218080
O        0.17650015       2.19941921       6.62406973
N        8.48811537       3.28617153       9.25322477
O        5.42039311       0.73531695       6.57886749
O        5.91619970       5.79121432       5.81358279
O        6.63978831       4.43624453       9.68311842
Li       9.37980890       7.25294255       3.14026354
Li       7.40705846       1.52264386       4.24859388
Li       7.20593286       6.25953605       0.87024274
Li       5.50831620       3.77468427       6.19677621
Li       4.77933477       8.95025812       1.05644862
Li       4.75741932       8.95618818       4.31136471
P        7.04640986       8.49483696       2.78624189
P        6.61856402       2.98041281       1.17472781
O        5.45746041       8.44945419       6.38337050
O        0.21996231       3.87244703       2.27410649
O        7.85857296       9.22919528       3.87721866
O        0.60625358       7.22919321       0.19638242
N        8.01023131       7.58240080       2.02600450
O        7.45924759       2.92233107      12.36129074
O        5.59098417       1.58115002      10.00167387
O        6.39551008       9.57918741       1.90498236
Li       8.11069969       4.49743508       5.72832223
Li       4.21240779       6.63592678       2.50449706
Li       5.26807134       2.29143620       8.01506792
Li       9.64438203       2.93839991      12.41584668
Li       1.37585785       5.68827585       1.67448231
P        8.54533118       9.85100667       8.09303481
P        4.99425892       6.93211074       6.39730091
O        8.21538607       5.43865201       7.78533826
N        0.13761408       9.34523668       8.49854737
O        8.19079892      10.16331745       6.67033385
O        4.61865552       6.59565929       7.94861266
O        5.13533250       0.04946470       4.17493963
O        7.70030793       8.61900803       8.71579812
124
Lattice="9.90879 0.0 0.0 0.0 10.6625 0.0 0.0 0.0 12.434" Properties=species:S:1:pos:R:3 material=LiPON model=NEP89 temperature_K=900 phase="NVT production" display_name="LiPON｜NEP89｜900 K｜NVT production計算" report_figures="23_LiPON_lithium_MSD; 24_LiPON_transport_comparison; 25_LiPON_temperature_RDF" source_frame_index=2309 relative_time_ps=230.9 pbc="T T T"
Li       9.37564283      10.11870304       5.18391395
Li       5.13290546       0.83751149       2.52328766
Li       2.65232196       0.77328099       3.73927956
Li       1.66526202       0.75461027       6.41070844
Li       1.14843906       3.04672668       1.76749706
Li       7.10330957       6.07933453       7.72589412
P        3.75105681       4.10672150       2.06489669
P        0.05665062       0.66949584      12.01821820
N        1.05179850       3.41840794       5.61726762
O        1.49023348       9.57547665       2.16909692
O        2.58489325       4.66886457       1.12760964
O        4.69017635      10.14640119       9.39321179
O        3.23378345       2.89534186       2.88486839
O        8.82660871       1.20967113      11.07145361
O        1.33026958       7.02121563      10.01324222
O        4.39112873       5.15670055       2.93922713
Li       9.25994096       3.94098469       0.06546930
Li       3.07898638       3.43548172       4.85263115
Li       4.77829762       8.38631904       9.11190931
Li       7.49970260       5.35960366      11.01613948
Li       0.46226012       8.83271512      10.12253780
Li       7.73554944       1.39778472       6.70270320
P        2.65031959       2.95543364       9.20364387
P        0.08100430       2.31003265       4.81319323
O        1.11406064      10.63853124      11.03298597
O        5.60312059       6.98680358      12.40147192
O        2.20140779       1.64434577       8.42889508
O        3.63435920       0.71624405       5.60350344
O        1.75080519       4.17083824       8.59591842
O        0.89613590       1.71641566       3.69760310
O        1.32096594       7.37827368       7.30472419
O        4.11345451       3.29248166       8.76906846
Li       1.96034848       8.99738004       0.46588291
Li       9.79024131       8.52607421       0.96340512
Li       0.56027234       4.25337095       9.87678744
Li       9.25170554       6.68724970       3.20751992
Li       6.77487854       8.51284074       9.88428308
Li       0.68200751       0.78115233       9.27924529
P        2.58503257       8.61066246       2.80145498
P        0.54615196       6.73280285      11.34444070
O        1.43255600       9.55142697       6.20443026
O        4.86400490       3.56555269       0.92570290
O        3.38695707       9.29949183       3.86593614
O        6.93341462       2.05710662       1.26230895
O        1.92446210       7.21634727       3.04343353
O        9.04039916       7.28007831      11.43160568
O        0.94032900       1.73386429       0.28796978
O        3.53815639       8.22813218       1.60139930
Li       4.90230738       5.11848745       9.08825205
Li       4.62069603       3.03752991      10.74578761
Li       2.51251375       1.24217144      11.71617529
Li       7.03958295       8.63038664      12.30452418
Li       0.06041615       6.48803700       8.34192016
Li       7.53385219       0.16830021       0.03804033
P        4.97141322       6.72840873      11.02908960
P        1.35947341       8.87751659       7.52154846
O        0.30383253       5.07893130      11.54004311
O        2.64250121       2.85370014      10.71198321
O        6.01374957       6.78844734       9.84023015
O        3.79949375       6.96247579       5.28419633
O        4.29271329       5.22865125      11.05133361
O        2.28252107       9.34523080       8.54479112
O        1.42866499       4.66493590       5.61691407
O        3.89633812       7.69195285      10.64120769
Li       7.70478589       1.46189128       3.07671528
Li       0.46131170       2.72660129       7.67261522
Li       3.32735134       0.06986849       8.71872498
Li       2.05418235       6.68927387       4.92890941
Li       7.78771648       0.64082236       9.71589988
Li       7.62155185       2.56040214      11.09726706
P        8.43580692       4.22299212       3.26035087
P        5.27084444       0.17906106      10.70671795
O        4.93731495       2.88202170       5.77152596
O        6.82441413       8.13066542       3.62403352
O        9.31771985      10.26967551       0.52793689
N        8.63784412       2.85399575       4.12469660
O        6.38521823       9.85540053      11.09979622
O        6.75667570       4.02610385       2.72221549
O        8.31302515       5.38561481       4.25212198
Li       5.05797448       8.10056816       2.91940511
Li       2.06065605       5.48196557       7.17314869
Li       2.84950402       6.30195678       9.53982774
Li       2.92359611       4.40893562      11.65444111
Li       2.85728631       9.12987447      10.36692781
Li       6.56422130       8.32227249       5.88130946
P        8.10639042       3.88033293       8.81094449
P        5.07456059       1.26283518       5.68498862
O        4.26337118       0.33134312      11.88335527
O        8.08874356       9.77481932       6.41985786
O        8.36065838       2.45522560       8.30944030
O        9.63993564       1.28827357       5.96712797
N        8.57311221       4.07799274      10.25211527
O        5.82637226       0.83249275       7.03442296
O        6.06189097       6.23518036       6.18244764
O        6.61406098       4.21807197       8.38204348
Li       5.84839330       4.35863169       6.42151031
Li       0.13176166       0.20809442       2.31175466
Li       3.95083260       6.45785682       1.04216022
Li       5.74355201       2.44854234       8.45389528
Li       4.67048630       9.55391523       0.84373956
Li       3.76190743       9.35159290       5.76772727
P        7.57431089       8.87569341       2.58500488
P        6.46059465       3.56379709       1.18727248
O        5.04957458       8.41023456       6.93724039
O        9.28258523       4.49120429       2.03153356
O        8.62275178       9.79768165       3.21912859
O        1.18887135       7.37407508       0.18318546
N        8.33762942       7.72723824       1.85248226
O        7.26978879       4.35741882       0.11214191
O        5.81968048       1.59857228      10.23748512
O        6.48854473       9.51697566       1.61333233
Li       9.41955324       5.29842602       5.93067867
Li       1.51743503       6.13594198       1.58511908
Li       5.55225337       9.91192615       7.63219647
Li       7.40342096       6.36996780       0.98145027
Li       5.34531267       6.00133129       4.43520499
P        8.46341253       9.13443903       7.76518017
P        4.65766712       6.95361571       6.50697819
O        9.01900655       4.91502877       8.00282365
N        0.03407195       9.32629260       8.35204592
O        8.16570407       7.69585843       7.73641922
O        3.97688090       6.31248301       7.76163536
O        5.65517652       0.90010199       4.39592564
O        7.30614209       9.89314841       8.51120044
124
Lattice="9.90879 0.0 0.0 0.0 10.6625 0.0 0.0 0.0 12.434" Properties=species:S:1:pos:R:3 material=LiPON model=NEP89 temperature_K=900 phase="NVT production" display_name="LiPON｜NEP89｜900 K｜NVT production計算" report_figures="23_LiPON_lithium_MSD; 24_LiPON_transport_comparison; 25_LiPON_temperature_RDF" source_frame_index=2339 relative_time_ps=233.9 pbc="T T T"
Li       9.63762191       7.20230093       5.59657026
Li       5.13674391       1.13013246       1.24113024
Li       5.87338020       1.80273342       3.27536384
Li       0.47863365       9.88188784       4.39220866
Li       0.32977168      10.56245776       2.61662953
Li       6.84823140       5.98887733       7.46995650
P        4.06310336       3.63208225       2.19724890
P        0.35662865       0.73954320      11.88410894
N        1.11114284       3.43227125       5.35576950
O        3.10363243       9.46118473       1.37586056
O        2.69187176       4.06551486       1.58983004
O        4.83219732      10.25089507       9.29047182
O        4.08876459       2.05227595       2.36238319
O        0.98660334       2.10389884      12.33573423
O        1.56579141       7.27498831      10.74997077
O        4.38360370       4.63929836       3.37813224
Li       0.91153815       3.78205285       0.77457522
Li       3.05240668       1.10588629       3.51707273
Li       2.22343664       9.21749542      10.42197372
Li       7.87918209       5.49141623      11.79365758
Li       8.50382553       8.72189294      10.03004733
Li       7.72837050       0.23458219       5.22826341
P        2.50560194       3.39734113       8.90258260
P        0.38152426       2.16993285       4.51323248
O        9.42720964       1.06842810      10.61751296
O        5.17511047       6.65935113       0.79467928
O        1.69290160       2.18640602       8.55492435
O        4.41232818       1.00627483       6.84275719
O        1.49205657       4.57262069       8.96225827
O        1.27679522       1.15885902       3.63915212
O        0.78180404       7.15117160       7.43484299
O        3.67974764       3.54558349       7.75440911
Li       2.76595826       8.02918364       0.13832346
Li       0.03174230       8.70288671       0.96127152
Li       0.10653139       3.80637185      10.31688287
Li       7.22784887       6.90989041       4.76294105
Li       5.23197256       8.06039140       9.49711412
Li       9.75792881       0.93965527       8.66023852
P        2.54466366       8.81771229       2.69259622
P        0.63219178       6.69500503      11.81818899
O        1.00479214       9.09534416       6.01597319
O        5.38853226       3.98242185       1.07431612
O        3.14396274       9.61159958       3.85572484
O        6.81320427       2.03205760       1.28887477
O        0.91178332       8.87481613       2.72622490
O        9.22334859       7.52224354      11.34672110
O        1.33244264      10.27286502      11.65857013
O        3.02891566       7.34642516       2.73227230
Li       7.38438949       6.39470847       9.66068400
Li       5.87810245       3.84388602      10.66377788
Li       2.53675276       0.77960529       0.79573788
Li       7.51349449       7.84517467       0.03404601
Li       9.72152140       6.15318063       8.68108934
Li       7.37805758       0.07669804       0.15375472
P        4.90346332       6.68090263      11.68740166
P        0.83388616       8.78134657       7.40997991
O        0.64861086       5.17820980      12.00731554
O        3.11309580       3.24496297      10.27281157
O        6.38573757       6.85852730      11.13705745
O        3.38843245       6.23011719       6.00323306
O        4.18767974       5.32820102      11.19978191
O        2.07436958       9.10761791       8.36144459
O        1.05644353       4.65004515       5.65520331
O        4.06742402       8.04083399      11.18856325
Li       5.21786069       4.11435236       5.14499089
Li       0.32009784       2.74116806       7.24382333
Li       2.59207000       0.28708825       8.21779224
Li       1.95215963       5.80816293       7.00916095
Li       6.92688055       1.70247899       8.18950409
Li       7.99197583       2.20342711      10.46696854
P        8.64262661       4.35448715       2.98091610
P        5.56217245       0.24211752      10.55984960
O        4.27214723       2.49393454       4.84007356
O        6.65131752       8.24356189       3.81503371
O        9.34194721       0.30948213       0.59631164
N        9.17653257       2.85882423       3.63265651
O        6.87282124      10.04597379      10.88502651
O        7.92220353       4.40635022       1.55425557
O        7.83972151       5.11599431       4.09445119
Li       4.94055913       7.75082213       2.34684454
Li       3.27537360       3.20972512       6.14543863
Li       2.73934280       6.84955031       9.23293710
Li       3.62803817       3.79063967      11.92889262
Li       2.89813666       1.31128715      11.07379969
Li       5.24671199       9.47853455       4.60748804
P        8.13645724       4.13234211       8.72271538
P        5.23079195       1.70122636       5.71291196
O        4.48652484       0.33338529      11.78672407
O        8.12028267       7.85366706       6.17096898
O        8.47276545       2.63946708       8.73503770
O        9.52053923       1.46304356       5.62442754
N        8.59544965       4.95096665      10.03151579
O        6.35647338       2.57876197       6.26553591
O        5.82088557       6.08463848       5.94557138
O        6.59047053       4.46518295       8.83982793
Li       4.91894273       4.91532777       8.74740754
Li       8.14147394       1.64493380       2.58961180
Li       2.25317907       5.88460829       1.45121908
Li       4.87894943       1.69239650       8.44310555
Li       5.04740221       9.44043821       0.23931514
Li       2.96586082       8.81112253       5.67417454
P        7.34799483       8.96638761       2.66696799
P        6.85030649       3.51920555       0.67107995
O        4.77675401       8.41450340       6.24645686
O        0.10112433       5.00366733       2.75108159
O        8.23755633      10.15621994       3.28366762
O        1.09775564       7.28145203       0.73813251
N        8.22976868       8.09585839       1.74647065
O        7.33171278       3.53435984      11.70095118
O        6.00168363       1.63002694       9.98839740
O        6.19221790       9.55112808       1.77800419
Li       7.81375095       3.78413013       5.78754994
Li       3.58377167       6.01267500       3.89598494
Li       4.99929675       9.73180914       7.56068672
Li       0.18233567       7.00407520       2.74131792
Li       6.31369017       5.77389670       2.59677095
P        8.02277103       8.80300757       7.36721948
P        4.62822760       6.85450137       6.58242399
O        8.53301158       4.89714711       7.38838425
N        9.42055588       9.21229665       8.16938673
O        7.51249803       7.77902996       8.45466307
O        4.55498928       6.85705951       8.20337109
O        5.94253870       0.60079086       4.82566891
O        7.26597654      10.14748923       7.27224668
124
Lattice="9.90879 0.0 0.0 0.0 10.6625 0.0 0.0 0.0 12.434" Properties=species:S:1:pos:R:3 material=LiPON model=NEP89 temperature_K=900 phase="NVT production" display_name="LiPON｜NEP89｜900 K｜NVT production計算" report_figures="23_LiPON_lithium_MSD; 24_LiPON_transport_comparison; 25_LiPON_temperature_RDF" source_frame_index=2369 relative_time_ps=236.9 pbc="T T T"
Li       7.64504839       4.47586660       5.85034742
Li       7.54148811       1.00415452       3.42800665
Li       5.70326522       4.16465080       4.41903101
Li       1.46942681       7.36278653       5.29864454
Li       0.28679040       9.56394083       0.64878231
Li       6.75442058       6.51241225       7.52238242
P        3.43366734       3.44425225       2.07709073
P        0.62954889       1.39322826      11.51731773
N        0.93188051       3.79982244       4.83045203
O        3.97146348       9.52082710       3.31560391
O        2.53633889       4.55625383       1.41397992
O        4.88516517       9.91251783       9.78120299
O        2.73844949       1.98970529       2.07024838
O        0.05575065       2.92605933      11.70051474
O        0.25973819       6.53999810       9.77239628
O        4.14366385       3.89484348       3.38599663
Li       1.04876601       1.04148256       1.61351185
Li       0.91368296       3.70284635       2.61129761
Li       3.59463501       0.16045252       8.59671282
Li       8.67874764       4.19562177      12.09285148
Li       0.66283843       9.72565479      10.00493114
Li       7.35529779       9.47704823       5.19165821
P        2.23224754       3.28030261       8.62151165
P        9.69239842       2.55549832       4.76076843
O        0.03702945       0.77472251      10.16183056
O        5.79614850       6.27875518       1.24179739
O        2.19675359       1.76810722       8.51672626
O        4.55505410       0.96442960       7.25541643
O        0.76841355       3.83534030       8.56030220
O        0.83236742       1.47301584       4.52274352
O        1.30579274       7.15728576       7.29098365
O        2.89881686       3.85642575       7.28062695
Li       3.47834080       6.57211425       0.23216215
Li       1.12305931       6.56406161       1.60286934
Li       9.32957417       2.53642842       8.08739572
Li       7.19056518       6.92202935       5.00482621
Li       5.56362005       8.24364928       9.61468465
Li       3.57484042       2.45313560      11.09015032
P        2.77158328       8.83988254       2.52393824
P        0.99211436       7.10995396      11.02301145
O        1.29465721       9.60911545       6.16418401
O        4.60703787       3.27521003       0.93953132
O        1.82132834      10.05134227       2.01661184
O        5.83551080       1.43543605       2.06196612
O        3.48696712       8.36049576       1.26213533
O        0.18644994       8.30395933      11.42906547
O        2.17698569       1.13165414      11.40807540
O        1.84087715       7.85297819       3.26873392
Li       8.28662687       6.71795028      10.02561908
Li       6.00817195       3.58374387      10.88878063
Li       4.51882551       0.71809404       3.30512279
Li       6.14900723       6.31526166       3.17187359
Li       9.79670963       4.31396899      10.05280090
Li       8.30619495       9.26058740      10.85912369
P        6.11038877       6.28062036      12.23517018
P        1.18315666       8.77642463       7.50481028
O        1.02567544       6.03866218      12.26893908
O        2.85958069       3.85256561       9.91237332
O        7.63711512       6.08004203      12.05940908
O        3.40225073       6.46931496       5.66213586
O        5.24799512       5.13884367      11.43166905
O        2.39930657       9.09314916       8.30287315
O        1.06089806       5.11856369       4.71141382
O        5.46220149       7.53643556      11.55777462
Li       2.48630509       3.13504517       4.47250378
Li       1.97499694       5.14837523       6.46759237
Li       2.10535129       1.61571885       6.48035208
Li       9.85459161       5.84424213       8.05139141
Li       7.35745142       1.28724500       6.66985599
Li       8.07940339       2.15958775      10.82234724
P        8.11461120       4.34239714       2.99095699
P        5.52790900       0.34751916      10.76119220
O        3.43273263       1.06368494       4.93564063
O        6.86285856       8.12699704       3.31328098
O        0.14254594       0.74173532       0.34022641
N        8.55008631       2.75031821       3.56060133
O        6.98832650      10.57413595      11.02511401
O        6.74766071       4.08793669       1.96619112
O        7.56309411       5.26445120       4.13095386
Li       4.06123214       8.78386830      11.17992220
Li       2.36741044       0.80127045       3.49912245
Li       2.71866736       7.14898428       8.90932429
Li       2.07198544       4.21413875      11.96261035
Li       3.31939378       0.13849677       0.52566780
Li       5.61166434       9.77515241       7.53853125
P        7.13593422       3.98346185       8.54770215
P        4.82705558       1.50479193       5.83739799
O        4.81399375      10.66211423      12.07205261
O        8.15048698       7.68441372       6.53314374
O        7.35656558       2.44214500       8.19537258
O        8.89138349       2.26820109       6.08575220
N        7.56189168       4.29571450       9.99763933
O        5.08104538       2.98284856       5.80541656
O        5.73892311       6.19269152       5.94517566
O        5.57205434       3.98461795       8.49201878
Li       4.78200841       5.52353287       9.47055994
Li       0.64965743      10.22557682       4.48991454
Li       5.27189664       8.95112683       4.22594041
Li       5.19064831       2.32543366       8.38872189
Li       7.09713446       0.90968041       0.63904550
Li       3.15595437       9.96732278       5.22951505
P        7.98075450       9.03928200       2.67599098
P        6.01585550       2.86231001       1.23471487
O        4.84865104       8.58731094       6.08687368
O        9.11416974       4.95907186       2.11289735
O        8.63705656       9.66404699       3.95144133
O        2.43542808       7.48560818      10.79014122
N        9.18479181       8.31040310       1.80070399
O        7.05622336       2.64984551      12.36405312
O        5.26247521       1.75977264      10.14891982
O        7.42257842       9.94799435       1.52285390
Li       4.89786949       4.40275642       6.72393514
Li       2.92668623       5.96223561       3.98018364
Li       8.06541807       0.56377413       9.10145616
Li       8.98410005       6.49897791       0.97962264
Li       5.73321683       9.16745907       0.67905383
P        8.27161969       8.83999261       7.65178001
P        4.54665474       7.05072147       6.46749126
O        8.01191373       4.99840724       7.70769459
N        9.71907644       8.94688720       8.25870194
O        7.55529599       8.06080819       8.89463484
O        4.49154702       6.92433321       8.00224770
O        6.04799869       0.64773524       5.16756063
O        7.74605940      10.18060793       7.27223878
124
Lattice="9.90879 0.0 0.0 0.0 10.6625 0.0 0.0 0.0 12.434" Properties=species:S:1:pos:R:3 material=LiPON model=NEP89 temperature_K=900 phase="NVT production" display_name="LiPON｜NEP89｜900 K｜NVT production計算" report_figures="23_LiPON_lithium_MSD; 24_LiPON_transport_comparison; 25_LiPON_temperature_RDF" source_frame_index=2399 relative_time_ps=239.9 pbc="T T T"
Li       6.83634509       6.05871748       7.98879202
Li       6.85551242       0.73651829       3.65274185
Li       5.74031429       4.43297428       3.85761917
Li       8.68216309       0.48198550       7.37063245
Li       9.50601008       8.78161560       0.66321788
Li       4.58163338       5.07950630       9.08712264
P        3.72697861       3.94032644       1.72991533
P        0.51724287       1.43429458      12.14536364
N        0.95218060       3.15546152       4.88162031
O        3.33138924       7.46811832       2.19282952
O        2.70172423       4.68982254       0.98092007
O        4.60640597       9.75298341       9.22729234
O        2.93831661       2.91656387       2.51910580
O        9.85959331       2.68938475      11.54753201
O        0.42189461       5.61410920      10.64268375
O        4.54179039       4.98551223       2.61923363
Li       0.18877434       4.70342298       0.29453260
Li       0.22647666       0.17799276       2.33603163
Li       2.91819138       0.03888559       0.58804455
Li       7.94822590       4.04404311      11.71320645
Li       1.28679744       9.87862573      10.89972974
Li       6.48932022       9.22983881       5.79077624
P        2.31707962       4.05356222       8.45833102
P        9.79971984       1.88759009       4.80276745
O        9.26616262       0.44465606      11.81494479
O        5.47696563       5.46960710      10.91732396
O        1.91182848       5.54817897       8.28018023
O        4.96043741       1.22827878       7.17417302
O        3.24642161       3.98963385       9.71947450
O        0.78103072       0.68587225       4.27305585
O        1.99342787       9.11102853       9.05073650
O        3.10505028       3.54971064       7.25849776
Li       2.13333852       6.43757143       1.68071231
Li       0.39672515       9.20896387       4.65776354
Li       9.46645726       2.71203332       7.58150404
Li       7.35705031       6.93698907       4.73613353
Li       6.09291360       8.39569152       9.02872526
Li       2.58513134       5.09412006      11.03024401
P        2.80545475       8.91313297       2.53803653
P        0.76425310       7.00151001      11.53239024
O        2.61257535       9.84107953       6.66961881
O        4.91504446       3.22969961       0.60704913
O        4.02302677       9.93009746       2.55188660
O        6.23214463       1.32400471       1.53296646
O        1.84176114       9.49243205       1.51157819
O        9.87329149       8.23450130      11.13453405
O        1.85138715       0.96361326      11.43917025
O        2.39695350       8.76145929       4.02993143
Li       8.55090846       6.40497487       9.68243477
Li       2.22640618       1.75457150       9.43825786
Li       4.39989822       1.37870478       2.67810496
Li       5.14177401       6.69727338       1.99029352
Li       9.85933095       4.02113981       9.83955731
Li       7.52129125       8.93535962      11.30026533
P        6.36167272       6.54103838      11.64525916
P        1.44324678       9.81988875       7.76840867
O        0.42805862       6.84532855       0.63674397
O        1.02343764       3.12110694       8.52763309
O        5.79158911       7.57697780       0.22131415
O        3.44827318       6.20759655       5.68580698
O        7.45892587       5.73537637       0.07100195
O        1.00771196       0.63328442       8.12021239
O        1.05235483       4.25077110       5.52297190
O        6.96948683       7.39467851      10.35752729
Li       2.21111968       5.48220067       6.59831551
Li       9.41749090       5.35465451       6.65958104
Li       2.09464511       2.07923702       6.30519836
Li       1.07887139       7.37440680       8.99964931
Li       7.58631049       3.11744160       5.67145371
Li       8.77336277       0.95446733      10.16177664
P        8.33522640       3.46802747       2.90837304
P        4.66353933       0.05672305      10.38379440
O        3.62809490       1.65634666       5.11285059
O        7.53030886       7.18300863       2.76393615
O        0.95810545       1.53201513       1.26383358
N        8.78620227       1.91827830       3.40467643
O        6.27708931       0.03682687      10.36672451
O        7.05539515       3.69181735       1.77013435
O        7.77045568       4.37027842       4.02278355
Li       3.46618370       7.89431648       0.49747054
Li       3.34766831       3.42056708       4.45668257
Li       3.41373280       8.10834510       9.94231838
Li       3.08964554       2.42865215      11.84712473
Li       1.80516478       1.79229341       2.88300968
Li       4.23224459       9.59563527       7.37177414
P        7.30968145       3.36438513       8.45211758
P        5.02489015       1.54640058       5.69402798
O        4.29094829      10.23388866      11.79282713
O        8.48635748       8.09300598       5.47145639
O        7.58785908       1.83187527       8.58959522
O        9.01293938       1.62209109       6.10727304
N        7.67198949       4.10224259       9.74242532
O        5.76568575       2.98742564       5.45619418
O        5.86175222       5.90984135       5.46774714
O        5.84484190       3.65073742       8.31004990
Li       5.66721297       3.10760724      10.50163153
Li       2.55420782      10.27573305       4.80152877
Li       5.16392776       9.43855449       4.08759308
Li       4.29006962       2.63333009       8.36846727
Li       7.76769431       0.70762020       0.78314516
Li       2.60120470       8.13554831       5.50082553
P        7.93489245       8.63333769       2.47418686
P        6.36572838       2.64966220       0.82334425
O        4.82325795       8.23904022       5.62980955
O        9.43253004       4.11147207       2.11109894
O        6.90104674       9.32626307       3.60596082
O        2.29676634       7.03610072      11.32730538
N        9.40481980       8.85257576       2.92878362
O        6.97390977       2.44541007      11.87707177
O        4.05283327       1.46534946      10.00413148
O        7.85139722       9.29907643       1.03865239
Li       5.17013975       4.28854896       6.57583697
Li       3.48688939       6.20705088       3.87527881
Li       6.32711110       0.25276180       8.20538090
Li       8.17523568       5.68821911       1.84615790
Li       5.64481087      10.02528049       1.04967505
P        8.73976429       8.31681285       7.06200386
P        4.78747844       6.76947088       6.23734024
O        8.21317236       4.08078186       7.26418776
N        0.11422779       9.14577795       7.27772113
O        8.70097427       7.07452888       7.89645011
O        5.10793328       6.93701339       7.84644674
O        5.74395537       0.35860876       4.99265917
O        7.56673172       9.23805126       7.59035775
124
Lattice="9.90879 0.0 0.0 0.0 10.6625 0.0 0.0 0.0 12.434" Properties=species:S:1:pos:R:3 material=LiPON model=NEP89 temperature_K=900 phase="NVT production" display_name="LiPON｜NEP89｜900 K｜NVT production計算" report_figures="23_LiPON_lithium_MSD; 24_LiPON_transport_comparison; 25_LiPON_temperature_RDF" source_frame_index=2429 relative_time_ps=242.9 pbc="T T T"
Li       5.08770255       5.44990579       8.54050832
Li       0.18336071       7.82396806       3.75273222
Li       5.07488688       4.10625273       4.83685481
Li       7.87605705       2.74402986       5.60394441
Li       9.75484395       8.82913914       0.47452666
Li       2.82185486       5.31657766       6.26391090
P        3.48830371       3.89358028       2.15967673
P        0.02791407       1.10093755      12.17535417
N        0.94981789       4.36501628       4.93026452
O        3.46884593       8.19025476       2.55533109
O        2.04093748       3.58478261       1.55202852
O        5.10192069      10.06381981       9.46389287
O        3.67962536       3.16175542       3.50358792
O        9.25965733       2.25747504      11.35618852
O        9.77568415       5.35244080      10.43237359
O        3.68579563       5.48086510       2.26862022
Li       2.20282967       3.11058522      11.81264866
Li       9.83896733      10.37378759       2.26620539
Li       4.61174978       0.71231433       2.36376474
Li       8.57117144       3.92596166      11.46006625
Li       8.70010114       0.06973737       9.73635736
Li       8.00924459       9.51925384       5.22143439
P        2.97222414       3.60810766       8.67040504
P        0.25864162       2.83744874       4.51208540
O        9.61247998      10.39744541      11.41160594
O        4.88217482       5.44612979      10.38369632
O        2.20652819       4.78507689       7.88126959
O        4.82242365       1.05821416       7.07020513
O        2.80863581       3.93707532      10.27300393
O        1.18450801       2.08231924       3.54632744
O        2.55381168       9.89867789       9.11109942
O        4.37722236       3.62043463       8.17203728
Li       1.00144361       5.08904366       1.91719357
Li       1.88872468       1.79703946       1.81628953
Li       0.78719414       6.21477618       8.89144029
Li       6.77569161       6.92571196       4.76936799
Li       6.19272563       8.62033724       8.52559063
Li       3.00834517       5.94426045      10.33172138
P        2.35986849       9.31691367       2.48476188
P        0.50206621       6.50325441      11.25597878
O        1.84091918      10.14459736       6.56076549
O        4.52368125       3.21054932       1.03416989
O        2.90561952       0.12635149       2.30339961
O        6.18956668       1.59535014       1.86507781
O        1.36765957       9.02472900       1.30523254
O        9.20425970       7.20961198      11.87195282
O        1.60965478       1.24949116      12.21697761
O        1.40480861       9.20657167       3.79386305
Li       7.87362271       6.14619289       9.86100556
Li       3.71797971       0.79403318       8.56523282
Li       4.84744389       8.90103296       3.97019609
Li       2.66642761       6.91049861       1.35626397
Li       0.09915950       1.95050034       9.72484877
Li       7.18806263       8.91456253      11.22543343
P        5.50492125       6.65256863      11.16781689
P        1.30430539       9.84129555       8.00589536
O        1.44224190       5.98532028       0.04825203
O        2.30032545       2.17119540       8.42535824
O        4.38932258       7.69881477      11.59882390
O        3.51247793       6.90202507       5.61709787
O        6.13266888       6.19288615       0.06787545
O        0.20868689       0.06894895       8.65684633
O        1.40136467       5.56539001       4.91330386
O        6.48579564       7.28755234      10.01246791
Li       5.94734517       3.60244936       6.72979151
Li       9.90184496       4.86252793       6.97018931
Li       0.69215868       1.61870746       7.64623895
Li       2.39882799       7.46383985       7.54288300
Li       7.42290822       1.22507629       3.43650943
Li       7.22852583       1.76248022      11.19987339
P        7.96461163       4.46707530       3.23121930
P        5.41880920       0.24306813      10.73887271
O        4.79041126       0.10462297       4.42335727
O        6.12656074       7.87534235       3.08999838
O        9.34852842       1.08254104       1.15026455
N        8.69193452       3.18500353       3.86496938
O        6.97880379       0.01247649      11.07911584
O        6.47766917       4.11716428       2.60092537
O        7.74042320       5.49325363       4.48792999
Li       3.79887507       8.67930315      10.06281692
Li       3.18679954       1.10051735       3.95791531
Li       1.78776412      10.62016789      10.50961558
Li       2.72671789      10.19610372       0.25710415
Li       9.50907574       2.99887382       1.83974042
Li       3.90706067      10.17592054       6.52290389
P        8.04992558       3.31914628       8.39878512
P        5.57171718       0.93232531       5.68220598
O        4.58491373      10.44412180      11.97969977
O        9.05052259       6.33073582       7.75301897
O        7.43952835       1.88261910       8.49217951
O        0.08091556       1.81750370       5.76925633
N        9.60950394       3.06944332       8.29537413
O        5.83811354       2.37471935       5.34809427
O        5.51147350       5.55614693       6.40788306
O        7.52771991       4.10114229       9.61527958
Li       5.57154198       3.51912816      10.97458128
Li       0.94028267       0.27228908       5.00712388
Li       5.30575190       5.96877670       1.80021655
Li       5.38843397       1.95051807       8.58308372
Li       7.47363846       0.15327719       1.13955181
Li       2.00421184       8.40719126       5.59129238
P        7.26453586       8.57543952       2.39332152
P        6.14038412       2.99484550       1.35319024
O        5.69437114       8.04391688       6.04149418
O        8.83157747       5.01178102       2.08912304
O        7.84040440       9.94807918       3.11606372
O        1.40568911       7.24957714      10.26006944
N        8.54011043       7.75880171       2.32925604
O        6.87458229       3.28860213      12.42155244
O        5.40089592       1.64568273      10.40251535
O        7.02271631       8.96079309       0.90116474
Li       7.47162482       5.58174732       6.36767488
Li       3.45866654       6.75180423       3.69761003
Li       8.17727433       0.55795860       7.51772315
Li       8.22290872       6.74384894       0.95994870
Li       5.13762341       8.94011146       0.53292935
P        9.29104353       7.88266856       7.33253276
P        4.79478167       6.88831027       6.54803148
O        7.78831579       4.06599196       7.01082946
N        0.83166213       8.34663085       7.86172230
O        8.24491916       8.80969410       8.11123934
O        4.18271287       7.08579589       7.95364422
O        6.89687356       0.11437328       5.93072765
O        9.41013052       8.00640925       5.84525334
124
Lattice="9.90879 0.0 0.0 0.0 10.6625 0.0 0.0 0.0 12.434" Properties=species:S:1:pos:R:3 material=LiPON model=NEP89 temperature_K=900 phase="NVT production" display_name="LiPON｜NEP89｜900 K｜NVT production計算" report_figures="23_LiPON_lithium_MSD; 24_LiPON_transport_comparison; 25_LiPON_temperature_RDF" source_frame_index=2459 relative_time_ps=245.9 pbc="T T T"
Li       5.45747908       5.47948480       8.44933557
Li       3.08279451       9.90747468       5.28651402
Li       5.15141692       4.78764773       4.47428071
Li       7.21199596       3.40663728       5.24236912
Li       0.52005161       8.24970336       1.57113648
Li       1.97461028       1.20784096       6.54124882
P        3.56253715       3.53580215       1.50465758
P        0.59546851       0.49829603      11.63045855
N        0.81637287       3.98362913       4.80235928
O        4.20352621       9.73703781       2.32183998
O        2.22071639       3.04530694       0.90662554
O        4.99277642       9.88623000       9.36901122
O        3.71529450       2.96199488       2.83338045
O        0.13359997       1.76047590      10.96278798
O        9.80582687       4.64731486      11.75628469
O        3.91639114       5.05167545       1.45457013
Li       8.87031049       2.84506382       0.62373636
Li       0.13297513      10.45294038       4.62168448
Li       3.17679792       1.94192666      10.86652631
Li       7.45862577       4.66492942      11.41511032
Li       4.77961418       9.69982346       7.36187315
Li       9.27719550       6.88779584       4.58086038
P        2.82375003       3.77780708       8.56255139
P        9.68760136       2.69880484       4.33175720
O        9.54392068       9.89917419      11.12029436
O        5.62675703       5.27084612      11.48487945
O        2.09960492       4.89204203       7.78775485
O        5.19136506       0.94417427       7.19040860
O        2.53134901       3.83268179      10.09662172
O        0.91297788       1.48199907       3.90665155
O        1.66936385       8.82576901       9.27522567
O        4.45079007       3.86922213       8.47351618
Li       2.68344260       6.12237119       4.45764779
Li       0.05557871       0.98254051       2.33764715
Li       0.66841759       4.78226906       9.78824326
Li       1.44290909       6.46671642       7.07741811
Li       6.02417028       8.11216957       8.74291954
Li       3.12654544       5.36914719      11.41489765
P        2.95035627       8.88752260       2.54060643
P        0.38393266       6.03879415      12.06700972
O        2.53404259      10.05730516       7.18462248
O        4.69814131       2.60096437       0.54767353
O        2.05285262       9.36492867       3.75699042
O        6.57576318       1.27666767       1.42003450
O        2.18681841       9.02157009       1.20669018
O        9.14775966       7.13974593      11.76473608
O        2.09189743       0.29643666      11.38050755
O        3.33270503       7.43781696       2.90727794
Li       7.89606628       6.50754891       9.55267785
Li       3.58907789       0.67026361       8.17265902
Li       5.51177839       0.94579015       2.69082086
Li       3.00177712       7.25996184       0.67888183
Li       7.97809897       2.10355351      10.58206229
Li       7.54323007       8.83813276      11.00747310
P        5.54045648       6.72685494      11.50277397
P        1.24248092       9.57693828       7.90913727
O        1.04725807       6.39841227       0.86178996
O        2.40561718       2.44312945       7.90261484
O        4.00339610       7.22780279      11.18670683
O        2.93270677       7.09728307       6.17070429
O        6.06541327       7.15863207       0.48391106
O        0.56944061       0.25697974       8.08355845
O        0.83556623       5.27214886       4.99004221
O        6.36951109       7.44939818      10.40680596
Li       5.55943667       3.88488545       6.82753658
Li       9.74928635       4.61757139       6.67185207
Li       0.77761067       1.98077060       9.30327075
Li       2.64889134       6.83067835       9.52305100
Li       7.68178428       1.30106444       3.67086465
Li       8.87567951      10.20037146       9.20724114
P        7.92452777       4.34563471       2.76250882
P        5.71828670       0.04162637      10.44297545
O        3.30745274       1.28636156       5.41984219
O        6.92702432       8.65929656       3.79096060
O        0.14749490       0.64238656       0.62257737
N        8.99194458       3.16034451       2.86100738
O        7.15373389       0.40139065       9.88740391
O        6.53629485       3.90585648       2.02847550
O        7.49943378       4.99546543       4.14124811
Li       0.48364058       8.20591485      10.62176474
Li       2.65961788       0.92820828       3.50223729
Li       1.17968071       3.23569640      11.76216226
Li       3.71527209       0.24322592       0.80283197
Li       1.07374912       4.54369241       2.67712555
Li       3.42560533       9.06265627      10.02302119
P        7.98502370       3.99853934       8.42693999
P        4.86017786       1.48191597       5.66497136
O        5.77090441      10.25216413      11.85533103
O        8.38853121       7.37449459       6.29257890
O        8.29729715       2.50640111       8.59445458
O        8.76974400       2.08695891       5.38831956
N        9.22501445       4.90841934       8.56694388
O        5.14077501       2.99628325       5.49305121
O        5.31010786       6.11275678       5.90088272
O        6.99879643       4.61818987       9.48297237
Li       5.15507423       3.89716086      10.33518810
Li       6.94233861       9.64700819       5.57470894
Li       5.41883000       5.80700254       2.27416243
Li       6.04304305       1.90593659       8.61189270
Li       7.99640747       0.54435390       0.57234712
Li       5.19933371       8.15406497       4.27308431
P        8.18696651       9.09397514       2.99314457
P        6.23907328       2.64650528       0.86092448
O        5.05249406       8.53815645       6.15510559
O        8.59737720       5.45713160       1.94362370
O        8.70414554      10.55182229       3.38195966
O        1.33051439       6.28404845      10.73789420
N        9.32272382       8.06330302       3.19695171
O        7.17220948       2.99244431      12.03394806
O        5.12681443       1.62467975      10.49311991
O        7.77122059       9.05615726       1.39539628
Li       7.51965845       6.12966719       5.56687265
Li       2.95308571       3.20688994       5.84283194
Li       8.68313136       1.11844671       7.14794752
Li       8.07033004       7.29417751       1.03998004
Li       5.88959316       8.99998929       1.56386730
P        8.78713476       8.48384233       7.13568180
P        4.37350452       7.20723812       6.61660028
O        7.55390806       4.21934228       6.91095375
N        0.46509322       8.53028529       7.04758510
O        8.33953405       8.32961043       8.53925208
O        4.48625393       7.02769576       8.15161753
O        5.72653190       0.68492400       4.58131171
O        8.30006548       9.88014528       6.53187048
124
Lattice="9.90879 0.0 0.0 0.0 10.6625 0.0 0.0 0.0 12.434" Properties=species:S:1:pos:R:3 material=LiPON model=NEP89 temperature_K=900 phase="NVT production" display_name="LiPON｜NEP89｜900 K｜NVT production計算" report_figures="23_LiPON_lithium_MSD; 24_LiPON_transport_comparison; 25_LiPON_temperature_RDF" source_frame_index=2489 relative_time_ps=248.9 pbc="T T T"
Li       5.36089927       5.53479598       8.55497510
Li       9.51310868       6.51911738       2.59011049
Li       5.85776607       3.08997435       3.86369714
Li       7.82699258       3.59403531       5.44420770
Li       0.52486382       8.86360137       1.15230840
Li       3.01228409       1.23001603       7.19220358
P        3.74717222       3.69229790       1.43262687
P        0.09837395       0.70034459      11.56659847
N        1.43384712       4.19733950       4.96860090
O        3.33912935       0.61332996       1.31069669
O        2.50065353       3.16943206       0.61069858
O        3.87339112       0.21875471       8.70385544
O        4.33860591       3.01476329       2.67120660
O        0.21290132       1.68535830      10.37209040
O        0.36589543       4.78177271      11.76319772
O        3.54915929       5.20525919       1.63324374
Li       0.47102459       3.73176603       0.91586159
Li       0.78067529       0.10912317       3.86067329
Li       4.08407508       1.39579376      11.89607704
Li       7.46166029       4.84112151      11.47894574
Li       4.91019889       9.86584574       7.38445198
Li       1.20703765       8.61522105       5.44050462
P        2.81539940       3.66555469       8.88999789
P        0.46300707       3.19173031       3.95283584
O        8.70351292      10.52573798      11.40548324
O        5.57285872       5.16086626      11.54287075
O        1.92444579       4.90472174       8.95151595
O        6.17992412       0.23152009       6.59727858
O        3.05995255       3.37027586      10.37880968
O        1.34078250       2.10957963       3.06569368
O        1.20820589      10.00780860       8.78586245
O        4.02406378       3.91957881       8.09957284
Li       1.86266970       5.95378857       6.93939290
Li       1.58754631       1.60618071       1.28224049
Li       0.05436559       4.99838182       9.02325759
Li       2.71201857       6.53064937       9.78394195
Li       6.20490239       8.17309270       8.88193344
Li       2.35879272       4.43763082      11.46620695
P        3.25240113       9.93911991       1.96222373
P        0.08684020       6.30742238      12.14650050
O        1.68472684      10.16999089       6.16894042
O        5.36057056       3.16185720       0.59556054
O        2.61026607       9.89808557       3.32663400
O        6.48787324       0.84233803       1.08518819
O        2.60429957       8.76766231       1.07750813
O        8.54222378       6.59134583      11.94564292
O        1.17746375      10.34262604      11.30675031
O        4.85298972       9.50883188       2.22096477
Li       8.29631208       6.48602386      10.04076414
Li       2.05344810       0.73961502       9.57490408
Li       4.67651972       1.28799262       2.17697685
Li       2.53834805       6.88261057       1.12528098
Li       7.12076067       1.43917856      10.72390579
Li       5.33897524       9.39405036       0.31517943
P        5.47558707       6.70520291      11.41601627
P        0.67538013      10.13831547       7.39032192
O        0.79884759       6.40594504       1.11445427
O        2.10846266       2.43269061       8.19850056
O        3.86706555       6.96133676      11.24153786
O        2.61762300       7.14962216       5.46196367
O        6.08865560       7.45726156       0.11634859
O        9.51107408       0.57161783       7.23523962
O        2.25239632       4.42490353       5.98403211
O        6.24045960       6.97319601      10.06658858
Li       5.83991081       4.67537338       6.07732179
Li       1.06394707       3.10189834       6.73710230
Li       0.18022162       2.09070993       8.55807529
Li       2.84355689       8.87295798       7.46327359
Li       8.61823532       0.82158815       5.35843405
Li       8.15635559       8.45054869      10.93134565
P        7.75466640       4.45176518       2.86243248
P        4.89475969       0.05650800       9.87762364
O        4.03784907       0.82579840       5.50312511
O        6.95225392       8.57458849       4.04596558
O        0.05396280       1.62371632       0.44574262
N        9.47699834       4.47866711       3.20224335
O        6.16485608      10.21493695       9.05660153
O        7.46075579       2.91786372       2.23005106
O        6.90303631       4.85893171       4.04757916
Li       0.44089805       8.96064937      10.19444153
Li       3.18422813       1.93919248       4.15253061
Li       9.47528653       3.26600364      10.89955310
Li       4.74551078       7.60132028       3.05259848
Li       2.27652001       5.82821975       3.75627921
Li       2.84744821       8.66996653      11.62666060
P        7.82017177       3.47527813       8.35776185
P        5.51894438       1.22844931       5.47947214
O        4.54977066       9.89644326      11.09420823
O        9.65948934       6.35368519       7.50286586
O        7.25835776       2.01121329       8.48981138
O        9.44612111       2.35810315       4.85792525
N        8.94076637       3.39882149       7.39487443
O        5.81844124       2.69071352       5.80390081
O        4.97157358       6.08178048       5.65140042
O        8.52457810       3.93939849       9.65537033
Li       5.06244671       3.34287681      10.69803238
Li       6.34222190       9.13384107       5.97526954
Li       5.42492547       5.54201825       1.06091498
Li       5.54278637       2.56595913       7.77798946
Li       8.26210457       0.83074838       2.07450980
Li       3.39064339       9.75341047       4.97521682
P        8.48020593       8.75189385       3.75972216
P        6.66374683       2.33879782       0.73660091
O        4.57024314       8.60274787       6.13127590
O        7.14899648       5.49298167       1.83450387
O        8.94701608      10.21986697       3.98244289
O        0.82999408       7.28498195      11.15868100
N        9.56374548       7.80457074       4.51194568
O        7.54580045       2.65763915      11.99981584
O        5.39877183       1.38873906      10.50490001
O        8.79950533       8.59917132       2.27524549
Li       7.22512469       6.77781609       4.98599908
Li       0.18099159       5.85101585       5.10441924
Li       7.35092991       0.33197160       7.92720654
Li       7.61958949       6.96233206       0.86717655
Li       6.09634037      10.21662378       3.11777496
P        8.93975893       7.80103127       7.72226734
P        4.00039698       7.12477987       6.29266005
O        6.71042621       4.50782952       7.90403158
N        9.57745026       8.96502888       6.92402165
O        8.65837898       8.09862400       9.19217383
O        3.84248217       6.90935809       7.84074220
O        6.29310080       1.01614964       4.12861744
O        7.49892993       7.54956475       7.05906422
124
Lattice="9.90879 0.0 0.0 0.0 10.6625 0.0 0.0 0.0 12.434" Properties=species:S:1:pos:R:3 material=LiPON model=NEP89 temperature_K=900 phase="NVT production" display_name="LiPON｜NEP89｜900 K｜NVT production計算" report_figures="23_LiPON_lithium_MSD; 24_LiPON_transport_comparison; 25_LiPON_temperature_RDF" source_frame_index=2519 relative_time_ps=251.9 pbc="T T T"
Li       2.20172803       4.31468422       5.25040314
Li       7.15686382       5.06968017      12.08310684
Li       2.46652751       6.80358738       3.49881707
Li       7.57811322       3.82229746       5.56870420
Li       0.42109609       8.97522797       0.64905419
Li       3.85859257       0.03118742       7.46769813
P        3.68717964       4.26722087       2.39901234
P        0.54816913       1.18285956      11.61349910
N        0.64616445       4.58033732       4.62498200
O        3.45526782       0.34961813       3.20747107
O        2.79448778       3.41551325       1.59188917
O        4.69215762       9.77033848       8.92318438
O        3.91632702       3.75663405       3.90409213
O        9.61332531       2.10857026      10.71892235
O        0.70679343       5.04030384      12.09268000
O        3.51162235       5.81259754       2.22541364
Li       8.35651379       7.04693190       1.01565495
Li       0.52051747       0.07940717       4.03913744
Li       3.34664123       0.55023557       0.08673781
Li       9.26125523       3.75264333      11.55733099
Li       7.87255830       9.06211295      11.67073754
Li       0.21229445       8.08663796       3.92605195
P        2.90205375       3.42977146       8.12447537
P        0.16599635       3.04601871       4.18015196
O        9.86832713      10.29796942      11.63622664
O        3.76306738       4.93363893      11.71262413
O        1.91902416       4.34884484       7.17838107
O        6.35817677       0.51447105       7.10918795
O        2.65942880       3.85434598       9.61197685
O        1.30722878       2.11623682       3.87422870
O        1.28734927       9.03442153       8.44880357
O        4.34718438       3.55915764       7.82845830
Li       1.11361730       6.25902830       6.21870548
Li       1.97271113       1.78871235       1.91103439
Li       1.71764517       7.26651604       8.50013188
Li       2.74973470       5.62837156      10.02310650
Li       5.54002240       5.03351611       7.84977720
Li       3.07393069       2.37081970      10.69055189
P        3.11800189       9.58696183       2.55463110
P        0.67694235       6.48277342      11.55483680
O        1.58542074      10.28809653       6.25896618
O        5.08710756       3.98137649       1.55208901
O        2.04979394       8.81628910       3.31648386
O        5.11295783       1.61909976       1.04235915
O        2.58956774       9.95527856       1.08987099
O        9.26148418       7.34537406      11.59986769
O        1.96594444       1.01872101      10.96819561
O        4.47936287       8.80721766       2.42660414
Li       7.39510673       6.46151748       9.52672283
Li       2.88048444       8.44681815      11.29697272
Li       5.47962853       0.24994299       2.77115731
Li       3.09325171       7.17840750       1.11151990
Li       7.45578895       1.55382724      10.69464741
Li       7.75328603       1.34456694       4.33663923
P        4.62217021       6.16141682      11.40836033
P        0.58367083       9.86755606       7.40102526
O        1.76054325       7.27118410      12.40894815
O        2.49385508       1.85118986       8.02182866
O        3.80875949       7.02484870      10.31459761
O        2.71051002       6.59290105       5.36134530
O        4.92163483       6.91990532       0.24526898
O        9.89902082       0.44330208       7.96993891
O        0.46516043       5.83238539       4.39840557
O        5.99716006       5.79343436      10.71890173
Li       4.85719474       3.84823957       5.58818169
Li       0.58241775       2.24737709       8.92192590
Li       2.86283713       0.20919400       9.56493502
Li       4.46276137       8.01876325       9.06211363
Li       7.60881480       9.44043951       5.72831473
Li       9.02703658       9.99884909       9.88828577
P        7.91608249       4.19711097       2.72796535
P        5.30665863      10.39783068      10.27706329
O        4.26066012       1.19682242       5.88051170
O        7.39843505       8.57880711       3.67851460
O        0.39745328       1.76587864       0.57104592
N        9.41149561       3.59672535       2.78280389
O        6.86244342      10.46523054      10.44224936
O        7.31149365       2.72471442       2.13113306
O        7.12007860       4.75500874       3.97773963
Li       9.72348430       7.37483923       9.30682803
Li       2.98817303       1.55447005       4.47011262
Li       0.53487421       4.62784208       9.05204235
Li       6.91125249       6.20910049       5.21893146
Li       5.77549902       7.56642368       2.61364974
Li       5.41496511       8.65967892       0.45426836
P        7.90210531       4.06921883       8.65257104
P        5.74387200       1.13743978       5.75468374
O        4.62156529       9.93636286      11.51218698
O        9.77821402       6.79178920       7.39826548
O        6.94080893       2.89838106       9.24924371
O        9.12329469       2.39929109       5.11190116
N        9.12124239       3.29702703       8.06550444
O        6.41013512       2.57784229       5.68282356
O        5.10150440       5.78499066       5.47588497
O        8.34241909       4.93463941       9.82268305
Li       5.36936495       3.00116187      10.38051949
Li       6.61022548       9.56813701       7.80936293
Li       2.34747791       4.77429111       0.17568919
Li       5.64539170       2.16327572       8.19693488
Li       0.19881105       4.31346749       1.35913992
Li       2.86243123       8.89696951       5.14224506
P        7.93152603       9.21390302       2.37769673
P        5.96648515       2.81139716       1.05096029
O        4.51060856       8.33105776       5.81501714
O        7.92185902       5.16501466       1.63851591
O        8.23856191       0.09164208       2.56161014
O        1.08805651       6.33978245      10.09509170
N        9.32964147       8.50014449       2.21715283
O        6.72274276       3.18504808      12.16380699
O        4.72407334       1.18035383      10.02267753
O        7.32517903       8.70496978       0.97731512
Li       0.02666619       4.24716487       6.67643656
Li       1.66907353       1.37234425       6.43376760
Li       8.12540695       1.74401651       7.30571452
Li       8.72450833       1.50468938       1.59586699
Li       5.68443562       9.22505134       4.29410954
P        8.58761591       7.87182135       7.35303016
P        4.14891456       6.85415869       6.10803876
O        7.26564463       4.93162518       7.49208971
N        9.37002197       9.07462368       6.50946201
O        8.02816879       8.36272120       8.77062312
O        4.13705264       6.48916637       7.62152758
O        6.29254171       0.13178135       4.85391853
O        7.49977099       7.51999691       6.33610539
124
Lattice="9.90879 0.0 0.0 0.0 10.6625 0.0 0.0 0.0 12.434" Properties=species:S:1:pos:R:3 material=LiPON model=NEP89 temperature_K=900 phase="NVT production" display_name="LiPON｜NEP89｜900 K｜NVT production計算" report_figures="23_LiPON_lithium_MSD; 24_LiPON_transport_comparison; 25_LiPON_temperature_RDF" source_frame_index=2549 relative_time_ps=254.9 pbc="T T T"
Li       3.84902255       3.49231859       5.50699194
Li       8.45269640       4.63729948      11.55013070
Li       5.21596224       7.42640047       2.92022242
Li       0.41559541       2.24505647       6.74600112
Li       0.06598585       8.77169034       1.67978289
Li       4.78391479       9.41887905       7.99870635
P        3.88053254       4.68063096       2.30532265
P        9.81417903       0.85021998      11.69079212
N        0.88805687       4.56559582       4.24818858
O        2.55187715       0.01908339       1.75783797
O        2.55527682       5.20168096       1.88093766
O        3.80075298       9.70055936       9.69761547
O        3.97781492       3.99487331       3.75080340
O        9.58105613       2.38093536      11.62269453
O        0.46015932       5.67051347      12.04747397
O        5.03169392       5.79840997       2.31098186
Li       7.60431162       6.76257236       0.30725844
Li       8.24937243       0.90434340       4.44634366
Li       4.38853734      10.51001669       1.19661301
Li       0.60704353       3.73043297      10.78077767
Li       6.90583751      10.23712184      12.33534436
Li       2.46811619       0.82334946       5.00372338
P        2.46430554       3.31721478       8.72273703
P        0.34774441       3.06771132       3.64607342
O        8.85965011       0.24682313      10.61932360
O        6.48465044       5.57652715      11.52852157
O        1.76077526       4.58045703       8.09272363
O        5.02510951       0.46649358       7.48994788
O        2.42983465       3.72915325      10.32739606
O        1.65599228       2.40374595       3.36360545
O        1.24844969       9.62410596       8.51417692
O        3.94178978       3.27260423       8.33985463
Li       1.77796117       6.25173065       6.97002847
Li       0.82310431       0.81060152       2.14006546
Li       2.39693624       8.64738237       9.56661341
Li       5.26790226       4.83721850       7.84605211
Li       5.37776321       4.94987112       4.52588331
Li       2.92417518       1.96529940      11.91190688
P        2.83570636       9.47927649       2.72667179
P        0.41309997       7.03333194      11.39192610
O        1.65024424      10.60794189       6.29076418
O        4.46166274       3.54191762       1.10043352
O        1.52230396       8.96293341       3.20351113
O        5.04856998       1.20508556       2.17544010
O        3.64619646       8.42255810       2.07997226
O        8.85286128       7.56196962      11.22828691
O        1.39777663       0.65396069      11.39188366
O        3.50648922      10.03354536       3.94734350
Li       8.17815341       6.26565613       9.59412757
Li       2.54643543       9.73278996       0.11354994
Li       5.50838775      10.37327622       3.61019179
Li       3.17346402       6.30605582       0.36015925
Li       7.15918096       1.51542363      10.71272335
Li       8.05406885       1.41152198       1.69879135
P        5.55431260       6.21858357      10.42555927
P        0.53526749      10.07430741       7.16865450
O        1.43240677       7.94194062      12.24121722
O        1.68186414       2.00804694       8.31612431
O        4.87851316       5.18503390       9.48908737
O        3.14718699       7.42880830       5.45530334
O        4.28654537       6.96760547      10.97873875
O        9.13735360       0.12770409       7.38112117
O        1.26649342       5.28804659       5.21662642
O        6.41266024       7.22556260       9.42472480
Li       7.57371168       3.45405305       5.54968337
Li       9.56101354       1.37156753       9.03163219
Li       2.23695254       0.27487988       9.70009997
Li       6.81937222       6.88158951       7.46884199
Li       6.54607845       8.83209999       5.64753856
Li       7.21008076       9.11933097       9.67887129
P        7.78729652       4.25298397       2.61617967
P        4.68246927      10.51243025      10.70966356
O        4.16042061       1.48522942       5.34325664
O        6.34576225       8.55447139       3.57212403
O        9.63000095       0.15969885       0.65047028
N        9.18272065       3.52491625       2.33274930
O        6.16838977      10.44251843      10.44434330
O        6.68289598       3.11571811       2.45462800
O        7.72183842       4.92420063       4.00494508
Li       9.86035868       8.56054912       9.59737187
Li       3.83779184       2.19839672       3.07045063
Li       0.38391367       5.67776507       9.12209518
Li       9.39659911       9.13396765       4.64973236
Li       5.95694767       4.99987787       0.79876783
Li       5.43277609       8.14639156      11.99649216
P        7.97180550       3.65935328       8.60857857
P        5.48242050       0.98750244       6.05005474
O        4.43404878       9.79304171      12.05599248
O        9.79007116       6.38457225       7.25614055
O        7.07656760       2.72560074       9.32100819
O        9.40389928       2.42196568       4.76741071
N        8.93602163       2.95171135       7.70548747
O        6.32679036       2.26187526       6.49415271
O        4.69429444       5.49007148       6.20846318
O        8.87321018       4.54847274       9.61864285
Li       4.81384808       3.37656738      10.15335570
Li       7.60523257       6.84149978       4.35442643
Li       3.01304649       5.93913585       9.50215319
Li       5.46029672       2.18521693       8.26448250
Li       1.87366969       6.79803304       4.20167210
Li       2.29770351       9.09604776       5.39056507
P        7.38375932       8.90838540       2.42098676
P        5.62966135       2.39221981       1.43001188
O        5.21787223       8.05597958       6.88745651
O        7.97061022       5.21625986       1.49459181
O        8.04243143      10.34247005       2.79539102
O        1.16646007       6.97321194      10.00812830
N        8.57905228       7.93598620       2.86618038
O        6.41566620       1.72544149       0.30948186
O        4.31124370       1.28732702      10.76713466
O        7.01283515       8.71175769       0.98625243
Li       9.20638598       5.53898296       5.74763341
Li       3.17493180       1.18921987       7.53355809
Li       7.40138014       1.23246893       7.50856135
Li       0.94372455       4.59040726       1.16100510
Li       4.47529606       8.67103297       5.07340414
P        9.14056622       7.75396207       6.99651704
P        4.07971503       7.00484035       6.56495813
O        7.26292226       4.68015639       7.64261519
N        0.23984374       8.77241144       6.31948424
O        8.47626402       8.34627838       8.24065384
O        3.18976446       7.07019501       7.86426598
O        6.36511363      10.64585935       5.25643707
O        8.14733260       7.73819409       5.86211039
124
Lattice="9.90879 0.0 0.0 0.0 10.6625 0.0 0.0 0.0 12.434" Properties=species:S:1:pos:R:3 material=LiPON model=NEP89 temperature_K=900 phase="NVT production" display_name="LiPON｜NEP89｜900 K｜NVT production計算" report_figures="23_LiPON_lithium_MSD; 24_LiPON_transport_comparison; 25_LiPON_temperature_RDF" source_frame_index=2579 relative_time_ps=257.9 pbc="T T T"
Li       2.24519613       5.50122360       6.21988553
Li       8.06412115       4.70373498      10.58708701
Li       5.25163628       5.82979410       3.88364487
Li       8.97359074       0.05278986       6.29530895
Li       9.69712556       9.17062544       0.51232749
Li       5.47894282       8.18556264       9.25149850
P        3.02329624       4.61790506       1.79317591
P        0.09352952       1.95544557      11.84969749
N        1.28356908       2.92410417       5.02550957
O        1.69100493       9.03299258       0.69653566
O        2.41347919       3.29760898       1.31213185
O        4.36688942       9.79510701       9.85063430
O        2.32894642       5.13925380       3.11706552
O        9.61558353       3.36574080      12.38624573
O        0.23963568       6.69960471       0.30768370
O        3.00510365       5.65298712       0.61171384
Li       0.52973612       4.23597073      10.71905899
Li       7.53651429       4.04723422       0.70559309
Li       4.62425121      10.33560582       1.68813135
Li       2.83037885       2.60167644      11.78212763
Li       7.12570158       0.79673664       0.39186595
Li       3.22539350       1.28464543       3.29384674
P        2.60009731       3.82657292       8.76546235
P        9.76238184       2.44271770       4.23803252
O        9.53258756       1.73481029      10.44233520
O        7.33029688       5.60183834      11.93078526
O        1.72319120       4.93908767       7.96620549
O        4.69310197       0.42011038       7.41235099
O        2.51947366       3.86137991      10.33279891
O        0.05895748       2.36436205       2.60637011
O        1.45195726       9.72230637       9.44553479
O        3.99899761       3.87061131       8.25575305
Li       2.08815623       6.89314132       8.44849670
Li       1.65034629       1.77536855       1.65587048
Li       2.86996196       8.62689905      10.21656880
Li       5.62468387       4.93196895       8.99746566
Li       4.46249192       3.48076224       4.50732414
Li       2.83591336       0.76034336       9.34125253
P        2.49953238       9.26632780       2.06869456
P        0.26761724       7.11519965      11.15375171
O        1.22231393       0.01889325       7.07665129
O        4.60647439       4.28520245       2.15784309
O        1.74818432       8.58049743       3.21321777
O        4.81849190       1.74825024       2.25399082
O        3.74458433       8.41892982       2.04321035
O        9.51709330       8.50756770      10.93849111
O        1.52833333       1.51921565      11.92418203
O        2.69730612       0.07938215       2.02378884
Li       8.38169875       7.38118058       9.38332567
Li       2.52435111      10.55534937      12.26784011
Li       4.53787534       9.42501219       4.27526788
Li       2.28660238       7.42148742       0.40138970
Li       5.54634622       3.11473764      10.78306521
Li       9.30049451       0.81901569       2.25916732
P        6.23081649       6.21536362      11.06955999
P        0.77309040       9.75449605       8.11577943
O        1.87085794       6.92176725      10.74415526
O        1.99013323       2.41814963       8.32013189
O        5.08548126       5.10708225      10.90329083
O        3.77848903       8.42173182       5.71101229
O        5.32915692       7.37880785      11.72834414
O        9.23780612      10.17884533       8.40156175
O        2.46572175       3.23233454       4.81355523
O        6.75571253       6.50049721       9.67542936
Li       7.26044658      10.47747944       7.80243500
Li       0.17251891       1.83973157       8.59585019
Li       9.09037445      10.25261554      10.37961281
Li       6.95023694       2.82455970       5.42748104
Li       7.49477914       6.27097556       6.04192021
Li       6.48177202       8.83068658      11.90063582
P        7.87680592       4.41251544       3.46522607
P        4.97874912       0.16121272      10.92163841
O        3.69086924       0.47704689       4.99134900
O        6.72466871       8.64552830       3.60265601
O        9.08952897       0.95697287       0.38579457
N        8.71961479       3.66228038       4.60779666
O        6.59261967       0.09422262      10.68892553
O        6.99038609       3.21488864       2.69772786
O        6.73749504       5.25577815       4.21838927
Li       7.78204903       1.16829696       9.83505949
Li       6.26074886       1.00452709       3.65132529
Li       9.57249451       5.57150332       8.16847271
Li       0.38303398       9.73595648       4.30528660
Li       8.31519437       6.81452511       0.71324157
Li       4.95634952       7.56438353       1.23851897
P        7.71559545       3.16194597       8.03091924
P        4.86697386       0.95219023       5.91251143
O        4.59317081      10.55501779      12.36110627
O        8.74111419       7.03550141       7.46114415
O        6.95544368       3.24379342       9.45795536
O        9.43005310       1.06363800       4.75151815
N        7.65918103       1.66103903       7.66974722
O        5.23050293       2.42804796       5.80126648
O        4.18992311       5.87156634       5.97212962
O        9.26928059       3.52478019       8.05231057
Li       5.31342254       1.96233686       8.46130968
Li       9.62351174       6.82326264       3.06904160
Li       3.29899541       5.32052778      11.20927669
Li       5.05553853       4.15602593       6.80187961
Li       2.16659736       7.28450429       4.45101864
Li       2.47245438       9.86992577       5.78937593
P        7.38729373       9.32543473       2.41440702
P        5.56755901       2.89795692       1.66551976
O        6.08594683       7.53936947       6.48005150
O        8.66022415       5.18503125       2.46596650
O        6.62776906      10.62543091       2.07201182
O        9.42748628       6.08644110      10.17425344
N        8.96234033       9.47751842       2.62019271
O        6.38916698       2.87431709       0.34247178
O        4.29382208       1.44162124      10.37210311
O        7.14274332       8.23651175       1.30303109
Li       0.30103122       4.24472049       6.00325907
Li       1.95916227       1.48991057       6.44827781
Li       7.37352184       8.89613626       5.53956389
Li       0.30309332       4.07508478       1.41343231
Li       3.60638350       9.55127267       7.61885307
P        9.80671460       7.61738548       6.51958844
P        4.61579118       7.26589178       6.60734154
O        7.12373884       4.13702357       7.02035799
N        0.90572791       8.24826262       7.51900022
O        9.25314255       8.66040169       5.58786157
O        3.96865996       7.48195584       8.02493041
O        6.23701428       0.18076171       5.54821446
O        0.77462433       6.54089400       5.92657058
124
Lattice="9.90879 0.0 0.0 0.0 10.6625 0.0 0.0 0.0 12.434" Properties=species:S:1:pos:R:3 material=LiPON model=NEP89 temperature_K=900 phase="NVT production" display_name="LiPON｜NEP89｜900 K｜NVT production計算" report_figures="23_LiPON_lithium_MSD; 24_LiPON_transport_comparison; 25_LiPON_temperature_RDF" source_frame_index=2609 relative_time_ps=260.9 pbc="T T T"
Li       2.13121722       6.53565119       3.93769299
Li       7.62820674       4.28382277      11.77445941
Li       8.50219502       7.08641696       3.81770149
Li       8.54299685       1.23493994       6.62021445
Li       8.51848180       9.68014299       0.50044010
Li       7.27514957       8.07538140       8.60679332
P        3.42434451       4.32480164       2.19636492
P        9.60923157       1.68777805      12.31011640
N        1.26883234       3.24090493       4.96263166
O        2.33114771       8.32120874       1.02204810
O        3.43531443       2.97525057       2.99015124
O        4.56796660       9.75643349       9.09644988
O        3.51821089       5.53998347       3.06706206
O        9.36779967       3.21221342       0.00237673
O        0.29650521       6.29826325       0.11823578
O        2.31674617       4.27923437       1.13050589
Li       1.12073926       4.31723114      12.02966986
Li       0.06200428       4.25782532       1.52281554
Li       4.51311301       9.42708145       4.33793023
Li       2.56525754       2.58466388      11.53004812
Li       4.12329122      10.16671681       0.87627509
Li       5.13942969       3.43168750       3.79280808
P        2.55712254       4.00915730       8.88035139
P        0.08633929       2.26925729       4.25979669
O        8.92961456       1.25342753      10.99355886
O        6.96247349       6.14573172      12.11550257
O        1.66821471       5.13722418       8.27895596
O        4.24736181       1.25528178       6.73062397
O        2.39204981       4.16962517      10.42561259
O        1.04383192       1.54831326       3.35287902
O        1.56843131      10.04219661       8.95478481
O        4.02592076       3.94722546       8.22602604
Li       2.38636698       5.89897131       6.46882247
Li       1.97437589       1.83594188       1.77592902
Li       3.64097519       8.32920585       9.02938767
Li       5.09261790       5.35246636       8.77636479
Li       5.22592251       6.24472292       3.91229811
Li       2.14879429       1.17627571       9.43322690
P        2.34168035       8.98518544       2.49895398
P        0.30612625       7.12764795      11.24894233
O        1.22517654      10.16040522       6.43581074
O        4.87378349       4.15500646       1.35852779
O        0.92118786       9.30417650       3.08982911
O        5.24504473       1.45751277       1.25254427
O        3.11216128       7.99277586       3.44820606
O        9.86095125       8.64292477      11.44829554
O        1.26936968       1.50493098      12.37982378
O        3.46899669      10.10882277       2.39730740
Li       8.42367336       5.88775613       8.85412966
Li       1.72164617      10.38064658      10.96545911
Li       5.99389249       5.69011402       1.31145118
Li       3.04938075       7.93913554      11.87601155
Li       5.51945461       3.47272377      10.14866766
Li       6.76493365       0.74479376       0.29526918
P        5.70775585       6.52282985      11.21007979
P        0.58429000       9.81013010       7.78969002
O        1.79490467       7.16162705      10.55779375
O        1.73063958       2.69821249       8.66338811
O        5.09864069       5.17526878      10.57767593
O        4.03864058       8.55048064       6.12858052
O        4.61237025       6.96380451      12.13674354
O        9.25359580       0.05244101       8.09211209
O        1.89473542       4.18344178       5.79991155
O        6.05228178       7.54266837      10.18580625
Li       6.52236023       0.19259888       8.01962700
Li       9.77860613       2.22679939       9.01243750
Li       9.07238503       9.98158185      10.32898870
Li       7.87099467       3.47912792       5.47765982
Li       7.24327695       6.21784501       6.32470558
Li       5.88338007       8.66879114      12.07000668
P        7.79092335       4.08101953       2.90497251
P        4.46980039      10.61977211      10.43186825
O        4.79472480       0.59102585       4.42652416
O        6.10835523       7.15498398       2.63919802
O        8.84692128       0.89557994       1.00579335
N        8.77302136       3.30808674       3.76756905
O        5.83595911       0.07633665      11.10873803
O        7.18963689       3.13888169       1.80495794
O        6.64974078       4.53695588       3.78519418
Li       7.45122283       1.71487921      10.33294652
Li       8.43882628      10.33946201       3.10245355
Li       1.43274818       7.03629407       8.68406312
Li       0.13852823       9.84491795       4.81454335
Li       8.40856348       6.65862340       0.71072186
Li       5.96846252       0.75860900       3.07499837
P        7.59246780       3.36234942       8.36988463
P        5.40447118       1.18315766       5.72628489
O        3.42201387       9.92384644      11.44793429
O        8.94916292       6.13971854       6.85162586
O        6.67917260       2.18238212       8.86605578
O        9.39942676       1.22504716       5.07146933
N        8.76732707       2.92432895       7.48471259
O        6.06196994       2.57198835       5.37296298
O        4.85709504       6.20114577       5.79838212
O        8.27373509       3.82261756       9.76399806
Li       4.37630274       2.14198876       8.40371874
Li       0.24356295       7.87389958       1.56050539
Li       3.35329543       5.41684562      11.81198592
Li       5.40588208       3.84616090       6.48506390
Li       2.08453982       8.50179910       5.38906069
Li       3.14115803       0.94981045       3.54925210
P        6.76157480       8.58467273       2.43441723
P        5.83371993       2.80871340       0.93493989
O        6.27433017       7.82727068       7.09106591
O        8.43421608       5.39456121       2.43443929
O        6.73447569       9.29334916       3.80633829
O        9.32956527       6.52783401      10.12715928
N        8.29487079       8.62398090       2.07498760
O        6.23078394       2.85121351      11.87335797
O        3.93638247       1.31153604      10.08402213
O        6.09777178       9.26859762       1.19431951
Li       0.05929518       4.57498941       7.10750588
Li       2.35905409       1.22746231       5.86468329
Li       7.02931025       9.04602230       5.89909949
Li       4.19565595       7.18020375       2.11275023
Li       3.54109341       9.99430310       7.18950606
P        9.82334617       7.39370555       6.39131951
P        4.75332432       7.34689924       6.87161369
O        6.90002624       4.65548319       7.74800386
N        0.17068208       8.27610841       7.78927439
O        8.89452951       8.13796911       5.44346797
O        4.07123106       6.82802957       8.14440552
O        6.46025684       0.20077606       6.29107575
O        1.02303347       6.82296680       5.62320605
124
Lattice="9.90879 0.0 0.0 0.0 10.6625 0.0 0.0 0.0 12.434" Properties=species:S:1:pos:R:3 material=LiPON model=NEP89 temperature_K=900 phase="NVT production" display_name="LiPON｜NEP89｜900 K｜NVT production計算" report_figures="23_LiPON_lithium_MSD; 24_LiPON_transport_comparison; 25_LiPON_temperature_RDF" source_frame_index=2639 relative_time_ps=263.9 pbc="T T T"
Li       0.88084552       5.97270374       1.37753452
Li       8.23894262       4.01150146      11.06539889
Li       9.31333056       8.35587148       1.04892954
Li       8.40495969      10.21870682       6.20186580
Li       6.89643872       8.69911381      11.34785672
Li       8.34941066       6.55084089       8.75722148
P        3.41209665       3.90050352       1.90215293
P        9.83746192       1.76400886      11.95114302
N        0.63553235       3.08373466       4.97788396
O        2.59464347       8.03540246       1.36695588
O        2.53851328       2.85567700       2.69389349
O        5.17301927      10.08844245       9.00109060
O        4.12310440       4.80853722       2.98368655
O        9.88437009       3.22377947       0.10491593
O        9.76350167       6.54997316       0.14812944
O        2.51260806       4.56092581       0.89585776
Li       2.04876495       3.25377086      12.14845122
Li       8.58650405       2.57177964       1.58052910
Li       4.62059915       9.04822042       4.31351817
Li       5.14491790       3.06534467      11.59663194
Li       4.34599463       0.63910836       2.37119382
Li       5.28691244       5.46357984       4.37240646
P        2.43276301       4.00120921       9.13350130
P        9.24747329       2.21818723       4.26966252
O        9.42011946       1.75285278      10.52115633
O        7.38956285       5.53855763      12.03823234
O        1.75087569       5.10318362       8.22836109
O        4.27723448       0.30895506       4.43051666
O        2.31997467       4.53675872      10.53444373
O        9.77666404       1.90657707       2.83370769
O        2.02506735      10.06170270       8.68290456
O        3.83958289       3.81723335       8.64415803
Li       0.33202267       4.75400121       4.37488936
Li       1.88896407       1.55751673       1.79417613
Li       4.40455387       7.59712660      10.21137330
Li       5.00463687       5.57311226       8.96749004
Li       3.04490825       7.23626136       4.37773804
Li       2.64721406       0.76354216       9.65799140
P        1.93406962       9.23152068       2.19033786
P        0.09444633       7.40370994      11.28984702
O        1.14028140      10.57851421       6.46511955
O        4.56368967       2.84750231       1.27016983
O        0.43614389       9.29650361       2.10869512
O        6.46167352       1.40608483       2.01977545
O        2.39027610       9.19053083       3.71537046
O        9.56357902       8.83236731      11.80868218
O        1.38319685       1.29935646      11.78236862
O        2.54394655      10.46941016       1.56584172
Li       0.22983531       5.50823534       9.41397150
Li       0.63665177       3.37403774       2.10673692
Li       7.71678154       6.05544677       1.51000651
Li       3.23747105       0.26265366      12.18202610
Li       7.43819495       1.70436574      10.66929654
Li       6.77817106       0.51524562       0.55470553
P        5.92240203       5.83720715      11.45036660
P        0.80817830       9.67936129       7.66768721
O        1.63063616       7.41082754      10.99810326
O        1.72179394       2.67764800       9.04192416
O        5.13872946       4.70059465      10.82164060
O        4.02604508       8.57147549       6.17154250
O        4.89280957       6.52955983       0.06835226
O        9.31452224      10.11072545       8.18276277
O        1.63155355       2.86079080       5.70049298
O        6.11055170       6.76158293      10.26465514
Li       6.19488945       0.29876027       7.95330473
Li       9.69560703       1.50330888       8.69352874
Li       2.12164121       8.99993728      10.20132828
Li       7.00020504       3.20736471       5.83882719
Li       7.66975495       5.38320665       6.37112554
Li       4.24474679       8.71569382       0.51948905
P        7.98172065       4.35405864       3.44113862
P        5.14527753      10.57353359      10.41667345
O        6.21142572       1.07703259       5.99375414
O        5.70342536       7.75922442       3.06439958
O        9.08082501       0.82860756       0.44274686
N        7.86040033       3.00276395       4.28529180
O        6.51619155      10.48857133      11.08257399
O        6.61870711       4.10319489       2.51816133
O        7.62743968       5.41918010       4.48142762
Li       8.93996724      10.09705291      10.52902273
Li       9.06416286       0.37125001       2.23931954
Li       1.95237586       6.85365021       8.07022528
Li       0.47479387       9.77225126       4.35535655
Li       8.88676602       4.56616686       0.57292767
Li       6.89588578       1.12316142       4.14991565
P        7.44329429       3.49772073       8.34866793
P        4.74346488       1.25457038       5.52553516
O        4.06823274       9.51243465      11.18598603
O        9.41055921       6.37365843       6.95618794
O        6.77604830       2.29643840       9.02960810
O        9.09315690       0.91550332       4.97339321
N        8.57783818       2.97397160       7.48941277
O        4.77623383       2.72418578       5.09233586
O        3.96905488       6.17464804       5.75864535
O        8.31787413       4.53201471       9.12683816
Li       5.01326232       2.69033169       9.36832043
Li       0.57830909       9.95538863       0.37755037
Li       3.18253911       5.81247308      11.92030383
Li       4.67045993       4.33520820       6.86427704
Li       2.73237405      10.07990215       5.66218434
Li       2.89768318       3.45395657       4.59931706
P        6.43411122       9.03810687       2.40868984
P        6.20323443       2.81741120       1.53798562
O        6.18501313       7.16750604       6.62684258
O        9.33079818       4.55945208       2.67064414
O        6.82272218       9.79426224       3.73303912
O        9.25618459       6.85343329      10.13357482
N        7.63290242       8.33127670       1.81312547
O        7.09523989       3.02825685       0.20689749
O        4.34435452       1.23681603      10.64619407
O        5.46311259       9.82757086       1.47800383
Li       0.01674400       4.25590033       7.02254267
Li       1.75330017       1.68703727       7.13330790
Li       7.05895350       8.11010769       5.21747150
Li       4.52989587       6.44617318       1.95098025
Li       3.70882700      10.02599390       7.67450989
P        0.14438674       7.41475953       6.07834706
P        4.60715228       7.22765443       6.67403449
O        6.47511758       4.29058216       7.40143271
N        1.00285856       8.13960160       7.29986690
O        9.01820708       8.47538769       5.32406871
O        4.01726727       7.06498435       8.19938004
O        3.72441069       1.17268466       6.71221979
O        1.06115346       6.66164729       5.02988367
124
Lattice="9.90879 0.0 0.0 0.0 10.6625 0.0 0.0 0.0 12.434" Properties=species:S:1:pos:R:3 material=LiPON model=NEP89 temperature_K=900 phase="NVT production" display_name="LiPON｜NEP89｜900 K｜NVT production計算" report_figures="23_LiPON_lithium_MSD; 24_LiPON_transport_comparison; 25_LiPON_temperature_RDF" source_frame_index=2669 relative_time_ps=266.9 pbc="T T T"
Li       0.80591958       4.24644856       1.83741137
Li       7.57630710       7.61535817       8.32637862
Li       9.58442189       7.04125323       3.35787816
Li       7.80797714       0.90634026       6.43808071
Li       7.27146304       0.18244214      11.81900232
Li       5.90194418       9.38513964       7.96633666
P        3.31097871       3.73779798       1.56208774
P        9.79503845       1.26894132      11.57568509
N        1.40115437       2.29346014       4.70255992
O        2.64574021       7.86672396       2.04449612
O        2.97997315       2.42101588       0.93621221
O        6.16544980      10.64070916      10.11688719
O        3.14356053       3.72692823       3.07767175
O        0.00671012       2.79742926      11.60891029
O        0.27447924       5.96729040      12.41919604
O        2.68235908       4.90263189       0.94703969
Li       0.15528853       2.21849797       9.51574522
Li       1.05749407       4.38952993      11.55834633
Li       7.07155403       9.21401070       5.69946670
Li       4.64392141       3.45507703      11.36807610
Li       1.48276483       0.31306951       4.78048400
Li       4.93302688       5.42181382       4.24441615
P        2.74356223       4.54758990       9.12861085
P        9.70628566       2.25159429       3.96945295
O        8.63786035       0.85437718      10.54542963
O        7.13929165       6.73779565      12.09342107
O        2.92180162       6.05227924       9.28421125
O        4.12035748       0.65759524       4.94163644
O        2.70293163       4.10154247      10.59013305
O        0.22749369       2.27474695       2.58208661
O        0.93882783       9.35017199       9.16200808
O        3.83034874       3.75717105       8.40741060
Li       3.04196333       6.16667029       7.31878332
Li       8.98300338      10.29432275       1.98477452
Li       3.88797227       7.89953706       9.55302351
Li       5.46697637       5.39317785       8.89754377
Li       3.95868207       8.43718682       3.92037539
Li       9.18113162       9.92393638      10.12562795
P        1.79916582       9.03498007       2.59998321
P        0.46384695       7.03747454      11.36287203
O        1.51033422      10.57908713       6.92494804
O        4.96112866       4.01848546       1.18838741
O        0.25578380       8.87759584       2.37776095
O        5.67021895       1.69996720       2.39331821
O        1.83490595       8.98728900       4.20818293
O        9.41419239       8.16506328      11.58289177
O        1.30994207       0.65003271      11.34072231
O        2.24988824      10.49156799       2.24457226
Li       9.81960213       5.09037883       8.86899514
Li       1.26036688       0.93126358       1.07009150
Li       5.88331909       5.94030987       1.37706329
Li       2.54839278       2.26273041      11.49531321
Li       7.45865099       3.48763023      11.22612121
Li       4.14453435       0.43512779       1.70510054
P        5.88650818       6.61691674      11.15456839
P        0.39611127       9.76354974       7.77379227
O        1.84150348       7.64948797      11.64571904
O        1.40845768       4.09230951       8.40596998
O        5.61445584       5.13332994      10.83611063
O        5.06476165       7.34367947       4.76130174
O        4.73654843       7.31087903      11.97332824
O        8.78793144      10.34438346       7.87908047
O        1.95213301       2.64257981       5.81488463
O        6.03398618       7.20996429       9.70981086
Li       7.50986572       0.82416119       8.99163033
Li       0.28612054       1.39497025       6.47748991
Li       1.85881610       9.59772484      10.66250119
Li       8.76374036       3.81884975       6.15025181
Li       7.02890475       5.88761663       6.38033875
Li       3.87912282       8.65911411       0.54662505
P        8.40204339       4.51430265       3.32123279
P        4.66494464      10.60968816      10.80524320
O        6.29322380       0.10801940       6.02484460
O        6.79660031       7.34690197       2.22820902
O        9.10112965       0.60145168       0.38655621
N        8.80782269       3.51485925       4.52012341
O        4.78946811       9.95205838      12.22568852
O        7.53333613       3.59929156       2.37449682
O        7.46999534       5.35444904       4.24579711
Li       7.38789206       8.73438695      11.53253741
Li       8.77671447       2.27865122       1.19829278
Li       1.04425696       7.42725499       8.63937064
Li       9.64372185       9.26728368       4.24002378
Li       8.24042144       5.98007908      10.72450075
Li       6.95801380       0.61350327       4.20777294
P        7.61215130       3.49345182       8.59062560
P        5.06798511       1.06717607       6.04843362
O        3.73605627       9.71992032       9.93453375
O        8.90833152       6.32813625       7.27674509
O        6.51420858       2.43652639       8.81469390
O        9.12928589       1.02745005       4.75680120
N        8.75661739       2.77114504       7.71947900
O        5.61348388       2.52549517       5.65012466
O        4.66303079       5.76094479       6.63992769
O        8.29333988       4.09519912       9.86704140
Li       4.86880600       1.99682424       9.18248873
Li       8.29320620       7.19313038       1.19305456
Li       3.02092624       6.18443411      11.55400498
Li       5.45154024       3.46940136       7.31552836
Li       2.18194078       8.63739474       6.11405655
Li       4.47687981       2.34913813       3.95613955
P        6.61881985       8.85713244       2.30850372
P        6.31682449       2.93823484       1.57393940
O        6.27191927       7.80751203       6.86929612
O        9.44302473       5.31447905       2.47801722
O        7.48429468       9.21358884       3.69037024
O        0.05342487       6.46881295       9.97341876
N        7.27464673       9.50081084       1.07044610
O        6.85295926       2.67761254       0.20182223
O        4.19741470       1.28847408      10.89333066
O        5.03535606       9.21790327       2.49869470
Li       1.44640875       4.53922873       6.56524840
Li       2.73744128       1.95894594       7.12564534
Li       6.97141138       7.13964389       4.17718829
Li       1.85754998       6.55567572       1.05755041
Li       3.00273905      10.30156572       8.10362126
P        9.89985776       7.14049231       6.30910360
P        4.90303424       7.34531694       6.35716123
O        7.13557031       4.58366934       7.68067215
N        0.36000938       8.43291347       7.10620110
O        9.06910649       7.45749346       4.98154531
O        3.70654153       8.16203726       7.07135589
O        4.35727972       1.09815523       7.43084198
O        1.33449448       6.54560715       5.94165987
124
Lattice="9.90879 0.0 0.0 0.0 10.6625 0.0 0.0 0.0 12.434" Properties=species:S:1:pos:R:3 material=LiPON model=NEP89 temperature_K=900 phase="NVT production" display_name="LiPON｜NEP89｜900 K｜NVT production計算" report_figures="23_LiPON_lithium_MSD; 24_LiPON_transport_comparison; 25_LiPON_temperature_RDF" source_frame_index=2699 relative_time_ps=269.9 pbc="T T T"
Li       1.33240071       5.26182004       3.93255332
Li       8.58770105       7.98450465       9.32801847
Li       9.19658087       6.86965304       3.24748210
Li       6.91927668       0.13434783       8.35876644
Li       5.72986733       0.16112703       0.54577726
Li       5.26009968       7.95870175       8.69674838
P        3.62077099       4.75489842       1.44628459
P        0.55356538       1.53703602      11.83357492
N        0.88193043       3.43129609       4.53010053
O        1.51425392       7.05955623       3.50222697
O        3.00226447       3.81606442       2.45775780
O        6.26384990      10.17756233      10.42365230
O        4.02585888       6.20868471       1.79797304
O        0.00937060       3.08339723      11.93268813
O        0.06556070       6.60420999       0.59257359
O        2.45542641       4.95577960       0.49724522
Li       1.01538968       4.13101079      10.62718253
Li       0.44556093       4.79163252       1.04577381
Li       6.54076637       9.60728166       5.09402707
Li       8.43910540       4.08286199      11.58581876
Li       2.05692428       0.64831095       5.52635750
Li       3.92157119       7.62353751       2.78609911
P        2.89589381       3.94381338       8.70461794
P        0.01779576       2.09438420       3.95565278
O        0.77410221       1.05447484      10.30589770
O        6.52930376       6.75206863       0.16417832
O        3.31351736       5.41553418       9.18943252
O        5.04955300       0.01329336       4.43798761
O        2.67177519       3.38818862      10.18652451
O        0.94903805       1.36155888       2.94524238
O        1.55189823       8.44236185       8.61712013
O        4.13765652       3.30294628       8.02410738
Li       2.12121517       5.77982654       7.10213862
Li       9.24982300       9.59758177       0.03448650
Li       2.84361493       7.48233173      10.18614366
Li       5.19245448       4.96529586       8.53232636
Li       3.71732396       9.42036944       4.51607660
Li       0.90358692       9.72982174      10.50802022
P        1.48963914       8.63076163       3.09912216
P        0.28352565       7.21551915      11.61459822
O        1.21058200       0.01116678       7.62136427
O        4.88567799       4.20347009       0.74465302
O        0.01106505       8.82641569       2.61284844
O        5.26308802       2.05269422       2.06813912
O        1.77543983       9.41433358       4.54962584
O        8.94217357       7.99777943      11.14865766
O        1.84950406       1.39275432       0.27893845
O        2.76282457       9.13013464       2.23484419
Li       0.99920094       6.40944240       8.82158838
Li       1.64971319       2.41498351       1.88044451
Li       6.02970227       6.28670315       1.82124023
Li       3.29931761       2.25429442      11.57213086
Li       8.10619824       6.48865493       1.03854753
Li       4.25338647       0.09905438       2.25896384
P        5.57152046       6.50386700      11.31923383
P        0.48824565       9.35609578       7.93042753
O        1.49622608       8.33885446      11.71307767
O        1.66513463       4.11050220       7.78115394
O        5.58197424       5.06478996      10.50826637
O        5.37456812       6.78932962       5.02135268
O        4.23379794       7.04343200      11.65347368
O        9.02004348       9.63252404       8.67769880
O        2.01750559       3.47898857       5.10363387
O        6.28771372       7.41045805      10.34575572
Li       5.65173443       3.07745511      10.60648667
Li       0.50105940       1.67253099       8.66509246
Li       2.61334064       9.73058074       0.26185796
Li       8.60038675       1.28074764       6.48035408
Li       7.23454153       5.45419931       6.51248159
Li       4.38184179       8.62811326       0.39502351
P        8.10606674       3.97829475       2.92652678
P        4.74383841      10.32941019      10.43793299
O        6.11862524       0.57176379       6.82200155
O        7.47307213       7.61782206       2.48820232
O        9.24573887       0.68239601      12.14526195
N        8.48715279       2.46712714       3.34754409
O        4.08140498      10.10742168      11.85471646
O        7.35732548       3.53758959       1.64473322
O        7.01138671       4.35952185       3.87040253
Li       7.00854941       8.68240087      11.58714874
Li       9.12263402       0.88775004       1.91249807
Li       3.37956817       9.59007517       7.76322661
Li       9.68139644       9.83526857       4.58160510
Li       7.08227920       6.21343561       9.09257543
Li       6.87789215       1.25460948       3.22119449
P        7.89819612       3.30911845       8.53350249
P        5.01580509       0.85764880       5.70605934
O        4.20767062       9.47743982       9.24468498
O        8.50021904       6.67191659       7.76594758
O        7.21606643       2.12043353       9.31274339
O        9.81162965       0.99664808       5.04875530
N        9.13571137       2.72632354       7.81342769
O        5.17008678       2.31452568       5.29710827
O        3.66218574       5.38439881       6.16577410
O        8.36709465       4.42760004       9.53837839
Li       5.11063066       1.65271306       8.28449092
Li       7.56400416       1.48654249      11.00879380
Li       3.32827576       5.09041707      10.99045358
Li       5.19086743       3.77296959       6.42637504
Li       1.77222769       7.81182470       5.54040847
Li       4.72475710       3.54732370       3.58547735
P        6.82923941       9.03402444       2.18598980
P        5.98197702       2.88290244       1.00852654
O        5.42132527       6.42220096       7.58490827
O        9.08200170       5.04002521       2.51285444
O        7.34697838      10.09931728       3.15458688
O        0.79252438       6.11105861      10.58684039
N        7.43021685       9.56065820       0.83465683
O        6.31019166       2.22667472      12.11162297
O        4.35634001       1.08454708      10.01215323
O        5.32010779       8.88433145       2.11398801
Li       0.23407383       4.17658514       6.24619723
Li       3.05130009       2.88661124       6.44996145
Li       7.07881126       7.16371637       4.12341831
Li       1.93251222       6.69255064       1.14228761
Li       2.47341507       1.44751391       9.49971000
P        9.36793426       7.23189198       6.62904412
P        4.56965302       6.69258356       6.32107573
O        7.01131210       4.00187821       7.57434721
N        0.07342383       8.61723955       6.52947420
O        8.38063012       7.14356674       5.32384598
O        3.72304714       7.99618997       6.59984066
O        3.72109391       0.79342961       6.49222808
O        0.59407472       6.25424225       6.26280761
124
Lattice="9.90879 0.0 0.0 0.0 10.6625 0.0 0.0 0.0 12.434" Properties=species:S:1:pos:R:3 material=LiPON model=NEP89 temperature_K=900 phase="NVT production" display_name="LiPON｜NEP89｜900 K｜NVT production計算" report_figures="23_LiPON_lithium_MSD; 24_LiPON_transport_comparison; 25_LiPON_temperature_RDF" source_frame_index=2729 relative_time_ps=272.9 pbc="T T T"
Li       1.14365240       4.88260363       2.09072164
Li       9.12481380       8.56434805      10.50160287
Li       9.54120768       7.27761207       2.21864152
Li       1.87473116      10.45769428       9.73279889
Li       4.14673304      10.34706310       1.19441997
Li       6.88117917       8.46707501       9.25053268
P        3.38849459       4.45625252       2.01746166
P        0.19565651       1.49938469      11.65558038
N        0.54970849       2.74863219       5.28324231
O        3.05386148       8.55939702       3.62799988
O        2.93063534       4.65351945       3.49738524
O        5.84362248      10.03459448       9.93521482
O        3.90123566       5.74162624       1.34755874
O        9.58490794       3.00770623      11.94841282
O        0.95969703       6.34698108       1.09824051
O        2.23301484       3.95857854       1.13229032
Li       8.83376322       4.87545556      10.85437008
Li       9.82718278       3.28419763       1.22084115
Li       7.59556858       9.43082988       5.80305619
Li       7.00192699       3.26581479      11.59120087
Li       0.71503714       0.56698948       5.69929046
Li       4.97319012       4.66310457       4.37196503
P        2.62168014       4.74152307       9.07584186
P        9.25302257       2.46159473       4.04488762
O        1.13976575       1.47748925      10.32822440
O        7.23152535       5.28377920      11.87863494
O        3.05300411       6.21690699       8.68082505
O        4.85756296      10.49842636       4.51326279
O        2.93366271       4.23793509      10.47527247
O        0.10368903       2.19290892       2.75112778
O        0.84274796       7.88077614       8.42055944
O        3.31247767       3.70096683       8.06727848
Li       0.12694081       6.19516470       8.89480839
Li       9.63601485       9.82476271       0.97913149
Li       4.57208710       7.50496874       8.91114563
Li       5.11165789       4.19185688       6.91695603
Li       4.81487521       8.94518080       3.63015937
Li       2.55949844       8.10460607      10.10408853
P        1.83978462       9.56310595       3.15629312
P        1.06262592       6.98481350      12.06639394
O        0.55392286      10.26474231       7.90525376
O        4.40844638       3.13723475       2.30107139
O        0.65043249       8.82425104       2.42911146
O        5.50167488       1.09278842       1.94460550
O        1.25916053      10.11930034       4.44416295
O        0.42588170       8.38906199      12.00396422
O        0.75120198       0.83114238       0.39913047
O        2.39786979       0.12006401       2.32376308
Li       0.43803252       4.48507249       6.60958903
Li       1.94477681       1.82759575       1.79073964
Li       5.51798695       6.38300528       0.84655355
Li       1.44825341       4.35029080      11.92943208
Li       8.75560791       5.67865321       0.86885072
Li       6.74802771       0.56289616       3.64436973
P        6.54906246       6.33961682      10.91561489
P        9.78745365       8.93244641       7.88043927
O        2.61113640       7.23746627      11.87805452
O        1.06023849       4.67211684       8.89582864
O        5.89831204       5.72742806       9.54738869
O        5.86882677       8.10693146       5.11493655
O        5.33617078       7.13444166      11.55590262
O        8.43459122       9.23099438       8.57713247
O        1.02030241       2.30807694       6.36196964
O        7.73409364       7.28639252      10.57897815
Li       4.97343889       3.08951906      10.11299205
Li       0.66846037       2.94969464       9.23527190
Li       1.82715907      10.14788848       0.30481179
Li       8.61521634       0.70012734       9.45359921
Li       7.21746098       7.08750696       3.55188317
Li       4.27626667       8.18409900       0.07587516
P        7.64398005       4.25363207       2.84313496
P        4.37000397      10.23201599      10.26390544
O        6.18569958       0.51746945       6.56913932
O        7.73121007       7.66654745       1.75783705
O        8.83516213       0.56996939      11.24924830
N        8.03597238       3.57214881       4.25990725
O        4.01371655       9.72848431      11.69898032
O        6.96076906       3.10331777       1.80957349
O        6.46473990       5.24440901       3.09885753
Li       6.90706512       8.94935453      11.59439590
Li       8.15116471       1.37026923       1.77686933
Li       2.87712738       9.50730929       7.57592825
Li       9.19516952       9.70628624       3.67260585
Li       7.35822004       6.12622761       8.30399242
Li       7.03887920       2.19599781       5.59673926
P        7.68481049       3.28775043       8.41603956
P        4.72142039       0.75801171       5.80657142
O        3.56460698       9.39673337       9.10386835
O        1.08928215       6.37575633       5.66427060
O        6.82010861       2.57864656       9.56255696
O        8.74614246       1.12253858       4.55551127
N        8.84121618       2.28377347       8.20239423
O        4.92366770       2.11571167       5.13114568
O        5.59837053       5.71245163       5.70313232
O        8.27508756       4.52060438       8.98001815
Li       6.10708365       0.59828000       8.52373402
Li       6.75120291       0.88146484      10.81867074
Li       4.01728212       5.67290922      11.26688859
Li       2.82312339       3.00969017       4.57073454
Li       2.79519577       8.64069174       5.50993712
Li       4.14951499       1.01080993       3.21190044
P        7.11197647       9.04409473       1.72799272
P        5.61764097       2.47887001       1.40481535
O        6.04800840       7.41459968       7.71324435
O        8.85594089       4.93446415       2.28270615
O        7.29550336       9.50415849       3.25120299
O        0.30939850       6.26372408      10.96220442
N        7.85039328       9.96669625       0.81165860
O        5.35695367       2.64903886      12.39370212
O        3.99879115       1.05092163      10.06814068
O        5.53638003       8.79005430       1.48441376
Li       2.36036992       6.82187173       7.06760590
Li       3.13124131       1.66437241       8.22801165
Li       7.63764479       5.03200516       5.45357057
Li       2.57532097       7.24791046       2.09639184
Li       2.65240918       1.98617565      11.27841664
P        9.60531925       7.06617385       5.62805569
P        5.44801131       7.22464106       6.33505818
O        6.85762439       3.49320649       7.11906817
N        9.50249636       8.41881782       6.39921604
O        8.54216642       6.08301812       6.23597050
O        3.93800712       7.61437427       6.75574708
O        3.56638140       0.47231082       6.59199543
O        9.01694049       7.24258564       4.14092405
124
Lattice="9.90879 0.0 0.0 0.0 10.6625 0.0 0.0 0.0 12.434" Properties=species:S:1:pos:R:3 material=LiPON model=NEP89 temperature_K=900 phase="NVT production" display_name="LiPON｜NEP89｜900 K｜NVT production計算" report_figures="23_LiPON_lithium_MSD; 24_LiPON_transport_comparison; 25_LiPON_temperature_RDF" source_frame_index=2759 relative_time_ps=275.9 pbc="T T T"
Li       9.42271179       4.56711952       4.44971944
Li       9.24898953       9.45257669      10.74639814
Li       0.99022147       6.28535726       2.60475151
Li       3.21502375       0.75295987       7.84520125
Li       4.34359866      10.43567194       1.01497825
Li       7.18406906       8.19066951       8.09288602
P        3.45479891       4.49491057       2.25503456
P        0.12959431       1.67492212      11.36682944
N        0.19055638       2.74579813       5.25209432
O        2.14245729       7.72468752       2.83199506
O        3.23662309       3.91780826       3.65175542
O        5.94958367       9.76229581      10.75960464
O        4.53854425       5.69399298       2.09681308
O        9.70031994       3.13443695      11.69478973
O        0.24266705       6.55103763       0.47247664
O        1.99395080       4.76266353       1.79607271
Li       7.62618444       3.44999741      11.47978178
Li       0.03619509       3.39210141       1.37154434
Li       7.42582554       0.80555893       5.71962259
Li       5.76879916       2.75015542      10.01235240
Li       1.03683022       2.43684104       8.27474468
Li       3.45208639       3.53295168       6.23924886
P        3.47328216       4.56358298       9.31100154
P        9.47987328       1.95007355       3.86625043
O        1.20983756       1.71715553      10.22110238
O        7.62980648       5.21428303      11.40716000
O        2.56136451       3.93459169       8.15606828
O        4.22350105       0.52350817       4.07681663
O        3.32839154       6.14705430       9.37946932
O        0.81115090       1.66342868       2.95993115
O        1.32963408       9.01097223       8.23282878
O        4.87689632       4.07991559       8.80850624
Li       0.67280939       7.29520140       8.92312701
Li       8.78972619       8.06189021       0.81013080
Li       5.28701472       6.91267046       8.87135294
Li       6.57889700       5.02678918       9.23591092
Li       4.15576130       9.08233827       3.12230999
Li       1.96779121      10.22818083      10.61482834
P        1.66249641       9.17291256       2.60592412
P        1.14760925       6.98381202      11.66034321
O        0.41092717       0.45374741       7.36328142
O        3.97560564       2.98691114       1.43906374
O        0.26766724       9.17415774       2.03313267
O        5.70725171       1.07588422       1.47221766
O        1.51935445       9.81802348       4.01581390
O        1.17324541       8.55160428      11.38122453
O        0.91103361       1.04660524       0.12311575
O        2.69114014       9.89031511       1.69659521
Li       9.44175947       4.60101196      10.49175096
Li       2.44289137       1.40666297       1.90145344
Li       5.92491540       6.58296046       1.23383920
Li       3.78265213       7.11652220      10.86929979
Li       8.43108587       5.69451535       0.73776657
Li       6.46137981       0.67362239       3.70539316
P        7.21684451       6.68998251      10.84849637
P        0.14610630       9.55031780       7.59860341
O        2.49179882       6.78007495      12.24374408
O        3.15460854       3.96767165      10.71794668
O        7.23471281       6.90895621       9.37965341
O        4.76750874       7.34313696       4.68981843
O        5.66316809       6.74183445      11.17161504
O        8.71998029       9.40860788       8.28157869
O        1.22896495       3.31498724       5.74493828
O        8.00511453       7.78876833      11.57453656
Li       7.08657504       5.71704133       6.52769009
Li       1.92883492       4.46338759      12.13865840
Li       1.71918790      10.06636277       0.15695305
Li       8.10752468       0.58093779       8.67859548
Li       7.94270546       6.97292503       3.90648809
Li       3.63068496       7.58241075       1.49522287
P        7.19587326       3.55014997       3.26833493
P        4.57832805      10.34791567      10.24490802
O        5.79574762      10.35679426       6.00716532
O        7.20234766       7.01853980       2.35932117
O        8.86814320       0.77137748      10.80227910
N        8.67815450       3.20742858       3.09808787
O        3.62810038      10.62535467      11.42097594
O        6.54952515       3.58031124       1.77749183
O        6.34487781       2.50358739       4.07673246
Li       5.90184875       8.21305740      12.10016388
Li       9.13375087      10.61277212       2.08956939
Li       4.54188108       9.16250368       7.43120833
Li       9.86334638       9.73642367       4.51646558
Li       6.26372124       8.65511166       5.31467816
Li       6.13401664       3.38555739       5.95194946
P        8.00377610       3.11171809       8.18114402
P        4.52200843       0.47035434       5.62097407
O        4.08271633       9.11698739       9.38858011
O        0.01132980       6.51845596       7.13896645
O        7.47682686       2.52954666       9.44443153
O        8.56402049       0.76983102       4.16072935
N        7.84128090       1.94218838       7.15443198
O        4.44178204       1.96699079       6.19309893
O        4.82284451       5.28532948       6.01202974
O        9.43178638       3.56442470       8.54481601
Li       4.87497643       2.61773950       7.89339412
Li       7.20412291       0.52313861      12.33155475
Li       4.43608662       4.57428185      12.14648800
Li       1.20742781       5.08756730       6.86234164
Li       2.29492003       8.98514916       5.49566041
Li       4.54835908       2.51704638       3.59507754
P        6.74993026       8.74152915       2.27635755
P        5.53002315       2.47992835       1.07702276
O        4.94398165       7.37397368       7.19551904
O        7.15638423       4.79238582       4.08904853
O        6.96652933       9.41246352       3.63776202
O        0.73670626       6.05047679      10.40998935
N        7.63170353       9.55073835       1.30621107
O        5.85000177       2.60833360      12.04981006
O        4.52429623       0.97568267       9.30255666
O        5.32110607       8.68460758       1.71603271
Li       3.18826938       7.72753462       8.46811809
Li       1.67729704       1.10587445       5.59962264
Li       5.77437790       6.04272571       3.52968615
Li       1.91828900       6.62484473       4.46562047
Li       2.68528883       2.28155607      11.19607236
P        9.48646525       7.43243932       6.05058168
P        4.23651834       6.66879593       6.05393774
O        7.13102474       4.32361532       7.64363639
N        0.28783553       8.87013404       6.14376758
O        7.94217546       7.59370606       6.03122256
O        2.72026508       6.91813765       6.13039525
O        3.26898413      10.35191512       6.51499465
O        9.84800013       6.79505972       4.61025225
124
Lattice="9.90879 0.0 0.0 0.0 10.6625 0.0 0.0 0.0 12.434" Properties=species:S:1:pos:R:3 material=LiPON model=NEP89 temperature_K=900 phase="NVT production" display_name="LiPON｜NEP89｜900 K｜NVT production計算" report_figures="23_LiPON_lithium_MSD; 24_LiPON_transport_comparison; 25_LiPON_temperature_RDF" source_frame_index=2789 relative_time_ps=278.9 pbc="T T T"
Li       1.50172010       5.52205555       7.55531349
Li       2.29305862       9.76125875      12.40029078
Li       1.13126237       5.76404281       1.96444813
Li       3.87598805       1.72494182      10.88644001
Li       3.99030759       9.17200222       4.72341590
Li       7.51520156       8.94027727       9.12135674
P        3.52271330       4.46820863       1.68688355
P        0.41385875       1.44897353      11.65881304
N        0.49070544       3.14956587       4.59381495
O        1.44647103       7.05316624       3.40972155
O        3.48716580       4.54062897       3.17944744
O        6.39739381      10.24755537      10.14976360
O        4.14138709       5.77031952       1.24845403
O        9.88633974       2.94645395      12.25387444
O        0.54391257       6.32710714      12.22105914
O        2.03327695       4.37229249       1.30627443
Li       8.15894878       3.59832662      11.65501097
Li       9.86166693      10.35154680       1.41473254
Li       7.64862863       0.16802214       6.22160770
Li       5.97684290       0.93662713       8.13220623
Li       0.26553203       2.53389639       8.78721905
Li       2.42602596       4.41705885       4.54436971
P        2.57680126       4.18995275       9.57787852
P        9.77458017       2.05670857       3.58602647
O        1.03507748       1.64449941      10.20771470
O        7.96183773       5.44448864      11.57101906
O        1.03234995       4.33171048       9.88544879
O        4.35030664       0.34834841       4.07135162
O        3.14360296       5.46211446       9.13488566
O        0.94291628       1.48618685       2.62733631
O        1.47631686       9.53877303       8.28157863
O        3.03743735       3.18149667       8.50052781
Li       9.23454706       7.71128052       9.02172210
Li       8.72606035       9.48283752      11.48437497
Li       4.72349612       6.55518076       8.97856803
Li       4.30409022       3.14597031       7.05383913
Li       2.80033391       0.39218459       7.95756310
Li       2.81762592       7.71480308       8.98895649
P        1.67394239       8.58678785       3.44126875
P        1.14494841       7.50602608      11.36415268
O        0.78815352       1.00157418       7.32832181
O        4.14984601       2.93651930       1.25313052
O        0.35982581       9.53637718       3.01789931
O        6.35201451       1.41172395       1.62273614
O        2.06507207       9.08253581       4.92304168
O        0.63502231       8.97885245      11.81442254
O        1.52103485       0.77844361       0.11638294
O        2.83513878       9.13289680       2.40442944
Li       9.13987348       5.03426208      10.17439695
Li       2.65274756       0.89052112       3.49572614
Li       6.12147656       5.71526531       1.04282113
Li       3.79854726       6.01853359      11.51975136
Li       9.11404551       5.36094023       5.55271084
Li       7.96359087       1.38254740       1.19479898
P        7.01671281       6.38456404      10.88976282
P        0.15299627      10.22749982       7.86527201
O        2.69626413       7.49235945      11.63277613
O        3.23883757       3.75263278      10.85453613
O        6.40593348       5.72161163       9.44186281
O        4.80151814       7.04563416       4.85653452
O        5.65734311       6.65240699      11.69315723
O        9.02168394      10.27072619       8.97186297
O        0.54549788       4.37396061       4.96296250
O        7.95552324       7.63727060      10.65101614
Li       6.66797269       5.51203981       7.56617242
Li       1.11953148       4.54646158      11.89147922
Li       8.33518598       6.38512398       0.73974488
Li       1.26645979       9.57336674      10.16003801
Li       0.32195116       3.67834956       1.46055381
Li       4.20797313       7.26683191       2.74113729
P        7.93692985       4.16900259       2.75240924
P        4.73574569      10.00982865       9.96719196
O        5.32427091      10.35709231       6.09082577
O        6.88324473       7.46096257       2.01744460
O        8.90576491       0.75480174      11.59986272
N        8.75711927       2.79196535       2.75473255
O        4.08755778      10.26620007      11.28326149
O        6.65889174       3.79011252       1.54652509
O        7.48440334       4.44009092       4.11457560
Li       4.94006930       8.40107840      11.94205204
Li       2.16691284       2.19430893       1.31635371
Li       5.70963388       8.19710629       7.65050491
Li       0.80992090       0.09167890       5.36862577
Li       6.56211835       8.65285119       5.13240661
Li       4.77922511       3.95870729       4.34960954
P        7.50782661       2.99915617       8.06028442
P        4.64421295       0.98494496       5.38381191
O        4.67884844       8.57531232       9.37403911
O        7.54079824       8.23004737       7.25979959
O        5.96476932       3.18278221       8.39820615
O        8.98596983       1.08190749       4.37282414
N        7.59176163       1.53446744       7.56247343
O        5.55244675       2.25133075       5.22467844
O        3.90838765       4.70734658       5.67583956
O        8.37208943       2.99816679       9.36104911
Li       8.13405140       0.88803333       9.81218103
Li       6.95524372       0.35741698      11.68172945
Li       5.28707631       3.90684305      10.59839773
Li       7.32038135       2.87756589       5.39266371
Li       1.82920278       8.30309923       6.60851717
Li       6.19756481       0.69041106       3.32268417
P        6.62370119       9.04462845       1.91827569
P        5.73602244       2.69130044       0.91620424
O        5.14775104       6.51036703       7.14825995
O        8.74152173       5.31426302       2.11196121
O        6.94950713       9.67893625       3.33753775
O        0.87134035       7.21183374       9.81942097
N        7.59255178       9.72399885       0.87985902
O        5.93054338       2.64858788      11.83825558
O        4.30297113       0.23919664       8.84448054
O        5.17865579       9.08258108       1.30579841
Li       8.89645165       9.42136997       4.31518981
Li       2.13578940       2.51202150       7.09827180
Li       8.02243267       6.73422207       3.32771848
Li       1.31103778       6.43360877       5.08894468
Li       4.38750498       0.02895786       0.68613576
P        8.84746613       8.05456202       6.48404366
P        4.05795578       6.23432351       5.91213998
O        8.17894755       4.13326071       7.17426917
N        9.40850547       9.56958666       6.51479186
O        8.36678333       7.64203445       5.08670459
O        2.64527590       6.79502858       6.42808931
O        3.32690471       1.35621155       6.04465697
O        9.88547020       7.02003741       6.92598181
124
Lattice="9.90879 0.0 0.0 0.0 10.6625 0.0 0.0 0.0 12.434" Properties=species:S:1:pos:R:3 material=LiPON model=NEP89 temperature_K=900 phase="NVT production" display_name="LiPON｜NEP89｜900 K｜NVT production計算" report_figures="23_LiPON_lithium_MSD; 24_LiPON_transport_comparison; 25_LiPON_temperature_RDF" source_frame_index=2819 relative_time_ps=281.9 pbc="T T T"
Li       1.23591424       6.82129535       8.14725127
Li       2.74916812      10.53051605      12.25721042
Li       1.99850318       6.46545729       1.12649258
Li       4.65541517      10.49650451       2.35427399
Li       4.89746239       8.73480070       4.10644911
Li       7.17820678       5.77327307       8.33584884
P        3.39358483       4.11951239       1.77482716
P        9.89868399       1.71123201      11.94563010
N        0.34967665       3.12973979       5.38874186
O        2.80974830       7.93111136       2.23918863
O        3.18983373       3.08463913       2.89401984
O        6.28164402      10.13862722      10.14528889
O        3.95076570       5.48816645       2.16089800
O        9.78189150       3.27744683      11.71810676
O        0.50129984       7.38415465       0.15278747
O        1.98130690       4.34750446       1.30933600
Li       6.79332036       1.61407815      10.65301043
Li       9.72627921       8.68136974       0.60277989
Li       7.58681067       0.04838787       8.80138422
Li       4.40794744       1.89077716       8.18559478
Li       2.88198469       2.36057020      10.33772388
Li       2.80672996       3.25506849       4.87327660
P        2.29955412       3.62553186       8.52291696
P        9.44394217       2.24391760       4.22285156
O        1.12990111       1.20246422      11.20559268
O        7.87078065       5.63036120      11.56184584
O        1.49777892       2.32297894       8.56961051
O        5.27493425       0.13146095       4.22343022
O        1.65879156       4.93922995       8.05581977
O        0.61209506       1.47227861       3.48480932
O        1.60667589      10.26793375       8.12776180
O        3.35062549       3.38048819       7.29511553
Li       8.59956801       7.85685589       9.21053874
Li       0.96610649      10.44372709       9.86598608
Li       4.27980129       6.03012263       8.79989913
Li       5.08071172       3.70083920       6.86186581
Li       8.86410145       1.94453934       6.82738890
Li       1.61702185       2.18599805       6.66813777
P        2.14739669       9.20101001       2.66617070
P        1.14756441       7.48200304      11.17608523
O        9.69860687       0.27277786       6.72294130
O        4.45340337       3.55629684       0.80164357
O        0.80577231       9.20541893       2.21124190
O        5.29837238       1.04639964       1.00651665
O        2.31995400       9.33845288       4.23366705
O        1.73982065       8.81633280      10.80940779
O        9.61417328       1.32485402       0.97346670
O        2.69237904      10.44698679       1.97496393
Li       2.25691838       5.14431327       6.36250742
Li       2.89860138       1.36177029       3.36366957
Li       5.79948628       6.12115704       2.25627620
Li       3.78839607       7.44903989      11.34166236
Li       9.74160331       4.37771727       7.58138190
Li       0.12422070       0.18016063       2.42345996
P        6.73403934       6.52017556      11.05621631
P        0.16593407       9.86844435       7.65931129
O        2.34855098       6.53990466      11.36399549
O        2.89491521       4.08814856       9.92766592
O        5.81700572       5.90072233       9.95143554
O        5.31089321       7.68254148       5.44885561
O        5.84015090       6.96602121      12.19954672
O        9.17365155       9.73595565       8.93640107
O        1.19031687       3.95903836       5.32049046
O        7.49340602       7.83255254      10.58516789
Li       9.27637288       5.13621842      10.11990847
Li       8.10870009       3.87107816      12.34549470
Li       8.39154510       6.68432542       0.45503432
Li       2.94805966       8.89631199       8.93967756
Li       1.79426828       4.50716132      11.58464616
Li       2.53685230       6.13071990       3.51993207
P        7.65315207       4.27918986       2.76561434
P        4.71471914       9.84268735      10.32406725
O        5.02045228       0.51890049       6.78220776
O        7.86357795       7.79549240       2.78720244
O        8.74604290       1.04170915      11.14971761
N        8.82762021       3.48894325       3.39712064
O        4.57213145       9.57500090      11.89506982
O        6.79143616       3.26869905       1.73418388
O        6.55036601       4.96887011       3.69325429
Li       4.39886544       8.20614866       0.98419512
Li       0.10079825       4.84230323       1.08033742
Li       3.83806763       9.71770869       6.25168491
Li       1.43735968       0.01142389       4.87518252
Li       6.84612453       6.61492088       4.67018795
Li       5.14954829       3.79262446       4.08781843
P        7.22036096       3.27153534       8.33944874
P        4.75708626       1.14559125       5.30990489
O        4.43610912       8.50815353       9.58704017
O        8.77375217       8.12586808       5.30857137
O        8.07150998       4.47291717       8.86399589
O        8.34972431       1.39606153       4.90694312
N        7.90284300       1.87390584       8.54484205
O        5.26510550       2.63387945       5.27381307
O        5.21428476       5.90789949       7.18905052
O        7.33659832       3.71917383       6.80395782
Li       8.28521546       9.47795648      10.84617291
Li       7.83264445       0.80166749       0.83357132
Li       5.19421506       3.90759368      10.45365699
Li       7.16272692       2.93602162       5.06061175
Li       1.69336556       7.87864886       5.58792985
Li       6.75651732       0.94330476       3.55815416
P        7.18448300       9.12481601       2.21391306
P        5.73688561       2.50996347       0.76053632
O        3.27484325       7.59848623       7.04248038
O        8.28757930       5.24334882       1.85897823
O        7.91225910      10.22287879       3.17532563
O        0.34541465       6.63871163       9.95714297
N        7.60925331       9.30855367       0.74626396
O        6.18567370       2.83595995      11.77494115
O        4.04719450       0.43895323       9.75095292
O        5.65745629       8.90366545       2.26957108
Li       8.17369977      10.06381103       5.43518032
Li       9.67715960       1.76853245       9.22838751
Li       9.32084582       8.44322562       3.71534809
Li       9.01370962       4.70269154       5.27175329
Li       6.50958424       8.94079093      11.89674796
P        9.41611366       7.39921619       6.47723763
P        4.27816853       6.76251022       6.18956163
O        5.73968803       3.21066622       8.81698947
N        0.51872800       8.37022576       7.23020125
O        0.34193217       6.25040523       5.87456865
O        3.41097659       5.88475022       5.23940767
O        3.10861437       1.33569687       5.20009746
O        8.38194697       6.86377888       7.42036321
124
Lattice="9.90879 0.0 0.0 0.0 10.6625 0.0 0.0 0.0 12.434" Properties=species:S:1:pos:R:3 material=LiPON model=NEP89 temperature_K=900 phase="NVT production" display_name="LiPON｜NEP89｜900 K｜NVT production計算" report_figures="23_LiPON_lithium_MSD; 24_LiPON_transport_comparison; 25_LiPON_temperature_RDF" source_frame_index=2849 relative_time_ps=284.9 pbc="T T T"
Li       2.24279376       9.17138850      10.85948420
Li       2.54097250      10.57048127       0.23270568
Li       1.29610977       6.81311923       0.74447190
Li       3.81881683       1.97649659       4.12006036
Li       3.66289205       8.13909421       4.11935754
Li       8.74592966       5.09013675       5.68641461
P        3.37744655       4.46389826       1.71379562
P        0.20297977       1.25766712      11.68805139
N        0.50567716       2.79313045       5.29413419
O        3.88672560       8.54080093       2.37853861
O        2.57893305       3.47622073       2.54798063
O        6.13490275      10.17606170      10.59734537
O        4.09242350       5.37518739       2.65130700
O        0.03908996       2.78896031      11.69094254
O        9.84441222       6.46299722      11.82252201
O        2.53751993       5.04567052       0.63587426
Li       7.43102744       0.37035044      11.91690750
Li       9.67313518       9.87732995      12.37578922
Li       4.80018469       1.82664976       8.48811534
Li       2.90377041       2.34370483      11.32583226
Li       9.56040102       2.37321812       7.99089759
Li       1.38965507       4.07929940       4.05783563
P        2.28337776       3.95024242       8.87998691
P        9.29175660       1.98975252       4.32662398
O        8.98083790       0.63947710      10.89779864
O        6.77783782       5.13792743      11.84659177
O        0.74009078       3.77935313       8.66606847
O        5.87058215      10.44757150       5.09011660
O        2.75551240       5.19148343       8.11199273
O        0.10991396       0.77590655       3.73551610
O        1.74844965       9.45497191       8.24513444
O        2.84519574       2.57297022       8.24713700
Li       8.31596929       6.17939184       9.23428241
Li       9.76017826       9.81856493       9.52426839
Li       5.89713042       7.87887999       8.68733332
Li       4.63496572       5.22160362       8.48210205
Li       1.78048957       1.68088974       6.35704602
Li       2.33637633       0.87935738       8.96386365
P        2.46360724       9.01015067       2.32068327
P        0.62036051       7.21706868      10.66652413
O        1.23804502       9.15889512       5.87069415
O        4.59394588       3.61479196       0.90268163
O        1.84752993       8.79055881       0.81545260
O        5.23766542       1.77247888       2.50987314
O        1.75296421       8.04953429       3.35205262
O        0.09064012       8.67801528      10.84048921
O        1.60637617       0.82381992      11.19205098
O        2.59316740      10.50102077       2.63247210
Li       4.33469947       3.47005523       6.92037604
Li       0.81872441       2.60113957       1.76130322
Li       4.99291774       7.13561984       1.57544294
Li       2.42458803       7.02472321       8.78036184
Li       0.22356926       5.44291573       7.87663009
Li       0.46051055      10.31118600       2.09686338
P        5.82691628       6.16586509      11.16447471
P        0.72234029       9.65750950       7.17364316
O        2.10402166       7.25599321      10.76472334
O        2.66198888       4.06613108      10.40166531
O        4.82578658       5.37625477      10.15730907
O        5.43968123       7.26900887       4.97078881
O        5.01899313       7.04520861      12.16904938
O        0.39980640       0.51604455       6.95862344
O        1.32074997       3.59176868       5.96258830
O        6.63144024       7.01360922      10.19378543
Li       9.37290099       4.00827377      10.24761366
Li       7.70731955       3.65884452      12.21162236
Li       7.78918463       6.20743043       0.56958886
Li       3.57302468       9.51516711       7.79061840
Li       3.46747719       5.58110487      11.22135410
Li       5.93247213       8.76106925      12.06787326
P        8.26379683       4.40283254       2.80902234
P        4.62150722       0.02043883      10.78499257
O        5.04875883       0.27273947       7.48654313
O        6.83543355       7.66974670       1.89126515
O        0.28675702       0.97462486       0.79982545
N        9.24414886       3.08581711       3.09133752
O        4.23374625      10.09388645      12.26135130
O        6.63311771       3.91121241       2.65771203
O        8.44562962       5.46143416       3.85460287
Li       3.33096532       7.73690142      12.03286925
Li       0.34693293       4.63797370       0.12449854
Li       6.45160232       8.71698666       5.41528992
Li       1.99012919      10.48570730       4.55711653
Li       6.57015591       6.85865874       3.59975353
Li       4.09709135       4.45863336       4.39015215
P        7.25474053       3.56597446       8.34072294
P        4.93883299       0.58281661       5.91171773
O        3.70312312      10.09890094       9.74897798
O        7.55640444       7.58974170       7.68121239
O        7.70163954       3.78915732       9.73711397
O        8.00828997       1.82286448       4.96070773
N        7.75561822       2.06824812       8.03682712
O        4.98069327       2.11732210       5.47389577
O        4.93374636       5.22093491       6.32637719
O        7.78764951       4.43828576       7.21657722
Li       7.68049805       8.34557412      10.47674235
Li       8.33756814       1.37391567       1.78596220
Li       5.13600060       3.35786648      10.51037965
Li       8.14792940      10.63123192       5.66764042
Li       1.57175842       7.42105127       5.29199416
Li       6.90659484       0.85656343       3.66044443
P        7.68403185       9.00522902       1.70410674
P        5.78809438       2.87797798       1.68889146
O        4.60286021       7.48282796       7.39659942
O        8.77645659       4.99212972       1.44931957
O        9.05869162       8.70670140       2.42913679
O        0.24354427       6.65589624       9.25247315
N        7.83378030       9.15114589       0.18174818
O        6.90966634       2.35270316       0.82344041
O        4.68641539       1.53842386      10.67305629
O        7.26985273      10.35620477       2.19195326
Li       9.84138111       9.55535828       4.27932340
Li       7.14236135       0.75219543       9.65310373
Li       9.51985225       7.24793111       3.10519760
Li       6.77865099       3.15362193       5.14244169
Li       4.85890263      10.40703772       2.42934823
P        8.71238393       7.94288612       6.71796534
P        4.45080682       6.61521759       6.07293736
O        5.65981218       3.65124193       8.49034963
N        9.48613535       8.84606897       7.83061657
O        8.22286700       8.80269603       5.49367547
O        3.03307670       6.61509867       5.49215212
O        3.48663270       0.36180484       5.23023051
O        9.55046534       6.61793559       6.44610858
124
Lattice="9.90879 0.0 0.0 0.0 10.6625 0.0 0.0 0.0 12.434" Properties=species:S:1:pos:R:3 material=LiPON model=NEP89 temperature_K=900 phase="NVT production" display_name="LiPON｜NEP89｜900 K｜NVT production計算" report_figures="23_LiPON_lithium_MSD; 24_LiPON_transport_comparison; 25_LiPON_temperature_RDF" source_frame_index=2879 relative_time_ps=287.9 pbc="T T T"
Li       3.29187131       9.24615377      11.35385975
Li       1.87300400       1.21149094       2.09069906
Li       1.26533568       6.24160970       1.27686884
Li       2.59767719       2.87712061       3.36249726
Li       2.38657183       5.64353272       4.01373607
Li       7.01128925       6.52718548       8.73821853
P        3.61077271       3.81773308       1.25766851
P        0.20230566       1.10104427      11.67186339
N        0.61770543       4.00504286       4.92680342
O        4.10307507       7.71999156       2.40886888
O        3.20966885       2.32920275       1.17261491
O        6.53000327      10.30329059      10.79180242
O        3.89051858       4.35783447       2.62421506
O        9.73604137       2.61673573      11.81046905
O        9.80063656       5.35593972       0.12817127
O        2.64646373       4.80839708       0.59495735
Li       7.58803869       1.37315039      10.66842710
Li       0.78647403       8.99902680       1.10042041
Li       4.88912010       1.64392199       8.37377817
Li       3.21768488       1.67242177      11.74258717
Li       9.82841162       2.53845761       7.19100260
Li       1.70307822       7.98849660       4.81524559
P        2.13000926       3.58732351       9.02484959
P        9.69465236       2.96538645       3.84842052
O        9.20086137       0.29070870      10.74886408
O        5.44909545       5.30181166      10.21334050
O        0.62203162       3.32527372       8.83310374
O        6.26327279       1.24072852       5.33387251
O        2.51513315       4.99630331       8.48625333
O        0.82995925       1.91257197       3.31287498
O        1.66180466       9.24486339       8.13495342
O        2.81498630       2.39018482       8.22092714
Li       9.40464848       3.55937539      10.32213252
Li       1.92739468       8.07586389       9.24122032
Li       5.46805070       8.60813991       8.85731886
Li       4.19559816       5.68470582       8.62104116
Li       2.40487914       1.75576733       6.58996387
Li       1.65650580       0.82572765       9.07059203
P        2.62940096       8.15009451       2.13453342
P        9.63717240       6.23011896      11.26951010
O        1.52126809       9.51004396       5.63868508
O        4.88939877       3.62371534       0.19190884
O        2.13649952       7.94064706       0.70048092
O        6.33512653       1.78387390       1.42416095
O        1.55769531       7.30993199       3.04971481
O        8.96143346       7.50069736      11.83840462
O        1.67801796       0.85948658      11.09855035
O        2.36655008       9.58611867       2.52423977
Li       3.84176843       3.45314838       6.84764165
Li       8.71490597       4.03782153       0.65862859
Li       5.28220665       9.51066370       3.23282360
Li       2.15458407       6.24646288       7.05919298
Li       9.64423627       5.14768832       8.40843610
Li       0.51216293      10.28561160       4.03542543
P        5.39364226       6.69836731      10.93449871
P        0.87382572       9.86431232       7.01775055
O        1.11099190       6.56514736      10.41244325
O        2.71559120       3.61571091      10.56343663
O        3.99117078       7.48520231      10.72685681
O        5.10342945       7.77657644       5.19483347
O        5.87195187       6.80382982      12.43373155
O        0.71071886       0.76512074       7.07635505
O        1.36349463       3.97385383       5.96630743
O        6.47038123       7.42310771       9.99296258
Li       8.80775353       0.10712342       8.47690438
Li       6.97039785       4.37697221      10.49811959
Li       7.96571846       7.38393946       1.02540569
Li       3.54857469       9.63520855       7.91360691
Li       2.84081415       5.83946772      11.27928218
Li       8.17704644       9.61001437      12.29346231
P        7.82530064       4.78803201       3.17505515
P        5.11972516       0.14207871      10.64143722
O        4.09377608       0.34212833       6.22875946
O        6.98860114       8.89689934       3.61974201
O        0.26041612       0.55791998       0.64057115
N        9.11710501       3.92030406       2.68355845
O        4.24091426       0.09967139      12.01890962
O        6.64039079       4.37776357       2.08991884
O        7.05927589       4.72786221       4.56966986
Li       5.22950528       6.10967767       2.11473308
Li       1.43857594       3.40734823      12.18088056
Li       6.68100148       8.56136356       6.07672698
Li       3.09773975       9.91436644       4.79639272
Li       7.22652676       7.14163012       4.37492228
Li       4.61577499       4.39865474       4.69914854
P        7.35866918       2.79158470       8.07393667
P        4.79444412       1.15897977       5.10263246
O        4.30806700      10.17951663       9.47549212
O        7.61669006       7.39691400       7.11050598
O        7.76164024       3.04411206       9.55962051
O        8.65948705       2.33315539       4.72819465
N        7.94863655       1.51340325       7.49755202
O        4.10540047       2.59704909       4.97326879
O        4.77264118       5.57271395       6.55746321
O        8.09642999       3.87862519       7.18589942
Li       5.51376382       8.64791802       0.15937170
Li       9.30824193       1.04725271       1.98219285
Li       4.50984064       3.43808990      10.30595297
Li       8.13342944       8.29834873      10.36463326
Li       8.98088196       5.13945625       5.52354481
Li       6.86363780       1.36886953       3.38803622
P        7.96092759       9.37312497       2.52946566
P        6.35494534       3.23198701       1.01678080
O        4.33033617       7.82732813       7.60869189
O        8.26581730       6.13022674       2.74109233
O        9.35923692       8.82361144       2.18668458
O        8.80783721       5.44922902      10.16530562
N        6.86349957       9.13594959       1.44114994
O        7.24850532       3.55040150      12.21524335
O        5.31358563       1.61673428      10.26671355
O        8.19988380       0.09719156       3.11285961
Li       8.27014711       0.85465070       5.78258411
Li       7.20792674       2.93239325       5.45479889
Li       9.52286391       7.24937472       3.35954891
Li       6.42505953       5.21060817       6.58726294
Li       4.61633191       0.64989401       1.72956608
P        9.11066844       7.64513782       6.80779000
P        4.29480131       6.98161465       6.23036460
O        5.81997861       3.07522906       7.94483738
N        9.34636342       9.17213311       7.17344228
O        9.10352950       7.23747576       5.36243065
O        2.88525278       6.92137012       5.54165172
O        4.58107071       0.45302637       3.78778857
O        0.15749407       6.83281840       7.69535455
124
Lattice="9.90879 0.0 0.0 0.0 10.6625 0.0 0.0 0.0 12.434" Properties=species:S:1:pos:R:3 material=LiPON model=NEP89 temperature_K=900 phase="NVT production" display_name="LiPON｜NEP89｜900 K｜NVT production計算" report_figures="23_LiPON_lithium_MSD; 24_LiPON_transport_comparison; 25_LiPON_temperature_RDF" source_frame_index=2909 relative_time_ps=290.9 pbc="T T T"
Li       9.80702770       8.72396890       0.39614020
Li       3.96421668       1.16751553       3.36657107
Li       0.66791479       4.10051707       1.42526195
Li       2.75844750       4.70799243       5.20555244
Li       4.93507422       6.71451092       2.24205380
Li       7.57341153       9.05680624      11.49502242
P        3.63396801       3.88053299       1.70241108
P        0.26676557       1.16661928      11.79432387
N        0.75865438       4.41976999       4.50623951
O        4.10720005       8.77940529       1.99654081
O        2.51714294       3.33168275       0.85990691
O        7.07192068      10.65526813       9.93577118
O        3.64082318       3.36201463       3.10852625
O        9.65707925       2.15350365      10.83669778
O        0.65331446       5.96654543       0.41661380
O        3.75505196       5.43286369       1.64355825
Li       0.07001622       2.49150475       9.09725661
Li       0.52779018       7.41750093       2.04808139
Li       4.31711893       2.10911032       9.04751634
Li       2.98467387       2.01429900      11.39034635
Li       9.61310322       2.21058285       6.85416225
Li       0.88419688       7.65957900       4.73901826
P        2.26680453       3.91201771       7.94614037
P        0.00170640       3.02025583       4.01947432
O        9.22907490      10.54771748      11.94793730
O        4.18129791       4.76292282      11.04453910
O        0.76479171       3.98849611       7.40336048
O        5.38677582       2.08794974       5.42590685
O        2.58012524       5.40270886       8.21590292
O        0.91171212       1.93228913       3.46432170
O        1.72566951       9.20840696       7.93274100
O        3.10777860       3.66020365       6.62837848
Li       9.74329837       5.24059561       9.00365313
Li       1.80953227       8.29328217      11.25687442
Li       3.48101479       8.00558945       9.45803653
Li       4.48465671       5.44258152       8.12960769
Li       2.74981202       1.72001161       5.89626845
Li       2.43366518       1.06146798       9.01620791
P        2.65313658       9.14366059       1.73325499
P        9.79445114       6.32579882      11.54243866
O        1.45127292      10.51972293       5.83282274
O        4.99572459       3.24940242       0.85025987
O        2.00027772       8.51874971       0.44581003
O        5.28266350       0.94112168       1.99274220
O        1.83306498       8.55491125       3.00534831
O        9.66254133       7.81197375      11.29563046
O        1.71894155       0.69199150      11.50722453
O        2.41844593      10.65772055       1.91060866
Li       4.70239057       3.14104074       6.71471562
Li       8.39228428       3.31297345      11.65279385
Li       5.17049597       9.71124436       3.27352321
Li       1.60311249       7.01028345       7.23397717
Li       9.26320084       4.62075834       6.47083681
Li       1.80211083       1.90859689       1.83861824
P        4.84111761       6.19776274      10.99825983
P        0.75176605       9.90725910       7.03658641
O        0.86629108       5.80328205      10.38053893
O        2.63268816       3.00345293       9.18186138
O        3.54266042       7.08125652      11.18161733
O        4.80668608       7.19005661       4.36188843
O        5.85806591       6.54208082      12.08709959
O        0.12002683       0.35707592       8.06235444
O        0.75736275       5.61151535       3.97138691
O        5.47141181       6.61815847       9.57373056
Li       7.78851309       0.43840268       7.87726266
Li       7.60972083       1.26371879      11.27126734
Li       7.59813991      10.62730893       0.84650839
Li       3.58564274       9.82164964       7.25388253
Li       2.56082762       6.36456379       0.34538664
Li       5.81547713       8.46215330       8.62828622
P        7.68464431       4.21081467       2.75997136
P        5.58700998       0.01014431      10.39084559
O        4.30240765       0.85532480       7.06500986
O        7.01078793       9.27735887       3.86006204
O        0.27159402       1.87613407       0.72922111
N        9.03585459       3.29808914       2.81585588
O        5.42021783       9.97861630      11.78168116
O        6.56968336       2.95932187       2.67400232
O        7.22194848       5.02102130       3.98291786
Li       7.00302997       5.01771925      12.12618820
Li       2.51155649       4.97751551      10.37198633
Li       6.17272039       8.70101722       5.62359165
Li       3.01367758       9.02121480       4.89025168
Li       7.53725739       6.92923955       4.28778326
Li       5.68630933       3.75778075       4.61249522
P        7.14061384       3.65079870       8.79048535
P        5.15461687       0.62185216       5.82278085
O        4.54473692       9.94233039       9.39889783
O        7.55746318       7.35494937       6.15634008
O        7.23101402       3.21578400      10.27475907
O        9.06974127       2.39841875       5.16718565
N        8.09288343       2.55286118       8.14826222
O        4.33668089      10.48717569       4.76398813
O        4.95844854       5.57924278       6.28412009
O        7.59412643       5.00658837       8.26737975
Li       5.44320139       8.63456994       0.51742130
Li       9.26843670       1.39438584       2.16617345
Li       5.43293895       3.31406283      10.60328163
Li       9.60509160       9.86610882       9.88188647
Li       6.99493312       5.31084040       6.14594232
Li       8.03977795      10.56175751       4.68377117
P        8.03672056       8.95556328       2.76210016
P        5.97923691       2.14863248       1.47739766
O        4.52440856       8.08319168       6.72351705
O        7.54074379       4.89993885       1.41805322
O        8.78738780       7.60842392       2.81976152
O        8.50757110       5.47475382      11.22002267
N        7.47974616       8.75089891       1.27221193
O        7.25705232       1.85098019       0.53294485
O        5.08317729       1.45961524      10.62845125
O        8.90574822      10.29363834       2.75527248
Li       0.67873552      10.47147720       3.66099344
Li       7.51072019       2.30822913       6.35146624
Li       7.42124699       6.69299373       1.35510297
Li       7.48621999       6.32850619       9.83106583
Li       4.18066380      10.61648284       0.69235469
P        8.80213662       7.81489302       7.02025364
P        4.24621157       6.86013319       5.69702854
O        5.62120240       3.44084271       8.35772026
N        9.68415224       9.00105448       6.28843835
O        9.61721778       6.49129222       7.21784927
O        2.62995904       6.68632592       5.57292726
O        6.59920032       0.05250131       6.26254773
O        8.14993761       8.51415229       8.25773492
124
Lattice="9.90879 0.0 0.0 0.0 10.6625 0.0 0.0 0.0 12.434" Properties=species:S:1:pos:R:3 material=LiPON model=NEP89 temperature_K=900 phase="NVT production" display_name="LiPON｜NEP89｜900 K｜NVT production計算" report_figures="23_LiPON_lithium_MSD; 24_LiPON_transport_comparison; 25_LiPON_temperature_RDF" source_frame_index=2939 relative_time_ps=293.9 pbc="T T T"
Li       0.38252558       8.46174600       0.40052603
Li       6.10527182       3.87629316       4.64670204
Li       1.01589933       3.72077153       0.42166651
Li       2.81694387       4.39167031       5.27198769
Li       4.76098116       7.43405578       2.86044011
Li       8.23392109       9.06748525      11.22225195
P        3.70023073       4.37035929       2.20014803
P        0.10544822       0.78233417      11.60774994
N        0.29135371       4.20664230       4.54487008
O        4.25034499       9.41253595       2.16069463
O        2.36780635       3.53988547       1.82595982
O        6.01049973      10.48984945       9.73402575
O        4.09519075       4.15941327       3.71604497
O        1.09724463       1.63200743       0.05796561
O        1.73360053       6.96005332      10.45691118
O        3.61569258       5.92846666       1.88152558
Li       0.39676724       2.99616423      10.21656307
Li       1.60996277       6.34676057       2.70947674
Li       4.87074707       1.87089089       8.80941218
Li       2.85979617       2.14785745      10.77158218
Li       9.65655599       1.98313671       7.42000507
Li       9.41499806       8.96253656       4.13925500
P        2.10837181       3.96142499       8.17398700
P        9.79795013       2.56018377       4.47964367
O        9.17401507       1.48014403      10.56815412
O        4.34096711       5.03207054      11.22377476
O        0.65780929       3.83105095       7.75318252
O        5.84099839       2.35825760       5.67241765
O        2.51544895       5.53373163       8.41472019
O        1.24733646       1.94962555       4.73701524
O        1.46069940       8.62195338       7.93594014
O        3.02447648       3.54148193       6.93846344
Li       9.68695646       4.97146540       8.85981305
Li       2.76367850       9.01998306      11.49329499
Li       3.60659188       7.61741508       8.94398059
Li       4.37637432       5.12794581       9.17571289
Li       2.24294697       1.87167109       6.57691198
Li       2.51682280       0.54852053       9.23078168
P        2.69929900       9.12056935       2.33660320
P        0.58537472       6.42692965      11.42214274
O        1.08985655       9.74053208       5.55273274
O        5.07596638       3.86928989       1.32805589
O        2.14674600       8.62769119       0.86490376
O        4.85634986       1.32260845       1.38713527
O        2.39742137       7.90240228       3.23738267
O        9.35472291       7.44672239      11.15525148
O        0.94025274      10.27218976      10.99791372
O        1.91313007      10.37645099       2.64109974
Li       4.78580493       3.63437607       6.65657094
Li       9.32964138       0.08379354       2.14279078
Li       4.93632558      10.06070752       3.67528565
Li       1.33862198       6.70100027       7.57449431
Li       9.64958890       4.80802074       6.32174044
Li       3.86844491       2.38166836       3.81940234
P        5.14675241       6.32617054      11.18646954
P        0.81138630       9.77056749       7.06522171
O        0.40655909       5.03572126      10.79287457
O        2.18684495       3.06133776       9.42936783
O        4.35455648       7.39172886      12.03495895
O        4.58160520       8.04348210       4.75702985
O        6.60947653       6.01787858      11.85396094
O        1.22610695       0.60992549       7.58033590
O        0.75734999       5.22386061       3.98989077
O        5.27215294       6.79352111       9.61323644
Li       7.52603937       0.82314407       7.43542211
Li       7.43346002       1.73410369      10.17490593
Li       7.28616687       0.31402995       0.53048328
Li       3.30260154       9.82012887       7.27331852
Li       2.88209982       7.02582376       0.35549990
Li       5.73473133       9.49980819       8.23202309
P        8.27337922       3.51654989       2.47605519
P        4.61196244      10.49893965      10.28816995
O        4.87921762       0.68238949       7.19701007
O        8.05822961       9.71496485       2.94300537
O        9.13152124       0.31047604       0.37078225
N        9.35668863       2.37316123       2.90220022
O        4.14637425      10.13412043      11.76911497
O        7.13928030       2.45652356       1.78303228
O        7.59290314       4.29293237       3.58794926
Li       7.59184868       4.39001257      11.71208915
Li       2.54020336       5.29661756      10.43952602
Li       6.46323492       8.63026855       5.34000463
Li       1.49564952       7.87205421       4.94907618
Li       9.02781562       5.90943419       1.11195733
Li       7.78608874       6.32284418       3.99527011
P        6.99095278       3.91403408       8.52864706
P        5.34851350       0.94242108       5.75577351
O        3.50770995       9.69672045       9.41142022
O        7.02657126       8.22040338       7.29386654
O        7.70018216       4.64854616       9.77851329
O        8.80706627       1.87089268       5.47753051
N        7.63371128       2.58620454       8.28204784
O        4.02270154       0.93714980       4.77968321
O        4.73851667       5.94476082       6.11456630
O        7.38957828       4.56978604       7.27088689
Li       5.35957953       8.77618791       0.52390372
Li       1.24245659       1.67495439       2.47101738
Li       4.99656519       3.33066793      10.67215194
Li       0.87885613       8.47526876       9.85691360
Li       6.27168251       6.37883119       7.93626806
Li       7.92886322       0.50919692       4.09678401
P        7.65953738       8.36249696       2.10133982
P        5.76499239       2.42222602       0.94402530
O        4.35972483       8.22960461       7.17877513
O        8.67021602       4.28187927       1.18136283
O        6.59118178       7.40042300       2.71191850
O        0.91408904       6.26998213       0.45528079
N        7.28903028       8.63811427       0.61830032
O        6.14695190       2.41381558      11.87229813
O        4.22688056       1.35763798      10.24894754
O        8.94513249       7.57671240       2.05181250
Li       2.20393323      10.48403438       4.37983919
Li       7.55364643       3.05862533       6.06797660
Li       5.70644243       5.85767902       1.53982259
Li       7.52083679       6.53598268      10.06549922
Li       3.03039710       0.44423139       0.86648034
P        8.45484952       7.92706051       6.88712608
P        3.96214985       7.23922881       5.96581397
O        5.46116847       3.77932860       8.77438255
N        9.06198434       9.33454076       7.17058459
O        8.35491482       7.63309431       5.35708757
O        2.60078564       6.77665922       5.82220852
O        6.39169979      10.57057861       5.20110082
O        9.14503137       6.74681406       7.49589002
124
Lattice="9.90879 0.0 0.0 0.0 10.6625 0.0 0.0 0.0 12.434" Properties=species:S:1:pos:R:3 material=LiPON model=NEP89 temperature_K=900 phase="NVT production" display_name="LiPON｜NEP89｜900 K｜NVT production計算" report_figures="23_LiPON_lithium_MSD; 24_LiPON_transport_comparison; 25_LiPON_temperature_RDF" source_frame_index=2969 relative_time_ps=296.9 pbc="T T T"
Li       9.20452856       8.97033902       4.59453758
Li       5.01584765       2.73156751       3.86201993
Li       0.93895848       4.98570321       0.91080119
Li       1.13109262       6.92029992       5.05971687
Li       2.33212792       6.03049605       2.91737919
Li       7.54189565       8.58440961      10.88896929
P        3.13795942       3.64308147       1.70942328
P        9.63873862       0.33122418      11.19559882
N        0.40997027       4.21019403       4.13175800
O        2.90377992       7.94176424       2.09745214
O        2.43504330       2.45278399       1.11768719
O        5.63190467       9.71580507      10.47352778
O        3.57376740       3.88533540       3.18683655
O        9.07535693       0.48831910       0.21270290
O        2.11388006       7.37114395      11.39132120
O        2.65288990       5.06411295       1.13366690
Li       0.02918209       3.60210015      10.45163627
Li       6.73363120       6.58382595       4.39477100
Li       4.54872564       2.12148082       8.41815434
Li       0.45069408       2.47051991       0.28379990
Li       9.46212104       1.96432485       8.76717571
Li       2.57928820       0.80162143       4.98038471
P        2.34070077       4.08753151       8.16963255
P        0.12577020       2.61822614       4.32335594
O        8.51789002      10.36883363      10.25390104
O        4.64616575       5.34260188      10.81705824
O        0.81997707       3.62957141       8.36643349
O        5.74396333       2.77592175       5.71277362
O        2.78108996       5.53906037       8.26698438
O        1.38015643       1.78961363       3.81593161
O        1.18534744       8.73000915       8.27106010
O        2.66058676       3.62100290       6.61837938
Li       9.89094075       6.25259153       8.47810117
Li       2.00810520       9.08625202      12.36260785
Li       1.86624143       8.99884141      10.07163434
Li       4.59502905       5.43889046       8.87631579
Li       1.16886105       2.27374542       6.50941554
Li       2.25403707       1.52504609      10.56290985
P        1.99236850       9.06685875       2.81043432
P        0.65831542       6.69307733      11.44059893
O        2.10953826      10.10330630       6.33000447
O        4.69662280       3.69190676       0.91952070
O        1.35507622       9.76990539       1.60144870
O        5.33958632       1.01143272       1.00771321
O        1.00025860       8.48208714       3.83586183
O        9.68485658       7.16204219      10.28966631
O        0.26701639       1.83793407      10.93931070
O        2.95705637      10.07332497       3.54580795
Li       4.42266298       4.40669187       5.85842880
Li       9.65260832       0.14669480       2.20000215
Li       7.41434240       0.71884734       2.67197574
Li       2.17847970       7.14357277       7.49698503
Li       9.50502478       4.70535900       6.31140189
Li       2.23747369       4.08636003       4.72432211
P        5.68754128       6.32517594      11.46318219
P        0.97416180       9.86345869       7.26364654
O        0.88511265       5.13536888      11.40819333
O        3.25320711       3.34486879       9.10344189
O        4.94316582       7.28679027      12.26332506
O        5.07781285       8.22053725       4.82128299
O        6.89714961       5.63321515      12.20499424
O        0.62783035       0.63981158       7.94362735
O        0.96394097       5.32909488       4.09196786
O        6.23902586       7.21005033      10.26041935
Li       9.85935783       8.96658622       9.56464616
Li       7.09110589       0.27158864       8.88845752
Li       7.28352622       0.67701026      11.72355863
Li       4.30622729       9.82009144       7.70587884
Li       3.16938446       6.88568522       0.56494402
Li       6.83561228       6.36303241       6.71560557
P        8.15258759       3.59052403       2.27965060
P        4.29121502      10.52768334      10.55604383
O        5.26268625       0.50651553       6.97494958
O        5.77253904       9.35210555       2.12318755
O        0.93524377      10.01836740      11.21144981
N        8.94171935       2.37386505       3.02104677
O        3.58240661      10.13715156      11.84266823
O        6.58279162       3.01085716       2.13935820
O        8.01270293       4.87332366       3.05051927
Li       7.70610036       4.00253615      11.76969540
Li       2.70272974       5.28692429      10.96962360
Li       6.19954959       9.14994205       5.97155181
Li       3.07425249       8.73038078       4.86928558
Li       8.41025681       6.52683561      12.28676714
Li       4.74242245       7.86584054       3.16133295
P        7.19109905       3.82398831       8.37432002
P        5.61546485       1.19622369       5.63788966
O        3.44888276       9.82532765       9.34215771
O        8.13328553       7.94308350       7.93643574
O        7.98927527       4.16292977       9.67495820
O        9.17577025       2.19536175       5.52367474
N        7.60305379       2.29143998       8.18324270
O        4.57671328       1.12900967       4.54585104
O        5.52061625       5.85739798       5.27461051
O        7.72122574       4.65254284       7.02044710
Li       5.59725995       9.37937474       0.04296964
Li       2.44565127       1.26419545       2.52830819
Li       5.49269724       3.51913028      10.64313153
Li       9.45315479       8.93857739       0.71086859
Li       7.10125052       4.24397092       5.18681076
Li       8.70910739       0.50298196       5.87414841
P        7.25593908       8.71568461       2.15378965
P        5.75406561       2.47966797       0.82753330
O        5.19168023       7.46036024       7.20373806
O        8.90776057       3.93029300       0.89368796
O        7.01040455       7.30943237       2.63796597
O        0.05214843       7.07322734       0.30370293
N        7.66692405       8.76081902       0.59315424
O        6.45163724       2.55941430      11.85837067
O        4.57104099       1.20807507      10.27222463
O        8.31547853       9.74556617       2.72698085
Li       4.55138086      10.38398252       2.96566963
Li       4.95169604       8.24745000       9.29901931
Li       6.57880038       5.73110644       1.82925611
Li       7.84126323       6.41034313       9.68902641
Li       3.39623524       0.87243725       0.28108627
P        8.88526352       7.84698919       6.71247121
P        4.61815026       7.02218851       5.79588118
O        5.65644657       4.02413140       8.41175770
N        9.53122062       9.37970957       6.37220996
O        7.88138473       7.69157901       5.51692887
O        3.10811190       6.81062544       5.68661830
O        6.79964005       0.20970741       5.16959922
O        0.06177759       6.64709124       6.65020170
124
Lattice="9.90879 0.0 0.0 0.0 10.6625 0.0 0.0 0.0 12.434" Properties=species:S:1:pos:R:3 material=LiPON model=NEP89 temperature_K=900 phase="NVT production" display_name="LiPON｜NEP89｜900 K｜NVT production計算" report_figures="23_LiPON_lithium_MSD; 24_LiPON_transport_comparison; 25_LiPON_temperature_RDF" source_frame_index=2999 relative_time_ps=299.9 pbc="T T T"
Li       2.33092787       2.48628290       1.36974776
Li       5.56089706       4.22292525       3.97830262
Li       2.16597353       7.10605918       0.87863679
Li       1.39142721       7.00741197       8.19136818
Li       9.65643482       7.34436958       3.29421342
Li       4.70914522       4.66445720       8.65206850
P        3.86116072       4.89841092       1.60274463
P        0.52770147       0.75248971      11.48165268
N        0.07350148       4.03301780       4.28128334
O        2.18959876       8.98891844       0.96411107
O        2.50032743       4.18140682       0.87724064
O        6.46457908      10.24110328       9.80437898
O        3.71605490       4.40399381       3.10667332
O        1.11045075       1.37218724       0.42459642
O        2.05323490       6.69346144      11.35434728
O        4.20474402       6.40767110       1.49662462
Li       0.40460950       3.72877882       9.90273182
Li       7.49888392       7.73606742       4.36787425
Li       7.82365238       1.26334448      10.26900179
Li       4.35740085       2.14967878       3.05887619
Li       6.99258842      10.42163064       7.65352832
Li       9.30899662       9.93332796       4.34746378
P        2.41214916       4.24804050       8.51735175
P        9.74753050       2.50448187       3.98780157
O        8.98780424       0.30045303      11.64642056
O        4.76967652       5.67307742      10.60976609
O        0.96162630       4.04640283       7.91746861
O        5.53454242       2.90124940       5.42362486
O        2.73328573       5.71120677       8.40433587
O        1.04931369       2.04902344       3.16612812
O        1.69065579       8.81133349       8.10669210
O        3.41209248       3.40011476       7.53642130
Li       8.69172521       6.48542779       9.26851845
Li       2.64690252       0.18663368       0.11174223
Li       2.26754700       8.88324296      11.64042684
Li       4.68686716       4.14449619       6.33875799
Li       2.01266472       2.32184544       6.67346213
Li       1.84185618       0.88940268       9.41038086
P        1.68549449       9.11786794       2.54144696
P        0.52785660       6.47957602      11.50858894
O        1.54889631       9.77743649       5.80159427
O        5.21812636       4.08708999       0.93942715
O        0.09515948       9.55726083       2.56866872
O        4.22644776       1.63694565       1.29337560
O        1.64968810       7.58334399       2.88358232
O        9.72143244       7.54155173      10.67956973
O        0.48322105       1.85477237      10.46782742
O        2.71049747      10.01446768       3.14427968
Li       4.18522083       2.38767701      10.41672476
Li       9.49122634       9.01799120       0.51679229
Li       7.11287800       0.53377030       3.95757077
Li       3.40979411       6.83082456       9.85920359
Li       9.54027885       4.99295689       7.11520131
Li       2.34289956       4.73855957       5.38442808
P        6.18383423       6.42783629      10.74317560
P        1.00406117       9.78426959       7.20765228
O        0.21224264       5.00647781      11.29866741
O        2.49465091       3.68857957      10.01452635
O        5.95565156       7.75043582      11.36227597
O        5.73224372       6.71518496       4.52145942
O        6.99534417       5.50362630      11.63685281
O        1.15709274       0.58068671       7.72373923
O        9.85761784       5.30090790       4.05403403
O        6.84899329       6.71044566       9.36514582
Li       0.61625765       8.96919245       9.75246429
Li       9.65899845       2.25788294       7.46051193
Li       9.68863920       0.73882926       1.83667537
Li       3.54945637       8.70788172       7.61593992
Li       4.68556465       7.92577708       0.62900317
Li       7.00797985       5.88034021       7.03402447
P        7.75147735       2.99016117       2.21426998
P        4.90336669      10.05838120      10.01625126
O        5.43397494       0.49872385       6.50075910
O        5.31791060       8.69156378       2.05336321
O        1.30242463      10.34091135      10.80466401
N        8.58444595       1.86842578       3.01458358
O        4.39557786      10.02732836      11.46400548
O        6.57620829       2.13152643       1.73093949
O        7.42750667       4.19831621       3.07600968
Li       1.32896925       4.46299221       2.57708248
Li       2.75445421       4.81341197      11.58755127
Li       5.29908025       9.63686348       5.35195074
Li       1.69927923       8.02376081       5.01586351
Li       8.20251678       6.06849400       1.13545295
Li       4.04650457       7.34759931       3.09900770
P        7.23310023       3.08893213       8.52888966
P        4.77618809       1.47282645       5.45068603
O        4.44906162       8.76204587       9.14379371
O        9.69765515       6.78045766       7.26817512
O        8.03307436       3.39560134       9.84645881
O        9.50720961       1.78700846       5.40165956
N        7.91147296       1.72305459       8.06725429
O        3.20286055       1.63296142       5.46749877
O        4.75082999       5.84362353       6.81714905
O        7.55892323       4.19782527       7.54902703
Li       7.09989588      10.25895165      11.79155567
Li       1.95009140       0.50443466       4.45205880
Li       5.60376951       4.18069397      11.57628745
Li       7.73149606       8.71639340       9.09196257
Li       7.48244030       2.91832481       5.67803147
Li       4.94496353       1.66501907       8.07200248
P        6.86872849       8.81857398       2.18861541
P        5.34763696       2.46025194       0.78236680
O        4.97956262       8.29835694       6.34972950
O        8.52270447       3.45848596       0.98633980
O        7.57732918       7.37942645       2.36282046
O        0.01730982       6.81379104       0.46631296
N        7.39785249       9.74282885       1.04380427
O        5.58765731       2.29441171      11.62357735
O        4.12472639       0.58999994       9.35587675
O        6.89146261       9.44463896       3.69903354
Li       4.77907798      10.32678317       2.98983454
Li       5.64419861       7.30640289       8.01436451
Li       5.98803804       6.31108325       2.78617967
Li       8.37471605       4.11998787      11.47797106
Li       0.37796340       3.50021522       0.30405097
P        8.84301509       7.98727198       6.67430644
P        4.56320071       6.92543420       5.72969507
O        5.76986509       3.04713971       8.86892329
N        9.27217167       9.35904493       7.41279279
O        7.31410231       7.80510284       7.02056926
O        3.12605062       6.73311411       5.18244010
O        5.01084469       0.76827318       4.16470908
O        9.33034341       8.29801400       5.22198307
