124
Lattice="9.63908 0.0 0.0 0.0 10.3723 0.0 0.0 0.0 12.0957" Properties=species:S:1:pos:R:3 material=LiPON model=NEP89 temperature_K=600 phase="NVT production" display_name="LiPON｜NEP89｜600 K｜NVT production計算" report_figures="23_LiPON_lithium_MSD; 24_LiPON_transport_comparison; 25_LiPON_temperature_RDF" source_frame_index=0 relative_time_ps=0.0 pbc="T T T"
Li       3.03311397       0.21331572       2.67019419
Li       5.68697135       1.79554277       2.14244895
Li       8.12013686       2.91156709       0.45920977
Li       0.26352022       7.31845704       4.51002893
Li       0.19906445       8.45444516       1.49360522
Li       6.26278256       9.72481022       9.52258440
P        3.30366931       3.57389511       1.11119994
P        0.56481068       0.66688569       0.29887507
N        1.19513080       4.19067730       4.06737765
O        2.39775208       6.63214398       3.28829647
O        1.82264111       4.08423268       1.13936879
O        5.01410200       0.79740919      10.81402886
O        3.49960841       3.14035057      11.77942497
O        9.21068456       9.89869385       0.53168800
O        8.21751985       7.25229998      11.38282048
O        3.77311401       2.57815797       2.07337452
Li       5.60147920       2.76120437      11.11812304
Li       0.69820309       0.21720198       3.55235324
Li       3.05625604       1.57953771      10.77158098
Li       1.09734779       5.19175442       2.37900237
Li       3.99762135       4.52806516      10.25875178
Li       0.72088974       2.91067839       2.28290083
P        1.72533183       3.09841797       8.47975336
P        9.41489985       4.25681575       4.81008417
O        1.15010456       1.08698780       1.71238866
O        3.55956558       6.47672246       9.47984994
O        2.34560907       1.71356238       8.96179568
O        3.78910312       0.98144702       4.44427207
O        0.18258030       2.94626055       8.57152816
O        9.22789433       2.97124575       5.62704062
O        0.11512425       6.05166580       8.45088217
O        2.22070390       3.66635686       7.15700755
Li       8.82778741       2.14804325       7.37073186
Li       6.78434804       3.77084085       5.65189559
Li       9.19227990       4.64278344       9.60180125
Li       2.37105336       5.74528692       5.05514763
Li       7.92227449       6.81226972       6.34752110
Li       5.42465112       8.49846630       2.02339075
P        2.41021782       8.19527242       3.02376604
P        9.37973903       6.44860825      12.03420504
O        0.84562332       7.57761357       6.63145824
O        4.12183713       5.01552421       1.37278276
O        2.03904844       8.40588694       1.57321136
O        5.81137975       4.83439958      11.52304689
O        1.46573726       9.02676309       3.93015889
O        9.11179576       4.94957015      11.64427907
O        1.56576761       0.07673535      11.32356564
O        3.88480298       8.78777075       3.13391695
Li       1.34628405       3.64218360      11.40557686
Li       0.65233204       9.53395681       5.93926909
Li       2.90055550       7.83127830       6.90232951
Li       1.78101197       2.47074444       5.64261591
Li       8.11051703       1.42493580       5.15344821
Li       1.77449303       8.68184242      10.73028761
P        4.34520161       7.76964161       9.80080049
P        0.19453901       7.54126157       8.06719369
O        1.07955469       6.83780206      11.36835322
O        1.83910221       4.18952004       9.65954169
O        5.83261881       7.45046924       9.82661281
O        3.60968992       6.36927495       6.08426449
O        4.02705748       8.70968458       8.62500965
O        1.14638048       8.38375795       8.95556917
O        2.53815200       4.06503516       4.33354525
O        3.79847546       8.48821507      11.01399075
Li       4.08211958       0.63553783       8.83350962
Li       6.23226754       0.55955705       6.53903419
Li       3.06353540       9.45227517       0.36127368
Li       8.98882437       4.51316050       7.48112100
Li       2.91495439       5.51050878       7.89193091
Li       4.66109535       8.01768236       4.57183177
P        7.43875047       3.52032637       2.93010032
P        5.71367966       0.30045569       0.01828917
O        4.41030353       1.11340829       7.00507924
O        8.83474687      10.35709629       4.27235409
O        0.00089059       1.95335585      11.70795757
N        8.12286537       4.46766062       3.96621292
O        6.58621537       1.50630160       0.50891981
O        6.58790668       4.30216706       1.77610655
O        8.45451621       2.52489964       2.27127615
Li       1.89084857       6.13899778       9.81796991
Li       7.84103177       0.42511859       1.51313974
Li       2.39086712       6.61002529       0.45147629
Li       8.71186675       1.58123920      10.08018423
Li       1.15814982       0.16698554       9.02164388
Li       5.32201665       0.03677753       3.73035949
P        6.58918068       3.39201876       8.72528153
P        3.40710004       0.37617308       5.90412087
O        6.68904454       9.55680175      11.65358276
O        9.08317281       0.21811862       7.22598493
O        5.03763459       3.67402170       8.84854039
O        9.22731920       5.47425956       5.73512402
N        7.41206623       4.68242411       8.98935153
O        2.04212900       0.70792316       6.36047154
O        6.11297035       6.37517937       6.92023411
O        7.13810706       2.82557856       7.38663841
Li       5.40208493       5.76191391       9.01638470
Li       7.50292605       6.25951367       3.66578287
Li       7.58397973       7.56890738       1.48460156
Li       4.13091391       3.13794453       4.40181041
Li       3.92904501       3.16383543       6.95849139
Li       3.95070916       5.48003840       3.37992661
P        7.78963895       9.20413765       4.03708912
P        5.66469382       5.19270299       0.91097482
O        5.10857974       4.33583769       5.86360822
O        6.55071707       2.69518406       3.79339229
O        7.36025172       9.01086353       2.54729879
O        9.33155240       6.69845185       1.45040018
N        8.07956078       7.81117462       4.58353441
O        5.91898318       6.72170290       1.12729588
O        4.84963118      10.30251230       1.23860160
O        6.59398615       9.62556554       4.86433888
Li       6.39404878       7.43981269      11.51893332
Li       8.53873317       9.25326252      11.03818934
Li       7.35880439       5.29542984      10.81691028
Li       5.23488067       8.59372982       7.08512702
Li       7.69571018       6.93546870       9.25058101
P        8.22876937       9.69600605       8.08042475
P        5.09659181       5.86716976       5.88208385
O        7.09372951       2.61267939       9.96766845
N        8.38536097       8.14092720       7.88493890
O        6.69561750       9.72638895       7.73051812
O        5.67846611       6.36928140       4.48415344
O        3.78959094       9.27439848       5.69452025
O        8.38898677      10.18859563       9.51387845
124
Lattice="9.63908 0.0 0.0 0.0 10.3723 0.0 0.0 0.0 12.0957" Properties=species:S:1:pos:R:3 material=LiPON model=NEP89 temperature_K=600 phase="NVT production" display_name="LiPON｜NEP89｜600 K｜NVT production計算" report_figures="23_LiPON_lithium_MSD; 24_LiPON_transport_comparison; 25_LiPON_temperature_RDF" source_frame_index=30 relative_time_ps=3.0 pbc="T T T"
Li       3.18423011       1.23341899       2.60248686
Li       5.51540410       1.23421121       3.20997831
Li       7.77018073       2.72042423      11.78564301
Li       9.51631733       7.09067401       4.71601787
Li       0.34397862       8.75017766       1.74821495
Li       6.59543252       0.32213360       9.98050080
P        3.06087979       4.01466344       1.06182321
P        0.65659831       0.89795156       0.33351658
N        1.19682814       4.71755970       4.70276921
O        1.79500834       6.98602456       3.58426064
O        1.59472217       4.29914475       1.32636015
O        4.81161893       0.59781064      10.95614653
O        3.56511329       3.49325899      11.79287362
O        9.18581254      10.14915885       0.62662038
O        8.71667800       7.54219843      11.48777091
O        3.62280359       2.87122109       1.95943205
Li       5.15836508       2.85894347       0.32414159
Li       0.45785614       0.66810279       3.49590385
Li       3.04159957       1.86688549      11.05700547
Li       0.86715659       5.43779991       3.00047879
Li       4.43083998       4.64896024      10.40329502
Li       0.26005623       2.99842506       1.81965957
P        1.77475748       2.94300708       8.74078929
P        9.27063475       4.39287295       4.95584741
O        1.20198790       1.33633973       1.74253187
O        3.54987152       6.10868825       9.42089022
O        2.46601501       1.62293040       9.07225001
O        3.90406665       0.88480074       4.16323013
O        0.20777693       2.64788784       8.53559147
O        9.18055505       2.99484879       5.51221673
O        0.67324539       6.04558394       8.13186248
O        2.50572851       3.54252234       7.45071105
Li       9.06864901       2.10193922       6.95412841
Li       6.05167384       2.54439200       5.82806674
Li       9.37684567       4.52449807       8.94563192
Li       2.65957617       7.50615539       5.19700376
Li       7.42600703       7.23250135       5.81232846
Li       4.74613908       8.17604605       0.87355290
P        2.40592064       8.23536496       2.80472997
P        9.44976651       6.25237116      11.93882586
O        0.92682178       7.80628699       6.24003231
O        4.06663166       5.37862147       1.29675658
O        2.16083702       8.30786023       1.28788459
O        6.09447018       4.51740573      11.98952602
O        1.77733442       9.53614675       3.51080382
O        8.70750701       4.99091555      11.40947373
O        1.66576214       0.15986845      11.50335226
O        3.94718862       8.00345239       3.17674364
Li       0.66807862       3.81915292      11.61708724
Li       0.97121249       9.41014964       5.36043439
Li       3.28879162       7.98039022       7.23728663
Li       1.65703632       2.89797444       5.82784312
Li       8.10443312       1.30763600       4.87985316
Li       1.04131961       9.30616719      10.41481514
P        4.38902133       7.47734006       9.81497646
P        0.48745357       7.54005615       7.72404601
O        1.26561058       6.25961929      11.36890358
O        1.85440481       4.07299986       9.81379870
O        5.88163441       7.09462341       9.73717139
O        3.84563295       6.45360666       6.21720140
O        4.07925961       8.55092036       8.74623713
O        1.44907072       8.36782063       8.66589488
O        2.39848917       4.32366388       4.67671995
O        4.01673458       7.86140035      11.22566903
Li       4.15616472       0.06401721       9.03838760
Li       6.05214831      10.30949884       6.37466401
Li       2.97318717       9.66189147       0.25773108
Li       7.20239533       4.40035218       6.59451322
Li       2.96658142       5.55713447       7.62387512
Li       5.07101939       8.07264169       4.77571044
P        7.48390860       3.47586394       2.95918552
P        5.44507514       0.29320512       0.16985535
O        4.66710166       1.21816903       6.55257506
O        8.78449045      10.05443505       4.39685542
O        0.02229727       2.10827280      11.76645982
N        8.68390133       4.48541389       3.43122338
O        6.40187890       1.45187832       0.44249118
O        6.26329664       4.49574276       2.49796757
O        8.15414118       2.73572013       1.83656720
Li       1.71988770       5.79772861       9.75641720
Li       7.76369465       0.58795252       1.47615313
Li       2.78427798       6.77201365       0.29615856
Li       9.07929767       1.78744257       9.90482559
Li       1.51877228       0.34733101       7.83340257
Li       4.82518364       9.52372367       2.90212971
P        6.65463099       3.27045071       8.83379406
P        3.66153204       0.37489016       5.59355713
O        6.41249001       9.42898408       0.05751379
O        8.89221270       0.12429539       7.25544183
O        5.17514728       3.67819597       8.92673350
O        8.57518887       5.55980494       5.74473283
N        7.40710844       4.60873252       8.67414015
O        2.20038732       0.74215024       6.00235386
O        6.28483298       6.36724695       6.85607120
O        6.87661408       2.50204428       7.51317378
Li       5.55388389       5.56552177       8.55340515
Li       7.64077080       6.07279916       3.60940170
Li       7.80976654       7.52991421       1.71276209
Li       4.76959181       3.39078284       3.77910889
Li       4.16539061       2.41425409       7.88215247
Li       3.70551487       6.20012589       3.27265096
P        7.54006035       9.26409803       4.05301080
P        5.71954182       5.32574808       1.19523770
O        5.51020057       4.20633997       5.85784695
O        6.86638031       2.39719801       3.99326667
O        6.74431811      10.11414670       2.98496895
O        9.27282635       6.26954862       1.34359585
N        8.06150842       7.88776691       3.51331869
O        6.12055851       6.76961664       1.41141394
O        4.35872261       0.15857939       1.32864321
O        6.57403124       8.99241931       5.29629443
Li       6.58545723       7.50528252      11.55579690
Li       8.20855301       9.36770725      11.34269850
Li       7.18691036       5.27029040      10.55937909
Li       5.72885091       8.34662872       7.05947295
Li       8.15260248       6.40865865       8.60522906
P        8.18243392       9.57900850       8.22428600
P        5.20903818       5.81515322       5.83893597
O        7.06592348       2.39692277       9.97288862
N        8.57139482       8.04705625       7.84206379
O        6.58329219       9.85201498       8.21873513
O        5.74420763       6.27798644       4.48591417
O        3.83672020       9.21210194       5.80905824
O        8.56239030       9.99237120       9.75193225
124
Lattice="9.63908 0.0 0.0 0.0 10.3723 0.0 0.0 0.0 12.0957" Properties=species:S:1:pos:R:3 material=LiPON model=NEP89 temperature_K=600 phase="NVT production" display_name="LiPON｜NEP89｜600 K｜NVT production計算" report_figures="23_LiPON_lithium_MSD; 24_LiPON_transport_comparison; 25_LiPON_temperature_RDF" source_frame_index=60 relative_time_ps=6.0 pbc="T T T"
Li       2.99918006      10.14739942       2.05175042
Li       5.41528539       1.67947912       2.87059288
Li       8.18889182       2.91509028       0.44926265
Li       0.72020466       7.79057824       5.23485497
Li       0.31712600       8.67643647       1.98036495
Li       6.50416427       0.82630773       9.64558449
P        3.46154110       3.61649304       1.19016719
P        0.88003764       0.70552481       0.30496131
N        1.09595031       3.81767270       3.97329534
O        2.35868023       6.32196638       2.98565063
O        1.93532260       3.97192796       1.20271238
O        5.03576160       0.56942806      10.81029066
O        3.86780492       2.96585558      12.00066752
O        9.48524128      10.00270198       0.73247782
O        8.05870992       7.01139592      11.55670586
O        4.00615027       2.88511317       2.37968811
Li       5.62833700       2.80244215      11.30433595
Li       1.07972101      10.22780325       4.18497672
Li       3.08752744       1.49549986      10.79058845
Li       0.71903515       5.29388233       2.49669180
Li       3.92666418       4.53325886      10.54877923
Li       0.57662626       2.60765293       2.31182855
P        1.81323193       3.05043265       8.76036781
P        9.32807785       4.44354653       4.79115427
O        1.73459498       1.16918679       1.50272606
O        3.42017700       6.14034890       9.25096509
O        2.46542435       1.61507235       8.87150485
O        3.97391805       0.47878689       3.80130317
O        0.28587983       2.74736510       8.65100828
O        8.94913509       3.45619581       5.86886518
O        0.41486144       6.24037955       8.37441005
O        2.34235347       3.73880435       7.46587369
Li       8.77664930       2.25556424       7.34322265
Li       4.49047674       3.00724423       4.60649952
Li       9.33383477       4.55687549       8.09409553
Li       2.20400562       5.33225342       5.28912262
Li       8.00677058       7.38919282       6.41106641
Li       4.23220215       7.94724029       1.08681707
P        2.62707918       7.84463981       2.93741136
P        9.23439152       6.28402195       0.23522922
O        1.28227275       8.23780479       7.02046715
O        4.18310560       5.11172185       1.35628342
O        2.37580018       8.21390579       1.48107301
O        5.80109711       4.87441857      11.53679745
O        1.49483299       8.47101516       3.81865695
O        8.87606759       4.70152038       0.04446282
O        1.77139050      10.35332722      11.32121755
O        4.09829056       8.17675756       3.22196441
Li       0.79577901       3.66481452      11.72878744
Li       0.98937497      10.24467675       6.68358970
Li       3.05614062       8.40638102       6.60858472
Li       1.30168456       2.38794594       6.45244806
Li       8.74781370       1.85821960       4.85494395
Li       1.83309902       8.01576990      11.14597329
P        4.21551724       7.34863770       9.71715719
P        0.35095464       7.81261156       8.16138317
O        0.94433579       6.59144174      11.77979862
O        1.99568885       3.95090708      10.05643275
O        5.73771611       6.96120264       9.84305015
O        3.54258303       6.59575565       5.96616846
O        3.96289524       8.59055054       8.77441659
O        0.90931749       8.48687115       9.49739293
O        1.81052164       2.88737330       4.32561733
O        3.66910516       7.85388637      11.08445423
Li       3.74596561       0.30295628       8.74024742
Li       5.94456302       0.69864215       6.58828024
Li       3.35106149       9.45535528      11.61619903
Li       6.79815476       3.55804484       5.80004784
Li       2.53907569       5.74508041       7.64153438
Li       5.30253685       8.50101188       4.89083745
P        7.44258016       3.68501746       2.92332037
P        5.75550727       0.15118859       0.04166131
O        4.18846266       1.75814721       5.92684273
O        8.89064381       0.12187726       3.99110850
O        0.08918038       1.83482775      11.67986329
N        8.28415379       4.92024456       3.67268311
O        6.38938002       1.39771487       0.78413728
O        6.64998753       4.52481007       1.77291896
O        8.42337043       2.55350885       2.33994243
Li       1.47849889       5.74193388      10.07789878
Li       7.95703931       0.40000643       1.75488193
Li       2.33550663       6.14222626       0.66286842
Li       8.91882266       1.97275085       9.92350046
Li       0.82594676      10.31702799       9.66361226
Li       5.31925694       9.50567873       2.63835656
P        6.54070977       3.39855079       8.82528222
P        3.52874881       0.52583342       5.36174557
O        6.81614370       9.48236120      11.79606155
O        8.98555052       0.33213293       7.04564064
O        5.06153510       3.62427077       9.18704289
O        0.30740514       5.65710034       5.47677025
N        7.38953942       4.70936059       8.70614285
O        2.01185256       0.63035297       5.25051656
O        5.94587778       6.77296709       7.04056163
O        6.84461726       2.68012762       7.40707192
Li       5.25351203       5.46597949       8.57627068
Li       7.90604956       6.69156234       3.11568803
Li       7.27622371       8.13779686       1.06765765
Li       2.85705093       1.62169829       3.09464057
Li       4.24342521       3.15952603       7.27705021
Li       4.33758509       6.02918279       3.52682370
P        7.72542423       9.47766365       4.14805290
P        5.63592544       5.45703034       0.80234593
O        4.88607827       4.62762919       6.21181383
O        6.53778128       2.99396739       4.00476027
O        7.16332255       9.31945789       2.65108499
O        9.18674114       6.85181166       1.66211500
N        8.22648652       8.07177354       4.61839640
O        5.95700779       6.94562612       0.99672711
O        4.61865720       9.83952725       0.84375009
O        6.62340502       9.96904730       5.05494907
Li       6.36537634       7.60051641      11.40465990
Li       8.69190212       9.00294635      11.36633969
Li       7.39369807       5.30941826      10.55317892
Li       5.60655665       8.55625204       7.56883673
Li       7.32531687       6.86414320       8.55013967
P        8.15773970       9.84682443       8.08226230
P        5.04731895       6.17119800       5.93257829
O        7.13441397       2.52812759      10.06000166
N        8.49826364       8.25198229       7.94969943
O        6.62269910      10.06650533       7.93804523
O        5.78238727       6.52324167       4.65641326
O        4.09086793       9.68647764       6.13095444
O        8.62882507       0.02181670       9.50728777
124
Lattice="9.63908 0.0 0.0 0.0 10.3723 0.0 0.0 0.0 12.0957" Properties=species:S:1:pos:R:3 material=LiPON model=NEP89 temperature_K=600 phase="NVT production" display_name="LiPON｜NEP89｜600 K｜NVT production計算" report_figures="23_LiPON_lithium_MSD; 24_LiPON_transport_comparison; 25_LiPON_temperature_RDF" source_frame_index=90 relative_time_ps=9.0 pbc="T T T"
Li       2.67249432       9.56735647       0.77121275
Li       5.43866094       2.05638045       2.38927248
Li       8.04813602       3.46136062       0.59482839
Li       0.40273077       7.44454127       5.03084495
Li       0.34203887       8.01463365       2.03646226
Li       6.10498626       9.81465776       9.80515513
P        3.37957382       3.75152186       1.19768163
P        0.65112756       0.59041622       0.44826552
N        0.98742775       3.80518663       3.96763937
O        2.63859971       6.27452175       3.32217951
O        1.89720955       4.05416379       1.27841094
O        4.96167124       0.63079045      10.85290989
O        3.59907586       3.01729169      11.96551650
O        9.23280435       9.83657389       0.63888502
O        8.37280311       7.43946700      11.41752959
O        3.83414201       2.98866553       2.49715847
Li       5.74780740       2.60996632      11.55433455
Li       1.33313382      10.07860362       3.53193826
Li       3.19038296       1.11397763      11.19925378
Li       1.19756508       5.37170566       2.45598145
Li       3.84689832       4.60131551      10.30484080
Li       0.63582166       2.79446964       2.26886935
P        1.80578786       3.02273568       8.78169777
P        9.29997792       4.24988116       4.95651371
O        1.52601143       0.86279510       1.73193761
O        3.69088930       6.38804064       9.30528121
O        2.55526027       1.71449587       9.25636152
O        4.33094954       0.59583344       3.75599309
O        0.29136764       2.89017563       8.91217393
O        8.84136977       2.99494240       5.78764700
O        0.72297668       6.50344814       8.23678476
O        2.35770085       3.51951994       7.38798917
Li       8.41487462       2.47560371       7.62833559
Li       4.41569156       3.12898527       4.48376377
Li       9.37075779       4.86419764       8.81783019
Li       2.39692935       5.08916210       4.78377572
Li       7.29442901       6.75584478       5.56766858
Li       4.71769808       8.05077569       1.01997644
P        2.75791954       7.73008021       3.00813783
P        9.31810272       6.32433728      11.86495470
O        1.23210281       8.47544274       6.62931370
O        4.14839836       5.21142062       1.04685932
O        2.25315770       8.08839761       1.53035518
O        6.27748691       4.43911023      12.04064823
O        1.75833873       8.48212032       3.95879215
O        8.98419219       4.96152582      11.29791432
O        1.65822180       0.10800992      11.47034827
O        4.23974450       8.29715185       3.12599655
Li       0.94577093       3.67320838      11.75727509
Li       0.26858004       9.97706117       5.84980978
Li       2.68750923       8.32094481       5.52348341
Li       1.11173033       2.06860066       6.09404944
Li       7.98116899       1.58490729       4.73640607
Li       1.61919495       8.44890652      10.83927662
P        4.45683178       7.58933705      10.01445897
P        0.58969178       8.05171599       7.98994578
O        1.19337182       6.53956540      11.43547302
O        2.13921761       4.14594667       9.80124708
O        5.88538503       6.95363326      10.08915376
O        3.57026463       6.78552920       6.27536734
O        4.59140266       8.80580106       9.04028744
O        1.35381476       8.83214566       9.03940390
O        2.06715377       3.27738265       4.47547767
O        3.62793235       7.94790696      11.23150283
Li       3.20562249       9.60927826       7.70621198
Li       5.88417199       0.61251708       6.32922127
Li       4.44248594       1.25744178       9.04814095
Li       6.40407753       3.80755926       6.09487929
Li       2.63543788       5.55825565       7.60204696
Li       5.01968358       8.42719904       4.92405253
P        7.14731931       3.74184651       3.35151274
P        5.48147127       0.21973416       0.16085919
O        4.24659485       1.54515704       6.10928701
O        8.92319946       0.02046235       4.32413229
O        9.52922593       2.01397788       0.23888023
N        8.03084708       4.84807863       4.11232610
O        6.30875437       1.42800788       0.77615672
O        6.02575947       4.67607342       2.63171771
O        8.02544456       2.92234978       2.35160349
Li       1.79627611       6.20313658       9.67895683
Li       8.03300444       0.86096946       1.44327861
Li       2.79362621       6.66293803       0.41887627
Li       9.08288947       1.82755939      10.40458305
Li       1.21567967       0.22661834       9.62784836
Li       5.18929269       9.62937907       2.74477498
P        6.32833115       3.14472476       8.73937773
P        3.62235689       0.49952356       5.12166969
O        6.28477063       9.33578166      11.95793172
O        8.88392502       0.56458413       7.20762805
O        4.82736562       3.54449109       8.95023800
O        0.07619019       5.49623109       5.70284382
N        7.29020318       4.32518841       8.32112646
O        2.07208662       0.52816705       5.15560518
O        5.85004676       6.47350133       7.04240854
O        6.43352083       2.23675225       7.53516980
Li       5.54061645       5.43656589       8.69195060
Li       8.07009605       6.43145839       2.87016883
Li       7.47900863       8.85276859       1.16827089
Li       3.23457077       1.31449551       2.35099587
Li       4.20012032       3.04436622       7.16656718
Li       4.83663920       6.29961643       3.07110272
P        7.81334271       9.30623416       4.14516984
P        5.85698992       5.26644080       1.18473951
O        4.62300097       4.53020530       5.76651219
O        6.38725430       2.78584247       4.31057536
O        7.06177073       9.79126970       2.75421402
O        9.24572127       6.32632795       1.39717273
N        8.31751183       7.86213792       3.99402956
O        6.14699464       6.76425029       1.20121536
O        4.39932581      10.24482267       1.12479530
O        6.84295597       9.11762043       5.30305443
Li       6.61576010       7.58725738      11.67133289
Li       9.01138757       9.18612558      11.15601516
Li       7.24358694       4.74910261      10.54241686
Li       5.62767291       8.38972809       7.22318689
Li       7.69069421       7.70510210       9.57431415
P        8.27770232      10.05595653       8.23697036
P        4.90732761       6.10774423       5.92768809
O        7.02681648       2.70245479      10.08635674
N        8.68912756       8.52540946       8.03906514
O        6.77945355       9.92628109       7.97790528
O        5.64099968       6.60527647       4.64458142
O        4.03855595       9.53520911       6.01949229
O        8.68758872       0.15641543       9.65300600
124
Lattice="9.63908 0.0 0.0 0.0 10.3723 0.0 0.0 0.0 12.0957" Properties=species:S:1:pos:R:3 material=LiPON model=NEP89 temperature_K=600 phase="NVT production" display_name="LiPON｜NEP89｜600 K｜NVT production計算" report_figures="23_LiPON_lithium_MSD; 24_LiPON_transport_comparison; 25_LiPON_temperature_RDF" source_frame_index=120 relative_time_ps=12.0 pbc="T T T"
Li       2.90152963       9.52124373       0.39369856
Li       5.72738010       2.05243432       2.03352802
Li       8.32700566       3.38109130       0.60356912
Li       0.35260429       7.68778631       4.64221994
Li       0.18197720       8.21637106       1.91642370
Li       5.40774672       9.57548101       9.96296866
P        3.57612883       3.82231996       1.03748123
P        0.65665411       0.66997544       0.22496063
N        1.20183671       3.90252152       4.29709849
O        2.65870054       6.55524400       3.31256955
O        2.04744165       4.06957042       1.09752447
O        5.00163755       0.66116343      10.75461483
O        3.92546289       3.20372681      11.72709871
O        9.24719109       9.91649479       0.73436690
O        8.51674983       7.05077387      11.28297941
O        3.98527322       3.04077783       2.30437194
Li       5.74521928       3.01696810      11.27327137
Li       0.78933135       0.11125147       3.29670731
Li       2.67309057       1.65852763      11.20888627
Li       1.23148640       5.51122020       2.32576515
Li       3.61623839       4.46580917      10.26613545
Li       0.89633579       2.79409411       2.22957767
P        1.66596097       3.10866424       8.96101346
P        9.34359834       4.56162918       4.86156525
O        1.53013823       0.91748714       1.54299794
O        3.50623406       6.21220861       9.40207039
O        2.31636853       1.78970442       9.48290990
O        4.05862801       0.88992985       4.39848496
O        0.17586811       2.67540660       8.77097103
O        8.78286104       3.61754020       6.00890438
O        0.63927127       6.47992336       8.14392587
O        2.28128829       3.57747770       7.61992759
Li       8.78510715       2.16715231       7.16966141
Li       4.61259467       2.67971146       4.17436285
Li       8.95927074       4.65383145       7.87792783
Li       2.70815768       5.15403533       4.94308402
Li       7.52295535       7.73443841       6.42040748
Li       4.79320414       8.09372849       0.91532945
P        2.81130158       8.03495751       2.96403503
P        9.56445457       6.25307441      12.02336042
O        0.90934849       8.31614550       6.36567015
O        4.30491937       5.31397868       0.99661231
O        2.19298730       8.09050695       1.59716777
O        6.36091027       4.98626231      11.66752218
O        1.82805176       8.85299836       3.93060483
O        9.30740805       4.78691618      11.69613080
O        1.68501664       0.00934255      11.30304079
O        4.29510305       8.53886499       3.03427095
Li       1.18605013       3.72333221      11.83024756
Li       0.36639481      10.28053318       6.14141347
Li       2.70852636       8.16472206       5.81883738
Li       1.86375199       2.84336698       5.77823589
Li       8.28328415       1.84123566       4.89302401
Li       1.39259015       8.19434262      10.46070037
P        4.11207834       7.54056373       9.98071226
P        0.41613931       7.96173331       7.79754301
O        1.28805406       6.69579089      11.47154427
O        1.79809860       4.17346065      10.09592253
O        5.62226990       7.23640012       9.98909236
O        3.84307603       6.77353142       6.27149884
O        3.95972806       8.81115187       9.20075885
O        1.10573860       8.83125223       8.81177694
O        1.55412229       2.75218799       3.79344291
O        3.62677755       7.89246445      11.43931165
Li       2.55561111       9.87887294       9.37074250
Li       6.11051311       0.15678957       6.53763576
Li       4.35670714       1.45387635       9.14624199
Li       6.44561502       3.61343574       6.00166047
Li       2.68116160       5.60332808       7.49736962
Li       4.94241412       8.45451290       4.78989118
P        7.46807798       3.55156103       3.09666470
P        5.62803855       0.20561474       0.02980533
O        4.48724244       1.49757147       6.86921031
O        8.76205306      10.34775816       4.51206818
O        9.62937749       1.95903096      11.79910179
N        8.43380999       4.78851986       3.50245969
O        6.70329682       1.29272987       0.57847571
O        6.52538843       4.26161898       2.02999130
O        8.48531442       2.65853828       2.35438736
Li       1.15338297       5.81979342       9.74276347
Li       8.04297225       0.65022646       1.52865346
Li       2.85827671       6.48708425       0.14865412
Li       7.90292237       1.02775799      10.84826423
Li       0.37949771       0.65178447       9.16403224
Li       4.99627862      10.25478192       2.89557239
P        6.49478286       3.25808752       8.86658157
P        3.56120534       0.69276771       5.89102490
O        6.38002622       9.21210071      11.95002448
O        8.38540511       0.25771042       7.35531199
O        4.95314188       3.40874260       9.10404058
O        9.56581773       6.00516236       5.41358468
N        7.41303555       4.54712612       8.90428258
O        2.13891061       0.87852785       6.15166875
O        6.15263334       6.23347007       7.02427845
O        6.81654045       2.57910866       7.52459291
Li       5.39346471       5.48006825       8.68667916
Li       7.48439495       6.48931904       3.32982861
Li       7.04784705       8.48163919       1.66500814
Li       3.11535573       1.25874305       2.84900547
Li       4.11336910       3.53503699       7.35683143
Li       4.44809298       6.13900665       3.23774410
P        7.75743907       9.34696673       4.02418034
P        5.96582992       5.33644186       0.94369389
O        4.71971094       4.46836237       5.66116892
O        6.63437460       2.76534709       4.12576086
O        6.88224419       9.90190846       2.89688034
O        9.37357637       6.47568883       1.42114456
N        8.50740289       8.15087117       3.49408422
O        6.33511332       6.71069561       1.45617596
O        4.51054644      10.33732239       1.04391025
O        6.81304619       9.03711687       5.24979392
Li       6.72118019       7.46592917      11.59996090
Li       8.27456184       8.86131357      11.46809989
Li       9.09166866       3.51715044      10.29553855
Li       4.93596308       8.35085006       7.58844672
Li       7.62669777       6.43762960       9.54815324
P        7.84783974       9.58992994       8.33712893
P        5.12718825       5.99307850       5.88947764
O        7.09402192       2.45738828       9.97739716
N        8.45739828       8.00907953       7.84858937
O        6.37263267       9.36620856       8.09140008
O        5.73136081       6.54963190       4.57903273
O        4.11346480       9.48013381       6.13477376
O        8.33739405      10.12641210       9.75725893
124
Lattice="9.63908 0.0 0.0 0.0 10.3723 0.0 0.0 0.0 12.0957" Properties=species:S:1:pos:R:3 material=LiPON model=NEP89 temperature_K=600 phase="NVT production" display_name="LiPON｜NEP89｜600 K｜NVT production計算" report_figures="23_LiPON_lithium_MSD; 24_LiPON_transport_comparison; 25_LiPON_temperature_RDF" source_frame_index=150 relative_time_ps=15.0 pbc="T T T"
Li       2.68823946       8.99763690       0.13614662
Li       5.41348697       2.32338701       2.11683987
Li       8.55642011       3.38241437       0.37448805
Li       0.15587468       8.16821634       4.48161323
Li       0.25037518       8.85928221       1.88148960
Li       5.79104977       9.21032714       9.77631697
P        3.29394895       3.81391234       1.27753047
P        0.61395185       0.75635993       0.56342891
N        1.23362581       4.38051894       4.18164988
O        2.09040733       7.03320795       3.75434314
O        1.89281176       4.33388064       1.36810908
O        4.88090138       0.31475290      10.58857170
O        3.73884759       3.29413492      12.04464662
O        9.09543699      10.20679351       0.92857019
O        8.27762783       7.26493280      11.17442950
O        3.62319282       2.71165872       2.32563750
Li       5.64292660       2.82698485      11.50191908
Li       0.83820244       0.47890456       3.60967305
Li       3.19300152       1.34920441      10.89943271
Li       0.20868297       5.58782229       2.56131177
Li       4.19050383       4.36537626      10.38799015
Li       0.94290106       2.91086318       2.81529612
P        1.97617593       2.97647137       8.69811919
P        9.37295204       4.27791394       4.99553324
O        1.18116353       1.35350057       1.88630483
O        3.59044968       5.85264127       9.28927546
O        2.63036969       1.59073082       8.90130481
O        4.01039831       0.97931459       4.24951207
O        0.40764617       3.00485448       8.45313064
O        9.34903857       2.83133953       5.57043198
O        1.14257331       6.50088723       8.12331886
O        2.74310587       3.54232675       7.53271664
Li       8.71981362       2.00699509       7.16382114
Li       4.80022574       3.10329179       4.33743917
Li       9.36994893       4.69845090       8.85626488
Li       1.79026603       5.84262518       5.18024948
Li       7.83341285       6.95520515       6.61333114
Li       4.70699177       8.27797867       0.87466972
P        2.60182573       8.08557067       2.78887180
P        9.37060914       6.49322048      11.87067033
O        0.68024392       8.15279985       6.27144914
O        4.08479698       5.26929233       1.49498064
O        2.19608922       7.67783894       1.40675133
O        5.78818926       4.93959088      11.77205326
O        1.73744653       9.31345308       3.17190496
O        9.20106060       4.97820093      11.68803639
O        1.70145729      10.35608025      11.87494669
O        4.14090785       8.27394778       2.95345128
Li       1.08356705       3.73473520      11.50676772
Li       0.37749548      10.27325291       6.06706879
Li       2.60865570       7.91262241       5.40677927
Li       1.43093673       2.51726109       6.26906842
Li       7.93241549       1.51770581       4.80208772
Li       0.96946338       9.26553855      10.58602626
P        4.34397597       7.15698942       9.88074505
P        0.62288028       7.90733868       7.77957831
O        1.08144073       6.89479503      11.29001808
O        2.20437826       3.82809732       9.99683776
O        5.85584393       6.93081868       9.74349275
O        3.53539437       6.37968671       6.11261358
O        3.99277026       8.38140207       9.04697862
O        1.38347598       8.98552191       8.57028613
O        2.45439521       4.10525510       4.33704556
O        3.99219841       7.32535140      11.40554965
Li       2.64235374      10.16167255       8.04715298
Li       6.11562038       0.30161007       6.83465957
Li       4.53380511       1.48008276       8.53191581
Li       6.95546334       3.93332332       5.71101786
Li       2.72183823       5.71723630       7.60888381
Li       5.11029178       8.52483863       4.73271926
P        7.57152209       3.55123050       3.12651369
P        5.55038129       0.15872459      11.99590330
O        4.53600891       1.47665923       6.51268124
O        9.00490190      10.04373719       4.60998629
O        0.09369834       1.84668417      11.57042135
N        8.25142851       4.71215630       3.98388757
O        6.39693096       1.42143954       0.34175864
O        6.41973286       4.46419339       2.25753470
O        8.42975462       2.78508857       2.15043789
Li       1.74829303       5.80124911       9.78368153
Li       7.60572656       1.02198163       1.78897924
Li       2.63793998       6.16162154       0.45498984
Li       7.86437089       1.14008532      11.11134706
Li       9.43424780       1.39825099       9.36058200
Li       4.88133363       9.98785527       2.71752502
P        6.77908808       3.28227312       8.88058689
P        3.63649890       0.51473555       5.66787843
O        6.34611267       9.21248771      11.86580956
O        8.90246030       0.23557343       7.47051034
O        5.24046679       3.33866516       9.21624413
O        9.37282948       5.45028102       5.93977604
N        7.38826132       4.69263906       8.96886140
O        2.05926292       0.70048504       5.79267906
O        5.90900570       6.45492254       6.99041088
O        7.04739600       2.96518151       7.39797593
Li       5.18176323       5.25384656       8.54438540
Li       7.19653326       6.25017638       3.48550532
Li       7.56140247       8.07546876       1.60548361
Li       2.97204580       1.11840250       2.67528181
Li       4.42494096       3.45247556       7.41818236
Li       4.19090209       6.38151416       3.20772647
P        7.71083475       9.36880436       4.03910389
P        5.67895385       5.45907559       1.15563103
O        5.08831981       4.31639147       6.00871841
O        6.74375595       2.76047806       4.15825405
O        7.02604796      10.09545947       2.89863913
O        9.21085231       6.78365496       1.30333118
N        8.17903106       7.96777744       3.63791386
O        6.10150827       6.92140588       1.46991808
O        4.36926144      10.25610705       0.99413175
O        6.65547095       9.16783041       5.18369365
Li       6.45700014       7.25666583      11.55569306
Li       8.21242946       9.08411026      11.58465713
Li       7.45878264       4.99178778      10.82519280
Li       4.95695735       8.38169258       7.53315455
Li       7.72697823       6.65207637       9.23723905
P        8.21807979       9.57456393       8.40275732
P        5.03121702       5.85393347       5.92975533
O        7.25844253       2.44253094      10.06275116
N        8.75331934       8.04963778       8.18549922
O        6.68083457       9.44311742       8.15915726
O        5.50634265       6.18452091       4.46118010
O        4.02905191       9.44067419       6.07653638
O        8.37353367      10.01920345       9.94106792
124
Lattice="9.63908 0.0 0.0 0.0 10.3723 0.0 0.0 0.0 12.0957" Properties=species:S:1:pos:R:3 material=LiPON model=NEP89 temperature_K=600 phase="NVT production" display_name="LiPON｜NEP89｜600 K｜NVT production計算" report_figures="23_LiPON_lithium_MSD; 24_LiPON_transport_comparison; 25_LiPON_temperature_RDF" source_frame_index=180 relative_time_ps=18.0 pbc="T T T"
Li       3.14427562       9.70809655       0.37444091
Li       5.70177566       1.91645286       2.22752552
Li       8.51758134       2.55427797       0.69590090
Li       0.31202347       7.41053993       5.29570008
Li       0.39539830       8.34125344       2.21225943
Li       5.90784451       9.52872427      10.08819642
P        3.32036400       3.65153813       1.01265562
P        0.75057665       0.44761321       0.21705864
N        1.39784908       4.11719239       4.37067746
O        2.74713000       6.26198236       2.86984761
O        1.85668050       3.83965078       1.23218820
O        5.12203099       0.83427297      11.00785371
O        3.61510683       3.33502454      11.65685478
O        9.43283554       9.58375944       0.23035627
O        8.53597384       7.12539218      11.58638081
O        4.00176377       2.60510394       1.95897368
Li       5.61773900       3.24525089      11.58125036
Li       1.23083069      10.18953888       3.62725415
Li       3.11377525       1.75146542      10.95993234
Li       1.20788687       4.96862653       2.39643741
Li       3.81723801       4.61587493       9.98471172
Li       1.20904696       2.44889107       2.43930237
P        1.71189705       3.22796816       8.55941057
P        9.42439710       4.48633190       4.88839727
O        1.21351775       0.68368577       1.66321035
O        3.40561859       6.35900787       9.41991139
O        2.35367592       1.82297998       8.88716825
O        3.16406321       0.36530447       4.10084637
O        0.14035592       3.01637772       8.43127397
O        9.04148360       3.26129374       5.68364265
O        0.57135110       6.35927866       8.46743383
O        2.42373776       3.89110243       7.37513359
Li       8.75112301       2.08001605       7.16871969
Li       4.15476697       3.71390558       4.00256502
Li       8.76474996       4.77504993       7.79804289
Li       2.20594649       5.84234792       4.97638801
Li       7.82852538       7.59835390       6.55758822
Li       4.91726823       8.38513631       1.22664901
P        2.86034636       7.77557354       2.92365437
P        9.45648653       6.17984616       0.23753842
O        1.17198497       8.31329155       6.86985742
O        4.23723772       4.94963817       1.21036744
O        2.29872285       8.24169620       1.61878878
O        5.84680234       5.21736785      11.45784702
O        2.01902110       8.35516482       4.14281965
O        9.06774263       4.75789144      12.00233081
O        1.94693273       0.35852207      11.43520559
O        4.37068438       8.18430968       3.07879806
Li       0.97708614       3.49725372      11.69081896
Li       0.64744333      10.13506728       6.35395940
Li       2.92851585       8.36250423       5.74162359
Li       1.55112217       2.67048496       5.91164244
Li       8.44372173       2.02165913       4.62298096
Li       1.41048384       8.18908224      11.15733600
P        3.98857600       7.73025401       9.91800505
P        0.43989252       7.89459761       8.22150564
O        1.24792033       6.37562849      11.70446141
O        1.82024828       4.17148882       9.78722049
O        5.54911956       7.46247473       9.79587455
O        3.64469959       6.70883787       6.00342150
O        3.68778793       8.88560345       9.01415204
O        0.83748922       8.66328463       9.43330678
O        2.45437735       3.33821712       4.33016470
O        3.57769352       8.06433379      11.42962120
Li       1.96688521      10.20586389       8.88536109
Li       5.92344213       0.63759527       6.13489483
Li       4.30983483       0.83216095       9.06373649
Li       6.47173239       3.46928160       5.88467656
Li       2.86571310       5.86458470       7.41057293
Li       5.33111795       8.54368082       4.84244102
P        7.56723401       3.56473212       2.94368405
P        5.69758368       0.19035403       0.22344314
O        4.53434658       1.76230243       5.79522197
O        9.11848285       0.05590388       4.49323921
O        9.43912591       1.62883788      11.72626166
N        8.42273525       4.83774978       3.64648711
O        6.75928774       1.15079454       0.82754244
O        6.73254022       4.16404508       1.62724105
O        8.54086342       2.46082090       2.48556692
Li       1.53862604       5.95697088      10.02750687
Li       8.46480657       0.46378093       1.92302455
Li       2.95683585       6.59204443       0.52283985
Li       7.77769737       1.10865751      11.19252658
Li       9.43453023       1.85187633       9.79715216
Li       4.80643068      10.01222951       3.22539324
P        6.52236139       3.22102825       8.68674158
P        3.59905066       0.56521130       5.56077247
O        6.24428977       9.15207878      12.05750530
O        8.88809779       0.24478795       7.65492567
O        4.97416193       3.43130574       8.86991308
O        9.43499520       5.70059793       5.84507059
N        7.08419794       4.85767921       8.58038454
O        2.33811955       0.74208029       6.38142423
O        5.74442625       6.53025336       7.26673592
O        6.75754906       2.51743113       7.35434521
Li       5.30834092       5.56473394       8.81002827
Li       7.24658821       6.60233226       3.52729883
Li       7.70841105       8.44864677       0.97038815
Li       3.00318933       0.95752994       2.20347670
Li       4.24108703       3.26922345       7.22867976
Li       4.79013101       6.27634785       3.11974626
P        7.93016915       9.44220070       4.12320717
P        5.82578003       5.26035266       0.89025128
O        4.90540970       4.52568837       5.72819911
O        6.54001726       3.01340366       3.92251223
O        8.08399673       9.04543451       2.67460303
O        9.54414839       6.44404670       1.75268858
N        7.92769590       8.00834323       4.81453793
O        6.06151112       6.70963087       1.32851261
O        4.46789681       0.07706484       1.28667290
O        6.49428182      10.02862788       4.29944002
Li       6.46792460       7.34065449      11.28094163
Li       8.73059474       8.69816580      10.60782679
Li       7.71640779       4.88971255      10.72465138
Li       5.09449203       8.33235129       7.64736108
Li       7.28968109       6.84247024       8.81563420
P        7.87731617       9.70481358       8.37135601
P        5.03880272       6.08023919       5.98699926
O        7.18460557       2.66301680       9.92806993
N        8.48153975       8.19501882       8.10941351
O        6.41443824       9.76716419       7.72927678
O        5.91847490       6.64468322       4.84831472
O        4.22073045       9.60094282       6.05842254
O        7.72470976      10.03451286       9.86503327
124
Lattice="9.63908 0.0 0.0 0.0 10.3723 0.0 0.0 0.0 12.0957" Properties=species:S:1:pos:R:3 material=LiPON model=NEP89 temperature_K=600 phase="NVT production" display_name="LiPON｜NEP89｜600 K｜NVT production計算" report_figures="23_LiPON_lithium_MSD; 24_LiPON_transport_comparison; 25_LiPON_temperature_RDF" source_frame_index=210 relative_time_ps=21.0 pbc="T T T"
Li       2.92673834       9.20309411       0.29411892
Li       5.42434735       2.10499419       2.24741382
Li       8.23726100       3.04295285       0.43316095
Li       0.47421904       7.18531728       4.66949283
Li       0.23217405       8.55104243       2.01984156
Li       6.12649056      10.02420282       9.79146390
P        3.33823164       3.82707565       1.27258104
P        0.50235827       0.54237682       0.57308400
N        1.14781642       4.07082017       4.23055534
O        2.26781947       6.49219202       3.50835720
O        1.79309704       3.97469686       1.33509597
O        4.80871727       0.57736409      10.92437056
O        3.71773366       3.07026301      12.00877365
O        9.10193615       9.79738276       0.87776395
O        8.71922053       7.37435657      11.29855733
O        3.80474227       2.90110137       2.39773880
Li       5.47959706       2.78171244      11.49072234
Li       1.21484735       0.22246142       3.66116111
Li       3.02060395       1.26203138      11.47905759
Li       1.02163736       5.59295833       2.61486631
Li       3.69273614       4.38866635      10.33355857
Li       0.89189925       2.66956025       2.44768072
P        1.64723107       3.12121094       8.94854625
P        9.26409906       4.42692873       4.72695864
O        1.26011159       0.79200380       1.83890022
O        3.70706164       6.22092020       9.62523971
O        2.31068744       1.81237152       9.54743215
O        4.21239856       0.54189202       4.25817406
O        0.14794809       2.83267762       8.59900209
O        8.67082430       3.14243716       5.51470627
O        0.28809767       6.29575332       8.19795444
O        2.21750000       3.61289048       7.57427330
Li       8.80169219       2.29290196       7.10913859
Li       4.18985298       3.32640184       4.09703352
Li       8.51353708       5.15997814       7.27070969
Li       2.13323058       5.68407381       5.23635143
Li       7.83396930       7.76707756       6.41318541
Li       5.00379425       8.13510913       1.26062679
P        2.50772709       7.86968747       2.90887542
P        9.46204357       6.30527974       0.03997553
O        1.03491057       8.05758104       6.47542222
O        4.16338016       5.25296395       1.27102376
O        2.14458491       8.09500995       1.46946713
O        5.74333900       5.04131246      11.36897409
O        1.72030811       8.81542870       3.82558086
O        8.83317006       4.85716248      11.96360261
O        1.51540224      10.17020497      11.70469512
O        4.12646563       8.11003770       3.10630086
Li       0.95167535       3.85621844      11.73647468
Li       0.64181211       9.81799663       6.00594320
Li       2.81200564       8.18733003       5.28049698
Li       1.53793357       2.31748152       6.37901464
Li       7.80365629       1.61606298       4.65510230
Li       1.21724366       8.06358317      10.98555722
P        4.39422094       7.52428001      10.02218207
P        0.53859064       7.72927251       7.90371902
O        1.24923288       6.25609800      11.57719580
O        1.68691120       4.24933184       9.97766781
O        5.87778624       7.26189781       9.88490852
O        3.63583951       6.56826842       6.35720124
O        4.06072641       8.69325745       9.11956389
O        1.51493389       8.47340737       8.96022714
O        2.24368059       3.45197793       4.67336945
O        3.90413740       7.87480350      11.40762190
Li       3.26147460       8.04591063       7.40356633
Li       6.17232347       1.17325186       6.77194339
Li       4.19587257       1.65748975       9.50176657
Li       6.64128707       3.63625289       5.81536208
Li       3.09074369       5.24499512       7.69656264
Li       5.22423820       8.27969313       4.61256826
P        7.49934668       3.62381134       2.79233502
P        5.52184593       0.08360187       0.08030774
O        4.16562839       1.50735374       6.50445726
O        8.92893476       0.15347907       4.12124930
O        9.52022143       1.76490451      11.97361456
N        8.32084157       4.82049309       3.48231601
O        6.25502227       1.30950448       0.79671286
O        6.60364684       4.18021376       1.61280338
O        8.54266832       2.58132064       2.33295861
Li       1.56581640       6.22931553       9.63630631
Li       7.91269091       0.68129787       1.74939892
Li       3.02762477       6.79132301       0.38031952
Li       8.71842008       1.69752702       9.72656677
Li       1.23280113       0.09316572       9.70262480
Li       4.86577791       9.75928649       2.94518582
P        6.50555574       3.38241786       8.87541154
P        3.60327174       0.43420808       5.69901055
O        6.63255888       9.31318926      11.82066034
O        9.03758149       0.38868432       7.10198993
O        4.92024720       3.71699521       9.07025705
O        9.29501616       5.55247993       5.69660230
N        7.32539848       4.74204300       8.69474382
O        2.03536881       0.51416097       5.47906270
O        6.04128906       6.84444854       7.11570244
O        6.69206902       2.53602894       7.62035150
Li       5.58268756       5.48602531       9.04665190
Li       7.74353917       6.60236199       2.67386711
Li       7.43894133       8.63011387       1.32557466
Li       3.21320668       0.97637600       2.04537000
Li       4.16291300       3.26642917       7.05219000
Li       4.97237486       6.38996821       2.94243614
P        7.70805182       9.61610489       4.00174652
P        5.82398487       5.28978993       0.72101507
O        5.10849723       4.55778794       6.41560290
O        6.49402197       2.99582540       3.74530992
O        7.06766254       9.65154785       2.63228454
O        9.28497543       6.75235049       1.58957134
N        8.29109568       8.13038326       4.19586813
O        6.25100243       6.68876838       1.20266779
O        4.40018878       9.94340864       1.05947630
O        6.75539038       9.77583847       5.17577764
Li       6.86262769       7.12399789      11.47021947
Li       8.29028146       9.19521766      11.11374787
Li       8.94402956       4.30643348       9.55900347
Li       5.41669772       9.03691285       7.66259391
Li       7.62706519       7.02435463       8.88229002
P        8.30537019       9.88055677       8.21382077
P        5.11648058       6.07551823       6.16170938
O        7.22316708       2.82717077      10.20080611
N        8.69456014       8.34675457       7.94086840
O        6.80200230      10.02920484       7.86394926
O        5.68961997       6.43988346       4.82151141
O        4.01480981       9.34847164       6.20703167
O        8.70262665      10.27266317       9.70023866
124
Lattice="9.63908 0.0 0.0 0.0 10.3723 0.0 0.0 0.0 12.0957" Properties=species:S:1:pos:R:3 material=LiPON model=NEP89 temperature_K=600 phase="NVT production" display_name="LiPON｜NEP89｜600 K｜NVT production計算" report_figures="23_LiPON_lithium_MSD; 24_LiPON_transport_comparison; 25_LiPON_temperature_RDF" source_frame_index=240 relative_time_ps=24.0 pbc="T T T"
Li       3.37537372       9.40574932       0.24258256
Li       5.58632529       1.97922854       1.98734948
Li       8.36045569       3.23646927       0.25213056
Li       0.19560869       7.74263097       4.79912515
Li       0.30919176       8.57906647       1.82561781
Li       5.88229808       9.44775501       9.96607604
P        3.37897363       3.67866478       1.04776093
P        0.71939496       0.58494566       0.45079387
N        1.04475583       4.18664996       4.14328589
O        2.76275857       6.46876783       3.18819966
O        1.90283351       4.06817434       1.16009020
O        5.01429516       0.68549996      10.85961380
O        3.85932956       3.10816263      11.82401222
O        9.22790654       9.87119354       0.58979503
O        8.22050902       7.10232462      11.25390446
O        3.91486158       2.75893616       2.17287805
Li       5.78257913       3.06734445      11.43075690
Li       0.96104201      10.32504104       3.42976699
Li       3.36073452       1.45167642      10.97014580
Li       0.60269782       5.61037559       2.50516981
Li       3.98803077       4.24881847      10.28424041
Li       0.59959809       3.06615505       2.26907351
P        1.76860280       3.02554355       8.70865748
P        9.25132822       4.39411392       4.98980819
O        1.27047351       1.06680556       1.79492566
O        3.62400933       6.14818356       9.48997105
O        2.28999953       1.60940251       9.13805928
O        3.72644623       0.73808826       4.26223710
O        0.18913781       3.11453162       8.75086553
O        9.29146424       3.03392243       5.68206368
O        0.57660964       6.32661158       8.26526916
O        2.36812771       3.64225731       7.43119163
Li       8.81185904       2.29104490       7.49938941
Li       4.15184289       2.82925687       4.28182142
Li       9.10972321       4.75272608       7.62935765
Li       2.35292607       5.48526356       5.01899089
Li       7.55233546       7.23724788       6.64581955
Li       5.03603639       8.54107666       0.95538276
P        2.68944480       8.05854222       2.95062306
P        9.42217431       6.46028778      11.94846506
O        0.76300184       8.07393140       6.43746574
O        4.16026162       5.18801191       1.14263409
O        2.17681942       8.33516020       1.47996456
O        6.21148680       5.02918924      11.74275867
O        1.71443109       8.66975525       3.92355302
O        9.34407373       4.90499506      11.81484195
O        1.83144796       0.13002616      11.59251195
O        4.21109848       8.39678987       3.07095290
Li       0.94792496       3.47321753      11.38396996
Li       0.62704475      10.08398592       6.16949706
Li       2.43537487       8.13863396       5.81405229
Li       1.68502083       2.40459903       5.55035673
Li       8.44784864       1.47334864       5.28451921
Li       1.76931647       8.36853272      10.56854285
P        4.31097640       7.60911389       9.92257344
P        0.37287577       7.78771714       7.88171272
O        0.97760788       6.93845888      11.22487438
O        2.12047027       3.99298795       9.91106303
O        5.87649294       7.40221262       9.90672374
O        3.56576438       6.63590742       6.15153844
O        3.79011888       8.67662377       8.98123604
O        1.18641644       8.61535062       8.88537787
O        2.13565977       3.57157574       4.04918041
O        3.74282328       7.77103770      11.30560955
Li       2.64194382      10.34065505       8.25296760
Li       6.39257769       0.48037854       6.51588661
Li       5.01575076       1.23458055       9.09737780
Li       6.03289359       2.93913132       6.02860883
Li       2.38662650       5.76469335       7.77908370
Li       5.05061978       8.64507606       4.66864915
P        7.45186362       3.38005084       3.17139615
P        5.86930862       0.30178839       0.08319833
O        4.73364892       1.46957416       6.40123093
O        8.90988125      10.22077540       4.53358475
O        9.59335452       1.74322794      11.76956013
N        8.15265428       4.59483299       3.83262331
O        6.79281026       1.48510173       0.56164373
O        6.26235607       4.13324613       2.26575841
O        8.41200039       2.57963530       2.19496074
Li       1.73382886       5.90945956       9.89313242
Li       8.06263566       0.59397290       1.75269181
Li       2.46786581       6.74235432       0.29801049
Li       7.86759033       1.10488413      10.88527886
Li       0.48590488       0.92836361       9.49503628
Li       5.10551003      10.10447589       3.06403837
P        6.61557422       3.32364182       8.94561638
P        3.66988472       0.44803878       5.75823701
O        6.49231646       9.21480230      11.97572201
O        8.85402667       0.27549475       7.35143543
O        5.03838835       3.49950590       8.88136388
O        9.07660996       5.62226302       5.82256154
N        7.22867372       4.78538735       8.72367135
O        2.18695322       0.71697218       6.22233913
O        5.90512956       6.59982633       7.05463180
O        6.97935133       2.51725921       7.64994236
Li       5.30788827       5.63199794       8.68005279
Li       7.32310786       6.34932458       3.78160335
Li       7.60240794       7.75230537       1.60663492
Li       3.00248155       1.28628124       2.57820753
Li       4.12759255       3.30366516       7.44816958
Li       4.64974763       6.64347245       2.97862270
P        7.65211029       9.40529604       4.03102933
P        5.81238765       5.26778256       1.10042867
O        4.85199503       4.46426180       5.96789449
O        6.63921180       2.46871914       4.08677299
O        7.00117282       9.99512710       2.74130916
O        9.31696843       6.77516416       1.36715808
N        8.29307429       8.10240499       3.46458597
O        6.09425223       6.81153177       1.47751753
O        4.78385205       0.15653708       1.14629122
O        6.75524248       9.23751850       5.31388726
Li       6.41341645       7.14726859      11.63624842
Li       8.40788961       8.84642256      11.11285237
Li       8.26408829       5.03311635      10.40611475
Li       4.90000135       8.40121988       7.40828317
Li       7.80648901       6.87685643       9.27223864
P        8.01509295       9.74594578       8.27753249
P        5.00785761       6.00980479       5.89691120
O        7.18944007       2.66908296      10.21525828
N        8.40053503       8.17565742       7.95718597
O        6.47677015       9.91915526       8.06551710
O        5.63589505       6.50348427       4.67146326
O        4.05869025       9.34845323       6.04821897
O        8.37502265      10.00706568       9.72698040
124
Lattice="9.63908 0.0 0.0 0.0 10.3723 0.0 0.0 0.0 12.0957" Properties=species:S:1:pos:R:3 material=LiPON model=NEP89 temperature_K=600 phase="NVT production" display_name="LiPON｜NEP89｜600 K｜NVT production計算" report_figures="23_LiPON_lithium_MSD; 24_LiPON_transport_comparison; 25_LiPON_temperature_RDF" source_frame_index=270 relative_time_ps=27.0 pbc="T T T"
Li       3.01489747       9.29957028       0.15970358
Li       5.68304570       2.05282896       1.94255668
Li       8.31666194       3.09451313       0.49396970
Li       0.27043458       7.50927002       4.61845604
Li       0.51509962       8.42776864       2.15222666
Li       5.90457491       9.39400673       9.77723811
P        3.51300331       3.63557254       1.19342846
P        0.63597513       0.53336853       0.64079346
N        0.93355916       4.28223744       4.18265481
O        2.51418012       6.58511729       3.31561653
O        2.05642390       3.89299001       1.31466049
O        5.16650649       0.65917223      10.55666956
O        3.87037483       2.96395482      11.91227221
O        9.23283261       9.82208010       1.03799557
O        8.17778594       6.94795205      10.98881076
O        4.23822136       2.92316399       2.30491411
Li       5.87461445       2.97114512      11.56215651
Li       1.15684697       0.12930787       3.49182176
Li       3.09112109       1.53062228      11.18785039
Li       1.28740929       5.35616179       2.55129230
Li       4.00277744       4.60572253      10.26332989
Li       1.00015357       2.84324395       2.57577304
P        1.61099367       2.90720886       9.07413978
P        9.11274464       4.54669837       4.99704771
O        1.61172613       0.83557539       1.80529958
O        3.57259808       6.30549499       9.32770797
O        2.29793325       1.53182783       9.39953715
O        3.98506636       1.26237154       4.35086943
O        0.06694347       2.48722015       9.03095475
O        8.89044548       3.34642086       5.83993237
O        0.83122997       6.45909296       8.14170537
O        2.19437077       3.35834612       7.67424754
Li       8.92409574       2.12304648       7.35951151
Li       4.42635153       3.01585678       4.35677701
Li       9.59584747       4.64685210       8.60879251
Li       2.10352362       5.64128037       4.97530503
Li       7.58814738       7.50039575       6.53972670
Li       5.11401668       8.13256422       0.90842657
P        2.88587977       7.98385173       2.68904345
P        9.10682972       6.18025258      11.99358883
O        1.19635864       8.35686921       6.62451062
O        4.16246634       5.27119237       1.10929703
O        2.20833654       7.96459983       1.26262996
O        5.94455423       4.89523625      11.53807154
O        2.19035707       8.92935941       3.67418257
O        8.84438378       4.62282339      12.00427296
O        1.45994358      10.22438011      11.58736921
O        4.45866215       8.26022737       2.67882256
Li       0.90622477       3.90031230      11.95924390
Li       0.34995450      10.20372504       6.16736830
Li       2.97308412       8.17333894       5.70192707
Li       1.52675776       2.89244434       6.16552313
Li       8.47777561       1.75498680       4.90614982
Li       1.31572272       8.25168666      10.80584324
P        4.20986391       7.61935464       9.77943257
P        0.43416973       7.98763555       7.98932384
O        0.91719188       6.52685026      11.46033068
O        1.81371125       4.10762143      10.13604765
O        5.72095191       7.41832809       9.60962883
O        3.67176136       6.56135013       6.11563555
O        3.94677242       8.91148048       8.91863448
O        1.18199916       8.73741828       9.14912937
O        1.98932443       3.53328626       4.25721913
O        3.84571142       7.76761699      11.26403032
Li       2.65720397      10.05457040       8.50114652
Li       6.21080850       0.41763999       6.54417779
Li       4.19399961       1.75479171       8.99090535
Li       6.21014186       2.72823890       6.01305263
Li       2.81012926       5.78392930       7.83593192
Li       5.05407781       8.46120368       4.64925672
P        7.48485239       3.62557443       3.17905378
P        5.71741089       0.25425973      11.95570170
O        4.34127326       1.65540574       6.74687788
O        8.89550783      10.30984038       4.50137253
O        9.55362018       1.72685673       0.08198871
N        7.93645570       4.89732356       3.97106365
O        6.57728528       1.35124957       0.56406418
O        6.63450511       4.40344779       1.94899780
O        8.45422031       2.73890841       2.33781201
Li       1.53486098       5.92667011       9.84183976
Li       7.54756492       0.82789392       2.11033832
Li       2.57923401       6.69657916       0.04995086
Li       8.61042387       1.66338643      10.49192180
Li       0.85708822       0.01335800       9.69210802
Li       5.08022810       9.86750737       2.53769460
P        6.65296663       3.26206787       8.76487221
P        3.64046532       0.78070644       5.74963892
O        6.41306683       9.24207120      11.80737443
O        8.71858096       0.23470416       7.25990740
O        5.06452927       3.48624895       9.01661407
O        9.47403836       5.87314294       5.74916208
N        7.47060320       4.60411577       8.69517196
O        2.13006369       0.99156525       5.81961803
O        6.00292848       6.30461249       6.85717215
O        6.94399697       2.37409344       7.54991992
Li       5.81575602       5.61623308       8.77534220
Li       7.21621001       6.61636384       3.42628983
Li       7.80505183       8.21952797       1.55338728
Li       3.19696742       1.36528993       2.55944752
Li       4.26518531       3.54660289       7.30778202
Li       4.42689515       5.95107707       3.02582784
P        7.75804882       9.41504120       4.04671425
P        5.78349090       5.27428461       0.88710231
O        4.85662368       4.30089910       5.78963273
O        6.69811663       2.74274667       4.12961943
O        6.74043260       9.94193613       3.05690251
O        9.14863221       6.71604809       1.36018613
N        8.40118970       8.19993689       3.33896108
O        6.37276616       6.80304751       1.03265596
O        4.49814028       0.11924856       0.84524548
O        6.99305640       8.83766024       5.31382832
Li       6.42905504       6.82815364      11.23527277
Li       8.31436183       9.18149625      11.49442635
Li       7.54841929       4.41876047      10.58816161
Li       5.05259286       8.20436241       7.44412919
Li       7.61858508       7.07536036       9.19147554
P        8.01472092       9.85089371       8.34066605
P        5.04157831       5.88325589       5.70888065
O        7.11251452       2.66377367      10.11604801
N        8.52827939       8.29609912       8.07237911
O        6.49381600       9.63037767       8.03765685
O        5.62461099       6.34345552       4.43329565
O        4.13785523       9.64151394       6.05950788
O        8.33424728      10.20888487       9.76656160
124
Lattice="9.63908 0.0 0.0 0.0 10.3723 0.0 0.0 0.0 12.0957" Properties=species:S:1:pos:R:3 material=LiPON model=NEP89 temperature_K=600 phase="NVT production" display_name="LiPON｜NEP89｜600 K｜NVT production計算" report_figures="23_LiPON_lithium_MSD; 24_LiPON_transport_comparison; 25_LiPON_temperature_RDF" source_frame_index=300 relative_time_ps=30.0 pbc="T T T"
Li       3.15029100       9.04098702       0.01099354
Li       5.59562315       1.62918478       2.40364460
Li       8.36536220       3.51275136      11.78357807
Li       0.11278538       7.51427019       4.36016156
Li       0.80259256       8.92841037       1.85721763
Li       6.03677552       9.92262924       9.94753200
P        3.32812384       3.63491729       1.16106220
P        0.70638217       0.73737782       0.40752774
N        1.00411810       4.11253437       4.29790762
O        2.47901470       6.36364960       3.43646215
O        1.88405991       4.06589275       1.17499327
O        4.78287931       0.43698176      10.92264760
O        3.68396423       3.16541903      11.88586938
O        9.31808856       9.97144199       0.67577539
O        8.26105179       7.24246247      11.61989442
O        3.64112662       2.69190126       2.28687134
Li       5.63481583       2.62055885      11.12650514
Li       0.87341910       0.36852144       3.69611821
Li       2.92186125       1.53676138      10.91008540
Li       1.04985959       5.08360311       2.34440945
Li       3.84043199       4.36945030      10.38008467
Li       0.63769707       2.78711127       2.59558814
P        1.72068013       3.23257678       8.73010296
P        9.12685802       4.40956873       4.76828110
O        1.11165252       1.15361395       1.77020754
O        3.79162575       6.49854711       9.18904105
O        2.63397679       1.95282091       9.14105826
O        3.60376295       0.68090981       4.36720791
O        0.19653838       2.95641708       8.73859129
O        8.68255566       3.10990235       5.46687972
O        0.70907294       6.41236105       8.26342348
O        2.03960130       3.68989002       7.26554928
Li       8.65795268       2.18907443       7.43911172
Li       4.30564612       2.52865140       4.70599341
Li       9.25305591       4.78560348       7.43769390
Li       2.20097174       5.19981829       5.53676800
Li       7.87823898       7.07912046       6.37472859
Li       4.98323222       7.98460774       1.09861185
P        2.76015647       7.81130018       2.95240938
P        9.58536734       6.46793176      12.08932340
O        0.66683848       7.96657677       6.18319866
O        4.24790028       5.06248270       1.37104575
O        2.41047712       7.77803434       1.41858436
O        5.97149983       5.39402349      11.48935693
O        1.86842422       8.84735192       3.51825711
O        9.53806652       4.99534169      11.52610755
O        1.88134394       0.05703898      11.72917665
O        4.28460153       8.05402467       3.16429244
Li       1.15258285       3.58405619      11.62367985
Li       0.45188027       9.90103790       5.89036335
Li       2.40249222       8.05985243       5.35498439
Li       1.37088347       2.41678331       5.92351745
Li       7.61000710       1.63494661       4.70143522
Li       1.20840469       8.99754139      10.53382945
P        4.46342304       7.76343644       9.83909210
P        0.59201962       7.87376968       7.76986204
O        1.14055364       7.12156004      11.26347377
O        2.02626479       4.38903534       9.76293965
O        5.95991756       7.72125509       9.80011696
O        3.35354287       6.36103300       6.35394331
O        4.13449342       9.04497060       8.96906582
O        1.58167824       8.64748981       8.56715636
O        2.27829185       3.78047160       4.48324067
O        4.05876359       7.73137502      11.35775127
Li       3.00599211       8.14269008       7.46063623
Li       6.07919372       1.00425181       6.81118986
Li       4.00403687       0.70075438       8.59307203
Li       6.76932263       3.85371178       6.13891362
Li       2.47703909       5.49634514       8.12819993
Li       4.98097094       7.84799294       4.67489203
P        7.25035987       3.53305324       2.90296256
P        5.55757647       0.19582838       0.15364108
O        4.28990609       1.26687595       6.65182872
O        8.71730329       0.06297182       4.84035498
O        0.17289633       1.94457042      11.79042216
N        8.13707509       4.80604559       3.54915474
O        6.42523255       1.35473025       0.58960973
O        6.61227831       3.99575116       1.40222003
O        8.25190759       2.43536390       2.57740788
Li       1.55445855       6.36552402       9.73037130
Li       8.10661327       0.91832560       1.47014740
Li       2.72085289       6.56084241       0.08002143
Li       9.08804322       1.68134770      10.13054022
Li       1.28693960       0.40627616       8.28146396
Li       4.75962781       9.92020983       3.05351980
P        6.80548867       3.49311613       8.98843971
P        3.41993060       0.24370502       5.87243103
O        6.48119569       9.27091166      11.99123013
O        9.10135657       0.41107907       7.44253669
O        5.24584133       3.56409283       9.37350511
O        9.02398204       5.66409949       5.66213110
N        7.41100892       4.96559654       8.97133800
O        1.92371000       0.47783869       6.35225119
O        5.69924291       6.63904497       7.10755843
O        6.96508634       2.72023170       7.60998113
Li       5.74872844       5.70193236       8.86533759
Li       7.03344281       6.45664603       3.81159351
Li       7.62707790       8.47045623       1.51255078
Li       2.99282338       0.89964747       1.81331988
Li       3.97273112       2.93015646       7.79835723
Li       4.41859487       5.28064484       3.22118849
P        7.59888424       9.49416109       4.13808336
P        5.82823224       5.34763861       0.88023495
O        4.89336120       4.25197727       6.65814644
O        6.15406900       2.91562468       3.84475895
O        6.54985297       0.06709328       3.41363304
O        0.05320790       6.59589882       1.50578248
N        8.32778202       8.48706020       3.20884190
O        6.28334798       6.68225238       1.49461861
O        4.52048909      10.21435672       1.20512114
O        7.00844562       8.48602374       5.11353780
Li       6.44588943       7.27973970      11.49723344
Li       8.36890122       9.23814459      11.43458024
Li       9.17466515       4.44838925       9.53323344
Li       5.42543201       8.92369028       7.53731319
Li       7.75075451       7.29410295       9.45305896
P        8.32876263       9.77987134       8.30259916
P        4.73166321       5.76244268       6.19927768
O        7.48037002       2.81159948      10.23037775
N        8.67354677       8.20665802       8.25247185
O        6.73453248      10.09077376       8.08796778
O        5.27862985       5.91008064       4.79973992
O        3.87275761       9.13958490       6.11193851
O        8.66793733      10.08600571       9.78188945
124
Lattice="9.63908 0.0 0.0 0.0 10.3723 0.0 0.0 0.0 12.0957" Properties=species:S:1:pos:R:3 material=LiPON model=NEP89 temperature_K=600 phase="NVT production" display_name="LiPON｜NEP89｜600 K｜NVT production計算" report_figures="23_LiPON_lithium_MSD; 24_LiPON_transport_comparison; 25_LiPON_temperature_RDF" source_frame_index=330 relative_time_ps=33.0 pbc="T T T"
Li       2.89436413       9.37288087       0.13452579
Li       5.66709169       2.10463158       2.36973120
Li       7.70154343       3.11035823       0.36728499
Li       0.39781841       6.98476903       4.45819322
Li       0.17017245       8.48143736       2.03144908
Li       6.05556360      10.09465274       9.80576935
P        3.37855464       3.85865758       1.03574418
P        0.49330682       0.61646222       0.58353771
N        1.08791306       3.91657779       4.05397040
O        2.62613983       6.39058180       2.76716004
O        1.87804940       4.10765919       1.22444748
O        4.74955761       0.66331931      10.67138652
O        3.79744806       2.94332233      11.92191398
O        9.03288070       9.96468360       0.88585360
O        8.52785047       7.20542490      11.25497538
O        3.90707045       3.09218053       2.24344818
Li       5.67352271       2.89454026      11.23867672
Li       1.37414953      10.35155301       3.82367203
Li       2.80399485       1.75244579      10.78297691
Li       1.07615367       5.25026090       2.36047817
Li       3.77243710       4.50004657      10.34350713
Li       0.38631459       2.74256408       2.35693472
P        1.75199237       2.79980420       8.82237052
P        9.36591906       4.26684773       4.96328898
O        1.14548717       1.01576485       1.93520524
O        3.52062656       6.22080252       9.43434060
O        2.32215977       1.35831369       8.88960541
O        4.15600988       0.86349300       4.23898732
O        0.17758205       2.94942297       8.74277477
O        9.09976553       2.93579676       5.63376166
O        0.64511569       6.31004724       8.48792084
O        2.39361438       3.65379189       7.61816851
Li       8.75188613       2.06530012       7.44241736
Li       4.27194784       2.81416907       4.16552927
Li       9.44446871       4.51929877       7.59647724
Li       2.75844061       4.68463000       5.76005064
Li       7.74413900       7.25187463       6.77415295
Li       4.90713905       8.38935771       0.80126765
P        2.72393417       7.98711799       2.81192121
P        9.51828405       6.15343207      12.00456827
O        0.83230706       7.98255365       6.54738963
O        4.23351174       5.34903712       1.05764665
O        2.08066856       8.51425859       1.51116208
O        6.39778744       4.75684814      11.80999548
O        1.86763473       8.41234594       4.02384598
O        9.16880518       4.70944694      11.63974884
O        1.45823160       0.25516463      11.45003830
O        4.22445575       8.38328001       2.86365409
Li       0.90876914       3.31089349      11.65868270
Li       0.28694482       9.78319143       5.98852795
Li       2.43900004       8.16160144       5.60604360
Li       1.31561104       1.89825761       6.50642901
Li       8.06958540       1.53077548       4.45534014
Li       0.90958722       8.28737548      10.96931289
P        4.32683725       7.51542615       9.95212057
P        0.59485739       7.72799654       8.02020456
O        1.27318389       6.44391335      11.51853981
O        2.05733503       3.48018486      10.20497506
O        5.88698160       7.21786841       9.81830940
O        3.48784954       6.42460134       6.29252529
O        4.02947884       8.67152021       9.07702872
O        1.40789220       8.71347015       8.89135498
O        2.31160289       3.48085086       4.18004511
O        3.76284196       7.81879131      11.40581467
Li       2.66605260       9.40781191       7.76613800
Li       6.05084086       0.97688201       6.72956031
Li       4.30688219       0.88261041       8.66333988
Li       7.03828406       4.51055918       6.29623531
Li       2.48971732       6.04352665       7.86681571
Li       5.17106347       8.30093987       4.51432877
P        7.30987672       3.80110973       3.27819343
P        5.36297026       0.46731406      12.09153535
O        4.23850515       1.25768766       6.86097595
O        9.01912566      10.22764631       4.26321724
O        9.31265692       1.87957459       0.08833972
N        8.05161424       4.73530940       4.27747179
O        6.35405498       1.60775634       0.38687625
O        6.26608417       4.73225107       2.38656472
O        8.24739623       3.05067154       2.23556789
Li       1.68301158       5.46556352       9.99407576
Li       7.86444360       1.08989269       1.78471375
Li       2.77344079       6.73684107       0.34515688
Li       8.82468802       1.82239516      10.30554358
Li       0.93444119      10.30488708       9.68830624
Li       5.03119640      10.21982205       2.85587070
P        6.65104568       3.42661599       8.89452205
P        3.65953626       0.46641322       5.72082585
O        6.23687066       9.50459147      11.91213557
O        8.97072625       0.33534725       7.28387497
O        5.19711208       3.77762004       9.23566611
O        0.17171051       5.43828780       5.82161016
N        7.40455672       4.77138795       8.41033540
O        2.12096778       0.47450314       5.74104094
O        5.91817315       6.76223365       7.06886712
O        6.82427460       2.57768834       7.62320702
Li       5.41083525       5.70864210       8.83289940
Li       7.71661874       6.43851356       2.99329125
Li       7.24720213       8.76026854       1.38483456
Li       3.03921791       1.33752775       2.21000406
Li       4.38415832       3.22495731       7.22405910
Li       4.79508775       5.49734592       3.10147096
P        7.64498248       9.54943925       3.83813311
P        5.86689668       5.48299832       0.91743196
O        4.98168482       4.51926210       6.30905643
O        6.47532887       2.95990937       4.21510777
O        6.79419990       0.31701744       3.11490176
O        9.47369096       6.38213661       1.40547223
N        8.18232973       8.27558838       3.10017959
O        6.15372985       6.95129435       1.14235860
O        4.38458385       0.03737679       1.08923893
O        6.86550993       8.96973577       4.99021270
Li       6.75386873       7.23530800      11.33871202
Li       8.18739204       9.13802359      11.27560185
Li       8.82502236       4.23659159       9.82797164
Li       5.18566264       8.44683947       7.22075702
Li       7.85757334       6.53957624       9.49794906
P        8.26157599       9.78499077       8.25379952
P        4.93066610       5.98826294       6.04269900
O        7.36593678       2.76042509      10.03990192
N        8.65222681       8.15228132       8.07822837
O        6.67380692       9.96324232       8.16187437
O        5.28863287       6.35355606       4.57650629
O        3.99229907       9.31598805       6.12224325
O        8.67803920      10.19543963       9.63985946
124
Lattice="9.63908 0.0 0.0 0.0 10.3723 0.0 0.0 0.0 12.0957" Properties=species:S:1:pos:R:3 material=LiPON model=NEP89 temperature_K=600 phase="NVT production" display_name="LiPON｜NEP89｜600 K｜NVT production計算" report_figures="23_LiPON_lithium_MSD; 24_LiPON_transport_comparison; 25_LiPON_temperature_RDF" source_frame_index=360 relative_time_ps=36.0 pbc="T T T"
Li       3.17403179       9.26822643       0.46025953
Li       5.47406807       2.13828001       2.49936271
Li       8.12548738       2.87771999       0.47538964
Li       0.33506515       7.49460479       4.78014428
Li       0.14704582       7.82924323       2.13571299
Li       5.83293181       9.90991660       9.58827120
P        3.41255854       3.71098854       1.06833970
P        0.65794949       0.44170786       0.57894601
N        0.99669496       3.95617682       4.11405445
O        2.65006933       6.39218482       3.37656588
O        1.81225154       3.93982496       1.14156734
O        5.12350292       1.05281193      10.77903304
O        3.78543297       3.04743628      11.80117347
O        9.23185413       9.58567640       0.85665819
O        8.36314371       6.90550421      11.96440063
O        3.91903482       3.10274111       2.30784573
Li       5.65892621       2.95936224      11.52871604
Li       0.79904691       0.11364214       3.34040036
Li       3.08771467       1.47413462      11.46920663
Li       1.45437791       5.00804941       2.65352640
Li       3.75495347       4.35943116      10.55481600
Li       0.70173496       2.77973836       2.47714981
P        1.58412543       2.77581231       8.64912796
P        9.27770322       4.46426747       4.91159589
O        1.29966961       0.97128892       1.77257599
O        3.45375121       6.45360685       9.60252898
O        2.28193896       1.41433947       8.79934636
O        4.34459764       0.82239906       3.85445260
O        0.12756677       2.63804109       9.05052145
O        8.57824114       3.51101399       5.84490048
O        0.84669683       6.46647396       8.32418184
O        1.66300013       3.31160692       7.17076329
Li       8.73069908       2.33241107       7.46657538
Li       4.32042708       3.42211274       4.08920847
Li       9.45006635       5.15819597       7.83730923
Li       2.07119102       5.60741194       5.11693458
Li       7.53389657       7.57940985       6.33121503
Li       4.91324016       8.06644963       1.15709879
P        2.79091812       7.82745066       2.87714130
P        9.47327005       5.83702123       0.21513639
O        1.09152077       8.52793002       6.84132821
O        4.19353652       5.15424538       0.91164302
O        2.17994458       7.94503124       1.48424858
O        6.17972611       4.98939114      11.37952587
O        2.02597382       8.77606253       3.93986639
O        8.98773785       4.41331865      11.76965173
O        1.62660855      10.18091159      11.65506233
O        4.25474843       8.19051792       2.86477431
Li       0.95844740       3.42701274      11.51263841
Li       0.37753112       9.90726536       5.94318420
Li       2.78826068       8.24854207       5.79160266
Li       1.06298527       2.22176565       5.53819699
Li       8.03493668       1.60894503       4.39991096
Li       1.22529516       8.28107360      11.12687157
P        4.24151169       7.67296391      10.21169599
P        0.53450458       8.00972629       8.26869483
O        1.08736011       6.36097428      11.63132326
O        2.19993526       3.84040007       9.62672893
O        5.70013397       7.32012357       9.80873791
O        3.55258579       6.43891404       6.20908321
O        3.99035707       9.01598550       9.60965155
O        1.13327660       8.84272755       9.43022680
O        2.29178771       3.81160856       4.31661872
O        4.07495342       7.48724874      11.77029273
Li       2.36114384       9.78127197       8.38480328
Li       6.07077047       0.20090878       6.41083149
Li       4.39458848       1.94476457       9.03481565
Li       6.46963133       3.49986532       5.71271471
Li       2.79164102       6.07897020       7.94977323
Li       5.11701714       8.42113161       4.47426343
P        7.42869941       3.71625437       2.99081928
P        5.63055266       0.38596130       0.06465492
O        4.45924424       1.64785074       6.32214177
O        8.81618884      10.31708781       4.28153748
O        9.53127097       1.68985283      11.95582088
N        8.27775380       4.93714070       3.64537272
O        6.28780717       1.64742743       0.75640245
O        6.63511418       4.20976827       1.58090907
O        8.29424355       2.48467359       2.52563622
Li       1.79434877       5.82593899       9.80808140
Li       7.70601868       0.80844452       1.96158905
Li       2.87418725       6.55430447       0.49824113
Li       8.58246813       1.89696567      10.45554126
Li       0.90945340       0.42199913       9.97770951
Li       4.97732268      10.08625588       2.58771131
P        6.58526072       3.53953921       8.76374362
P        3.71174654       0.72436554       5.33433107
O        6.56281318       9.53794768      11.97049613
O        8.88993400       0.28594952       7.36857944
O        5.05228310       3.86127795       8.93969472
O        0.10926445       5.66738679       5.75731862
N        7.52710692       4.90725784       8.63540010
O        2.25889634       0.78732235       5.33937690
O        5.91418919       6.43926355       7.11233889
O        6.66606492       2.68338102       7.52561104
Li       5.21367712       5.78570449       8.85719635
Li       7.33453713       6.39107979       3.31467712
Li       7.49573365       8.48377496       1.39101686
Li       3.24402912       0.98381814       2.43292014
Li       3.99160484       3.42657005       6.94803490
Li       4.90342048       6.16162506       2.67350535
P        7.76529106       9.22632790       3.98160235
P        5.83844540       5.30805607       0.71991599
O        4.98784803       4.38115160       5.86449087
O        6.38364761       3.08693978       3.88422465
O        6.89528451       9.64734775       2.71544185
O        0.00275871       5.86421253       1.79357253
N        8.52042100       7.94419355       3.37675203
O        6.25295419       6.74843104       1.36028950
O        4.34677647       0.16645137       0.85782127
O        6.97542606       8.97172859       5.22467641
Li       6.52623564       7.73132527      11.57946453
Li       8.44997865       9.19575764      11.23702581
Li       7.84627167       5.35547510      10.35818594
Li       5.10366400       8.41369433       7.74343712
Li       7.20987761       6.95094281       8.68082006
P        8.06317775       9.80904802       8.38436246
P        4.99597815       5.93524471       5.96534464
O        7.32347155       2.94931917       9.96229088
N        8.63736949       8.29368350       8.30794037
O        6.56825229       9.77073325       7.96728545
O        5.56496668       6.46900955       4.58887717
O        4.19751778       9.68377144       6.04120560
O        8.14185869      10.31966883       9.89340327
124
Lattice="9.63908 0.0 0.0 0.0 10.3723 0.0 0.0 0.0 12.0957" Properties=species:S:1:pos:R:3 material=LiPON model=NEP89 temperature_K=600 phase="NVT production" display_name="LiPON｜NEP89｜600 K｜NVT production計算" report_figures="23_LiPON_lithium_MSD; 24_LiPON_transport_comparison; 25_LiPON_temperature_RDF" source_frame_index=390 relative_time_ps=39.0 pbc="T T T"
Li       3.07022018       9.55880971       0.35233088
Li       5.84580567       1.38687609       3.30173218
Li       8.03267671       3.47996280       0.34528509
Li       0.02412148       7.90749428       4.96610953
Li       0.18924449       8.39623570       1.87997237
Li       5.94920150       9.39718750      10.04106580
P        3.33695683       3.73869828       0.96550591
P        0.60026031       0.54260748       0.42091738
N        0.95202174       4.53000997       4.16176825
O        2.40972370       6.35998031       2.96770665
O        1.89411920       4.12125035       1.13194216
O        4.82909175       0.48129068      10.89460346
O        3.83013495       3.11757180      11.69919689
O        9.27103128       9.76607529       0.71820966
O        8.46964924       7.05580734      11.06709846
O        3.75348104       2.74987058       2.00122828
Li       5.58325746       2.60908614      11.30670733
Li       1.41374269      10.31847574       3.83937976
Li       3.04166490       1.52564187      11.05653846
Li       0.40495106       5.44903911       2.49382276
Li       3.78036366       4.31209510      10.02548414
Li       0.83879067       2.96663956       2.34464163
P        1.69834747       2.88999167       8.74350244
P        9.22926245       4.79186305       5.09896210
O        1.39409580       1.01373521       1.71159260
O        3.51991628       6.14789507       9.30180350
O        2.43663982       1.40361477       8.64957823
O        4.19654275       0.65292116       3.98226028
O        0.14187252       2.79374408       8.77118954
O        9.19296148       3.52858305       5.98508870
O        0.70338536       6.46448245       8.53962625
O        2.11518341       3.71141549       7.55168202
Li       8.61583477       2.12152580       7.65027694
Li       3.74816223       3.94375496       4.10361253
Li       9.29932357       4.83980927       8.57834256
Li       2.09168756       5.69043733       4.81336473
Li       7.37256671       7.31384598       6.44060061
Li       4.82951375       8.23449100       0.99373739
P        2.61988992       7.92404962       2.97971854
P        9.39198644       6.28140079      12.00812342
O        0.88208429       8.42994617       6.73816134
O        4.24795497       5.13200427       1.17779286
O        2.03699472       8.47429049       1.58359853
O        6.47785885       4.53372846       0.00719898
O        1.85160717       8.47342195       4.21222554
O        9.14491676       4.79505395      11.64675983
O        1.69506810       0.14524283      11.50731638
O        4.20343651       8.18201240       2.93714314
Li       1.02231769       3.32690518      11.69971473
Li       0.66322629      10.28336186       6.01254489
Li       2.67536243       8.24306735       5.89286705
Li       1.56177531       2.85733391       5.70706879
Li       8.33578283       1.73806240       5.25291299
Li       1.66226336       8.11379499      11.09753355
P        4.39583364       7.28734491       9.88490218
P        0.45573978       7.98543331       8.13170045
O        1.21512996       6.63541038      11.74274088
O        2.09760991       3.58437424      10.07577974
O        5.89498291       7.02540388       9.92426187
O        3.43048725       6.63454925       5.86896306
O        4.13485991       8.54078829       9.04366137
O        1.28949064       8.77554364       9.18278875
O        1.88733158       3.72351891       4.00528945
O        3.86526385       7.53242442      11.46407954
Li       3.05993512       9.73604309       8.27298417
Li       6.27134884       0.40604510       6.57837673
Li       5.41700881       1.17681900       9.05155713
Li       5.90913000       3.06340595       5.86196546
Li       2.17651442       5.82422518       7.45961980
Li       5.40140088       8.37429797       4.94053787
P        7.52639788       3.53163959       3.12445613
P        5.70078965       0.08972848       0.06832568
O        4.42378553       1.43996158       6.55003798
O        9.17028723       0.02831584       4.34099231
O        9.49697611       1.83867894      11.95891555
N        8.20361379       4.78099801       3.85464443
O        6.53120396       1.35436382       0.54792713
O        6.24503699       4.29009322       2.45038020
O        8.52208690       3.02002854       2.09400259
Li       1.81523751       5.65830383      10.10804863
Li       8.03768055       0.95257817       1.61208679
Li       2.73198861       6.55436770       0.82966913
Li       8.72901939       2.14354001      10.28282319
Li       0.88682732       0.07528967       9.76740298
Li       5.21887147       9.67233030       3.07211662
P        6.54961086       3.46873412       8.84119313
P        3.81021708       0.50302045       5.41830371
O        6.65578690       9.27527362      11.87299121
O        8.72174766       0.26899520       7.25998890
O        5.05115464       3.79018311       8.96773558
O        9.44275734       6.12451330       5.79702203
N        7.24498078       4.86437340       8.92882209
O        2.30942405       0.75346364       5.52821532
O        5.60766974       6.63318981       6.90255853
O        6.92912207       2.86868327       7.44786856
Li       5.14994891       5.35901084       8.13483384
Li       7.24003009       6.38290528       3.33561803
Li       7.48682241       8.72845396       1.48190151
Li       3.35897163       0.82807077       2.17394340
Li       3.89913770       3.24842856       7.23854890
Li       4.37249519       6.27271883       3.01802435
P        7.93138017       9.44396479       3.93871293
P        5.86336990       5.32478341       1.19545010
O        4.50465245       4.26117780       5.77440813
O        7.01843925       2.45156154       4.11572909
O        6.97585448      10.21789564       2.87425811
O        8.88214215       6.65374885       1.32206171
N        8.50071837       8.12251622       3.46866345
O        6.15244936       6.76693987       1.33963881
O        4.61586012       9.99141129       1.12152640
O        7.04791726       9.00396978       5.20150594
Li       6.78342577       7.52109190      11.73895821
Li       8.54066677       9.11815996      11.34642199
Li       7.42313146       5.36270377      10.69046536
Li       4.95639164       8.44012567       7.26418239
Li       7.64270556       6.94750323       9.03114467
P        8.09755062       9.78978534       8.40310413
P        4.76062849       5.88397829       5.73730194
O        6.88465779       2.50411629       9.99133632
N        8.54522003       8.31500786       8.19695203
O        6.52979742       9.91432159       8.26702346
O        5.47802995       6.32333218       4.43077007
O        4.22391484       9.45802498       5.92900633
O        8.49451270       0.01156886       9.79385006
124
Lattice="9.63908 0.0 0.0 0.0 10.3723 0.0 0.0 0.0 12.0957" Properties=species:S:1:pos:R:3 material=LiPON model=NEP89 temperature_K=600 phase="NVT production" display_name="LiPON｜NEP89｜600 K｜NVT production計算" report_figures="23_LiPON_lithium_MSD; 24_LiPON_transport_comparison; 25_LiPON_temperature_RDF" source_frame_index=420 relative_time_ps=42.0 pbc="T T T"
Li       3.31385246       9.33118772       0.39630253
Li       5.64401213       2.12474504       2.35213787
Li       8.55085023       3.15920163       0.58909798
Li       0.22315038       7.23359131       4.38987320
Li       0.20122626       8.51366588       2.06374650
Li       5.72177099       9.65644239       9.87376993
P        3.52423860       3.77081687       1.15823440
P        0.66699216       0.58899742       0.56797926
N        0.96036468       4.19566594       4.46364432
O        2.68174443       6.30008105       3.19934914
O        2.06431478       4.18394752       1.14282952
O        4.94815588       0.72106835      10.85903341
O        3.92498664       2.88721284      12.02499027
O        9.15199971      10.11468375       0.88796504
O        8.55402451       7.12752585      11.00815419
O        3.82632750       3.13075949       2.46609821
Li       5.62309076       2.73475486      11.60313498
Li       1.56592483      10.30399212       3.54219584
Li       3.14960583       1.14596329      11.33295105
Li       1.15590984       5.25807589       2.55856133
Li       3.88969132       4.17119635      10.64082111
Li       0.98379503       2.72840662       2.31964103
P        1.66991876       3.03583256       8.90890411
P        9.03140224       4.61315111       5.01472168
O        1.44208839       0.88450247       1.86283119
O        3.47761839       6.48899204       9.41167058
O        2.24366166       1.55998224       9.14260841
O        3.86252325       0.68421257       4.30602168
O        0.09242674       2.88279364       9.03593203
O        8.62953690       3.38080507       5.90778366
O        0.45509152       6.17931238       8.30133674
O        2.27519975       3.46953982       7.54596591
Li       8.62447222       2.19751473       7.62188781
Li       3.87160844       2.91817136       4.75539320
Li       9.00757583       4.58853782       7.85985923
Li       2.23098166       5.65173534       5.04821729
Li       7.73053150       7.62471019       6.43836252
Li       5.39844527       8.29506990       1.43268032
P        2.75740240       7.80061854       2.88721610
P        9.54695825       6.31963718      11.83216471
O        0.93844109       8.06781781       6.58259703
O        4.37737944       5.22015952       1.10749522
O        2.19844245       8.27187821       1.53202607
O        5.96548179       5.01758286      11.30784719
O        1.96131671       8.40304350       4.07236107
O        9.15683405       4.85692032      11.68818851
O        1.73716251      10.17865290      11.73100035
O        4.22603767       8.25333463       2.87801732
Li       1.33409363       3.56682417      11.63850745
Li       0.41401181       9.65245547       5.88522161
Li       2.84657195       8.12707498       5.77873981
Li       1.19083083       2.11752429       6.07665468
Li       7.82847041       1.52836440       5.13070050
Li       1.76405809       8.35818034      11.00041476
P        4.27534597       7.66526400      10.03181153
P        0.41421057       7.82660428       8.07540474
O        1.28090383       6.49426644      11.20865092
O        2.10199559       3.93420156      10.05629370
O        5.70612025       7.32747330       9.87401858
O        3.44138693       6.49999419       6.10793988
O        4.00884151       9.07966876       9.21957140
O        1.24508266       8.54264762       9.09617574
O        1.72304806       3.12657890       4.41024146
O        3.90071588       7.97690794      11.56785135
Li       2.35487759      10.02217206       7.90769741
Li       5.97276785       0.88119831       7.18672932
Li       4.11600207       1.45074412       9.17599052
Li       6.36353871       3.59331151       5.87447558
Li       2.87314643       5.32183153       7.69324605
Li       4.81483868       8.16088038       4.59548112
P        7.48623666       3.72334367       3.02766934
P        5.66793609       0.32581638       0.08897324
O        4.15836217       1.27773896       6.78296563
O        8.78539463       0.22210233       4.32228058
O        0.23884309       1.93957204      11.92514380
N        8.13828586       4.95981439       3.72381864
O        6.63309615       1.49053456       0.58772309
O        6.74813923       4.12829472       1.51045877
O        8.58385419       2.83915591       2.45216459
Li       1.66204698       5.72518098       9.53992152
Li       8.04694820       0.92744506       1.90363613
Li       2.97364921       6.79531390       0.49900012
Li       8.60504282       1.81083392      10.32011471
Li       1.04805265      10.36014124       9.97663504
Li       5.07167294       9.97001196       3.19530655
P        6.39850468       3.30813617       8.67716333
P        3.56488353       0.28206414       5.76145384
O        6.44367194       9.40955977      11.79651542
O        8.77492414       0.31810487       7.08171700
O        4.87723452       3.36999134       8.75573550
O        9.16441718       5.99312990       5.75362285
N        7.10548242       4.78189519       8.49084100
O        2.02545530       0.32853337       6.14847462
O        5.86565764       6.42066329       7.02466046
O        6.86713113       2.43674170       7.47195268
Li       5.51008649       5.59913842       8.68703493
Li       7.41810450       6.65119810       3.76056746
Li       7.69841321       8.95347404       1.30910510
Li       3.30876496       1.16962773       2.26678629
Li       4.04753212       3.06790681       7.09887729
Li       4.47933989       5.91826270       2.96891350
P        7.72718683       9.52546721       3.92824272
P        5.96116380       5.35629955       0.67025499
O        4.61393257       4.44726225       5.88752094
O        6.44455781       2.91700454       3.81144252
O        6.86393107      10.20148280       2.80561265
O        9.53555527       6.78990675       1.25291962
N        8.42456213       8.30400717       3.28643309
O        6.47536991       6.78531401       0.98099462
O        4.68557825      10.34432251       1.23054961
O        6.84033639       8.97928738       5.06503685
Li       6.96814877       7.52677746      11.37025703
Li       8.33945415       9.45342754      11.11936817
Li       8.14373987       4.36308890      10.14039735
Li       5.08105818       8.29559794       7.42397459
Li       7.77687053       7.00621841       9.32640955
P        8.26226796       9.79632571       8.26396974
P        4.84153450       5.89593458       6.00797537
O        6.91838231       2.79581784       9.97233449
N        8.52979600       8.24501121       8.09229294
O        6.70856121       9.82347307       8.29109460
O        5.50934150       6.24754637       4.60041876
O        4.11737394       9.20996752       5.93811138
O        8.86352813       0.02288315       9.59320824
124
Lattice="9.63908 0.0 0.0 0.0 10.3723 0.0 0.0 0.0 12.0957" Properties=species:S:1:pos:R:3 material=LiPON model=NEP89 temperature_K=600 phase="NVT production" display_name="LiPON｜NEP89｜600 K｜NVT production計算" report_figures="23_LiPON_lithium_MSD; 24_LiPON_transport_comparison; 25_LiPON_temperature_RDF" source_frame_index=450 relative_time_ps=45.0 pbc="T T T"
Li       3.39959024       9.35176843       0.06547812
Li       5.50671726       1.79975197       2.48080872
Li       7.66299457       2.57909759       0.22775277
Li       0.11156083       7.88096346       3.56225479
Li       0.94583064       8.49620564       0.60771934
Li       6.76751189       0.47474066      10.17252340
P        3.42137198       3.75104260       1.10914353
P        0.68171508       0.68636690       0.46688949
N        1.10538811       4.26442882       4.13995171
O        1.92695644       7.41825760       3.84370730
O        2.03503957       4.34002087       1.10707815
O        5.00529896       0.58687838      10.89064247
O        3.69422572       3.24811518      11.67252111
O        9.18909529       9.93799052       0.70439116
O        8.51609530       7.24498833      11.23403092
O        3.93342478       2.90047763       2.29171739
Li       5.36997857       2.75046541      10.99659822
Li       0.47970161       0.16879585       3.34913323
Li       3.24407474       1.16036384      10.82444646
Li       1.06436023       5.84306619       2.35729070
Li       3.76867896       4.38606266      10.17379428
Li       0.83453778       3.26895170       2.25685975
P        1.59355780       2.92103833       8.73397694
P        9.12997626       4.41074652       4.55023976
O        1.24501447       1.38792066       1.81972609
O        3.76365872       6.19198993       9.51718352
O        2.22802553       1.46349488       9.18669002
O        4.05028188       1.26934839       4.66695316
O        0.30001363       2.63487572       8.08356855
O        8.66857755       3.09000278       5.19756146
O        0.45479101       6.12242891       8.23788428
O        2.52614864       3.50740573       7.51872459
Li       8.92857946       1.86743024       6.91099605
Li       4.05880225       3.16619237       4.32884273
Li       8.94745002       4.51015898       7.55139712
Li       1.79731622       5.59168725       5.49511983
Li       7.97818105       6.71920492       6.61026816
Li       5.09055730       8.27431810       1.56015700
P        2.67862964       8.46404560       2.95233766
P        9.40050633       6.41045493       0.06889118
O        0.82229813       7.85381223       6.39537198
O        4.26029187       5.29536379       1.37760363
O        2.45383146       8.08500194       1.48874248
O        5.79685563       5.18855191      11.32739572
O        2.15197954       9.82439533       3.40777997
O        8.89508372       4.99226147      12.03837086
O        1.75759833      10.21410328      11.86928264
O        4.20601085       8.23084214       3.18842665
Li       1.01464292       3.81386903      11.70762988
Li       0.59199812       9.72526474       5.65400453
Li       2.48276254       7.90001390       5.52124247
Li       1.68483722       2.52305498       6.06300354
Li       8.14366176       1.54447762       4.23253858
Li       0.89545053       9.32759456      10.37248378
P        4.38543961       7.62633202       9.97003642
P        0.34622225       7.59453805       7.78129208
O        1.23422568       6.48757678      11.72043870
O        1.31663475       4.00207509       9.83515036
O        5.95218064       7.56213866       9.69257922
O        3.50408301       6.30603865       6.48642299
O        3.76167465       8.81612143       9.25346209
O        1.26971725       8.40720502       8.66788232
O        2.33386587       3.97583259       4.21455681
O        4.14463961       7.81732109      11.42266137
Li       2.96290516       8.21155638       7.67863197
Li       6.12736957       0.94405355       7.06251081
Li       4.82483096      10.34617626       8.91824150
Li       6.72509401       3.76759724       5.60245391
Li       2.59286751       5.25400111       7.77445120
Li       5.15914521       8.22663685       5.00299507
P        7.39687073       3.51440281       2.74657194
P        5.55609126       0.17436908       0.25108830
O        4.27157159       1.06126232       7.23685686
O        8.78094835      10.20253923       4.67064560
O        0.18699294       1.92724152      11.76926528
N        8.15252010       4.76058416       3.29571878
O        6.41562747       1.39307883       0.73801543
O        6.50577791       4.18007218       1.45460400
O        8.32112605       2.43643084       2.20772624
Li       1.82259739       6.04682688       9.89495629
Li       7.70401293       0.67473678       1.85012930
Li       3.03444451       6.60475582       0.46970918
Li       9.11621783       1.68673227       9.85293253
Li       1.41774056       0.29478611       7.96746252
Li       4.84135985      10.06687675       3.40599358
P        6.88902133       3.26927354       8.85235987
P        3.54430762       0.48684160       5.96497550
O        6.34843272       9.16650014       0.28355994
O        9.03678099       0.16654664       7.36110546
O        5.39358058       3.51915250       9.13522668
O        8.97521942       5.63725022       5.52337961
N        7.58672900       4.61719891       8.97231146
O        2.00218079       0.74903125       6.25297400
O        6.02167327       6.45544146       7.27470408
O        7.11057312       2.56661849       7.47963476
Li       5.59676827       5.54467090       9.25028667
Li       7.12738495       6.60562372       3.29190322
Li       7.95110812       8.18830487       1.55884045
Li       3.07539966       1.09634350       2.33199998
Li       4.31824610       2.91314551       7.61912861
Li       4.76144828       5.90527371       3.43257472
P        7.50843871       9.42926589       4.32242483
P        5.80255484       5.37267522       0.68991367
O        5.08005551       4.26065509       6.26047345
O        6.31333309       2.92876278       3.71199682
O        6.63022224       0.06546503       3.43297815
O        9.27662144       6.92088316       1.54978720
N        7.94671738       8.18482748       3.47576257
O        6.41460585       6.71835562       1.17817486
O        4.37821726       0.04239734       1.26310905
O        6.73742955       8.87018378       5.55832962
Li       6.43801603       7.43907376      11.46237876
Li       8.23163441       9.18388318      11.43089755
Li       9.02431986       4.80554614       9.98305381
Li       5.98634113       8.36908549       7.71406882
Li       7.69170241       6.81371103       8.92945033
P        8.19811735       9.63187906       8.31759815
P        4.98961181       5.86034670       6.26453158
O        7.41099133       2.42944548      10.15463565
N        8.44440807       8.12919877       7.89532589
O        6.65497153       9.86096844       8.30415093
O        5.56863049       6.34322375       4.87565802
O        3.81709128       9.26255352       5.98609216
O        8.72766399       9.82942499       9.77037463
124
Lattice="9.63908 0.0 0.0 0.0 10.3723 0.0 0.0 0.0 12.0957" Properties=species:S:1:pos:R:3 material=LiPON model=NEP89 temperature_K=600 phase="NVT production" display_name="LiPON｜NEP89｜600 K｜NVT production計算" report_figures="23_LiPON_lithium_MSD; 24_LiPON_transport_comparison; 25_LiPON_temperature_RDF" source_frame_index=480 relative_time_ps=48.0 pbc="T T T"
Li       2.90350841       9.67922074       0.58311809
Li       5.74017990       2.28113883       2.18745032
Li       8.48802846       3.35546272       0.48079536
Li       0.19078527       7.49489725       4.74987606
Li       0.12660037       8.24346106       1.96955989
Li       5.80654728       9.66603108       9.58609382
P        3.48571123       3.72971786       1.12473031
P        0.67009031       0.53315549       0.56386479
N        1.19950477       3.92752468       4.03444739
O        2.62492631       6.34663366       3.27866032
O        1.92781238       4.01767154       1.22005941
O        4.79129342       0.69753105      10.70260123
O        3.83071439       3.08528037      11.91369592
O        9.22761666       9.82420550       0.89631211
O        8.69427800       7.31003172      11.11826505
O        4.10959022       2.89534081       2.25397675
Li       5.72337248       2.98304105      11.28730849
Li       0.93246664      10.07826468       3.15126229
Li       3.07742293       0.07007669      10.42362638
Li       1.15944671       5.45808703       2.41030780
Li       3.77243528       4.60175426      10.13306160
Li       0.99329540       2.83347391       2.37219618
P        1.76646807       2.82543620       8.76640616
P        9.41268586       4.44801737       4.93863293
O        1.56407581       0.75712212       1.90457487
O        3.50968267       6.40954787       9.71057150
O        2.43314890       1.50004700       9.10632646
O        3.99561013       0.83846700       4.29606866
O        0.18850609       2.58350373       8.74600053
O        9.14172508       3.35218319       5.93526480
O        0.72147357       6.30849945       8.20319992
O        2.15114424       3.61975168       7.47143119
Li       8.89737091       2.06682663       7.35135936
Li       4.62469168       2.83652304       4.53751823
Li       9.08649429       4.46252730       7.71148113
Li       2.03215440       5.91192534       4.93721382
Li       7.13863813       7.70545194       6.40843900
Li       4.99625295       8.40037157       1.26204582
P        2.72353596       7.81795885       3.07466970
P        9.53379060       6.26432633      11.94200761
O        1.00732817       8.13548525       6.46300006
O        4.16084658       5.32965014       1.09430385
O        2.18910140       8.07950301       1.61948294
O        6.03349638       4.96148099      11.66311302
O        1.78510509       8.59467258       3.97398120
O        9.12906068       4.86157835      11.55595429
O        1.66174320       0.03249724      11.55778456
O        4.08219183       8.54793387       3.07059756
Li       1.12038458       3.44810881      11.69647260
Li       0.33772272      10.03950305       5.75146655
Li       2.64218872       8.22137396       5.93409482
Li       1.49826831       2.98067596       5.75541370
Li       8.36872146       1.75049479       5.01887405
Li       0.84933137       8.31306114      10.71867227
P        4.21886390       7.74796223      10.08965790
P        0.59852588       7.80528253       7.94028186
O        1.36439045       6.55855834      11.46067858
O        1.99510671       3.76312332       9.94412364
O        5.71165460       7.52194922       9.94823895
O        3.41830971       6.49459703       6.14575201
O        3.96607050       8.99154526       9.13837343
O        1.31478016       8.67991894       8.96054433
O        2.23607898       3.08642871       4.00811462
O        3.83556515       8.19104864      11.54049603
Li       2.86036184       9.77727665       7.93495347
Li       6.58464853       0.77263145       7.01818371
Li       3.89719487       2.19811750      10.14917636
Li       6.50726741       3.72274685       5.85360247
Li       2.29133283       5.76824160       7.50729608
Li       5.07204602       8.36209504       5.03510667
P        7.42162468       3.72691840       3.21941932
P        5.52150971       0.44215318      12.03503413
O        4.40152027       1.57716150       6.53998648
O        8.66319275       0.06055255       3.97826123
O        9.61649049       1.85028172       0.12479222
N        8.20049153       4.97184500       4.04189626
O        6.45016152       1.61998772       0.40665733
O        6.50194814       4.52909828       2.15651341
O        8.40513576       2.84251163       2.46501920
Li       1.80971329       5.73784139       9.70227309
Li       8.43265972       0.99368075       2.02233926
Li       2.95447599       6.85888269       0.56982595
Li       8.29829745       1.37930580      10.57656370
Li       0.80020512       0.24219727       9.88363446
Li       4.81156532      10.28801280       2.91705878
P        6.59572640       3.30623945       8.79659244
P        3.59693091       0.53916531       5.72842803
O        6.33459273       9.42735010      11.92194214
O        8.72873708       0.26041045       7.12053345
O        5.05746009       3.52762062       8.94694116
O        0.37918938       5.71732321       5.54751332
N        7.38591005       4.75172069       8.81041309
O        2.10000532       0.60954909       6.12256168
O        5.81139774       6.22325230       6.98406548
O        7.02823484       2.57667443       7.59663238
Li       5.37412429       5.94037805       8.96306026
Li       7.14696373       6.47904828       3.34104956
Li       7.42907585       8.34107463       1.32952954
Li       2.87005237       1.52145603       2.88299729
Li       4.17745161       3.31576374       7.40444298
Li       4.52234657       5.24024616       3.34639838
P        7.62131841       9.24167746       3.70755094
P        5.83780464       5.40821171       1.01009348
O        4.63434084       4.34521943       5.64641641
O        6.56165759       2.96511745       4.16144627
O        6.75159115       9.65482159       2.55139561
O        9.33089202       6.51364800       1.40977400
N        8.42684714       8.01957350       3.45435748
O        6.15394560       6.86077070       1.38528982
O        4.46439019       0.38953286       1.08579663
O        6.75545398       9.14855106       5.00049402
Li       6.64914362       7.47093457      11.59942813
Li       8.27194315       9.47069552      11.23995803
Li       7.49386920       4.44349144      10.64912241
Li       5.35538796       7.99772465       7.51724953
Li       7.60100172       6.69123354       9.22903480
P        8.21249194       9.60486921       8.16635900
P        4.80193551       5.86871938       5.86981934
O        7.07645471       2.58959173      10.09863607
N        8.61863236       8.09432984       7.99472382
O        6.70008657       9.46637238       8.06293232
O        5.29001126       6.47897227       4.42555096
O        3.99264115       9.46967956       6.31442619
O        8.72375102      10.20159206       9.59104333
124
Lattice="9.63908 0.0 0.0 0.0 10.3723 0.0 0.0 0.0 12.0957" Properties=species:S:1:pos:R:3 material=LiPON model=NEP89 temperature_K=600 phase="NVT production" display_name="LiPON｜NEP89｜600 K｜NVT production計算" report_figures="23_LiPON_lithium_MSD; 24_LiPON_transport_comparison; 25_LiPON_temperature_RDF" source_frame_index=510 relative_time_ps=51.0 pbc="T T T"
Li       3.37240181       9.45563911      12.05390110
Li       5.08123572       2.01197387       3.78948785
Li       7.99304613       2.30169872       0.27601458
Li       0.06337881       7.43815778       4.84950824
Li       0.30315540       8.43221622       1.99241755
Li       5.58399747       9.76577999       9.50431236
P        3.56673657       3.48431680       1.25765441
P        0.80555761       0.50930924       0.40815459
N        0.89019206       4.20099074       4.06944193
O        2.64931858       6.55104503       3.41519148
O        2.04216604       3.70978461       1.13408478
O        5.19531148       0.79362930      10.72428996
O        4.02977768       2.74194908      12.06136383
O        9.44692560       9.70779374       0.76560992
O        8.24453835       7.07602238      11.61762188
O        3.98727560       2.64048572       2.47224307
Li       5.73009647       2.50835326      11.05902496
Li       1.00907367       0.27871856       3.39418256
Li       1.19911621       0.11814979       7.51014256
Li       0.92095105       5.21873811       2.55104707
Li       4.07611902       4.14055291      10.80930138
Li       1.01621992       2.73160038       2.75567019
P        1.51028550       3.08816473       8.78846846
P        9.23230927       4.54371080       5.04869952
O        1.53036030       0.99766536       1.68442511
O        3.49321665       6.27307115       9.17517418
O        2.03689405       1.61767035       8.75358071
O        3.88599841       0.40624486       4.10729146
O        9.60198407       3.01788470       8.72103843
O        9.07152109       3.29636449       5.93691397
O        0.67858861       6.35649383       8.40141619
O        1.95450087       3.89759053       7.51478323
Li       8.93101372       2.12822359       7.45781655
Li       3.82586506       4.23591700       4.31360524
Li       9.11748141       5.03631585       7.68705946
Li       1.87894857       5.91939732       5.10338367
Li       7.81316908       7.40147241       6.36959633
Li       4.78113864       7.89687561       0.95024014
P        2.71749949       8.06755253       2.88559477
P        9.42382592       6.20926402       0.19440564
O        1.33049705       8.28527268       6.59677716
O        4.27210690       4.91199333       1.48191215
O        2.47351952       8.11378733       1.27637863
O        5.81350527       5.16953639      11.64218943
O        1.58696003       8.88147356       3.47902887
O        9.10380136       4.77817511       0.17167209
O        1.88178210      10.23886806      11.44852013
O        4.15858814       8.48501032       3.07702730
Li       0.75694182       3.65627191      11.49840517
Li       1.02522179       9.76452864       5.32471348
Li       3.26421902       8.64562881       7.23541329
Li       1.85555855       2.98851719       5.88642017
Li       8.48676051       1.50415979       5.46509783
Li       1.78973565       8.08311613      10.67583960
P        4.19716191       7.51304989       9.69912533
P        0.57236101       7.83886454       7.98921218
O        0.98790618       6.52713505      11.33165586
O        2.15912676       3.79263778      10.05085005
O        5.73935351       7.25378936       9.57915577
O        4.53262586       7.62965633       6.05736164
O        4.05537061       8.84196029       8.88556305
O        1.11041740       8.69434796       9.15852894
O        2.03226433       3.74111272       3.86194715
O        3.78178165       7.64273878      11.20637445
Li       3.98124962       1.11934205       8.45539521
Li       6.29069546       0.66993873       6.60915573
Li       3.02254584       1.36770123      10.97949229
Li       6.58943647       3.96388863       5.67851752
Li       2.63153692       5.57776455       7.81956965
Li       4.84788066       9.29291287       5.11263409
P        7.52715334       3.45398950       3.12653371
P        5.73121513       0.16194288      12.02101789
O        3.89862330       2.41612774       5.64574396
O        9.08953374      10.30561720       4.39193883
O        0.02755163       1.60093450      11.76994835
N        8.09911681       4.73648001       3.93625674
O        6.95603572       0.93137684       0.33584699
O        6.57561474       3.94681035       1.80651263
O        8.58381739       2.52366463       2.44257602
Li       1.56128061       5.66549215       9.99498034
Li       8.31204687       0.54130624       1.94867843
Li       2.64815467       6.58122110       0.22255119
Li       8.26522284       1.29970992      10.28579180
Li       0.78512811       0.12714958      10.07357534
Li       5.21781053       9.92610444       2.80584245
P        6.48393790       3.20747161       8.87910052
P        3.40195373       0.98291718       5.46393445
O        6.24119625       9.02694199       0.00307214
O        8.87738272       0.22065124       7.24838702
O        4.92295052       3.11660211       8.92587510
O        9.33842610       5.89111865       5.74684251
N        7.19138505       4.65350691       8.84430119
O        1.79509971       0.99250701       5.49332490
O        6.04011405       5.90681671       6.97498458
O        6.84453934       2.54590028       7.55889884
Li       5.38629996       5.47380380       8.80739213
Li       7.34100442       6.31796673       3.57117633
Li       7.44975834       8.10366114       1.32070112
Li       3.37771460       0.73350152       2.01479745
Li       3.92123477       3.54913709       6.98983372
Li       4.67459778       6.51323140       2.98435566
P        7.75696323       9.44865390       4.20378416
P        5.85934290       5.21350033       1.07026421
O        3.65377102       5.31895636       6.07975787
O        6.79312618       2.64672271       4.24767212
O        7.46219693       9.48513685       2.69466249
O        9.62962957       6.59452301       1.62990803
N        7.90250490       7.90584998       4.43720222
O        6.15946995       6.66340007       1.45461426
O        4.58600504       0.22565635       0.97937953
O        6.49684769       9.84707721       4.98854498
Li       6.42711080       7.17283259      11.22193935
Li       8.37963330       8.98396535      11.49059927
Li       7.66708027       4.50397380      10.67285600
Li       5.74590492       7.85988131       7.74960826
Li       7.93159317       7.51549605       9.54731583
P        8.27913312       9.65111450       8.23951094
P        4.98967960       6.16174579       5.87429260
O        7.31799943       2.67867137      10.14989257
N        8.69800241       8.10133910       7.91162424
O        6.77534910       9.54267903       8.02642488
O        5.62230706       5.89915229       4.51632143
O        3.80308548       0.09108618       6.72881665
O        8.57871726      10.14611511       9.67704733
124
Lattice="9.63908 0.0 0.0 0.0 10.3723 0.0 0.0 0.0 12.0957" Properties=species:S:1:pos:R:3 material=LiPON model=NEP89 temperature_K=600 phase="NVT production" display_name="LiPON｜NEP89｜600 K｜NVT production計算" report_figures="23_LiPON_lithium_MSD; 24_LiPON_transport_comparison; 25_LiPON_temperature_RDF" source_frame_index=540 relative_time_ps=54.0 pbc="T T T"
Li       3.26726365       9.09528264      12.06644705
Li       4.36469150       3.43165870       4.29773244
Li       8.40408795       3.22226004      12.02529689
Li       0.13468866       7.29377015       4.17600649
Li       0.68170038       8.35223412       0.89354309
Li       5.71175642       9.19357881       9.86224627
P        3.44040809       3.74663653       1.40838268
P        0.82936964       0.51171394       0.24705408
N        0.99278550       3.82217566       4.51510636
O        1.98301814       6.66252937       3.57887294
O        2.02726334       4.32119350       1.31976605
O        5.04935871       0.71698068      10.61874621
O        3.85716302       3.20992835      12.08938016
O        9.40548229       9.85291681       0.76941657
O        8.05411289       7.27780727      11.50701300
O        3.71588650       2.64655351       2.46924728
Li       5.98314872       3.16555047      11.90934734
Li       0.43670976      10.35125858       2.77917586
Li       1.25086455       0.35176173       7.75802387
Li       0.85131278       5.76027315       2.41964393
Li       4.26373338       4.63401073      10.80154492
Li       0.86934462       3.10618826       2.68509631
P        1.63482138       2.95218766       9.02603319
P        9.05661461       3.99874500       4.93763461
O        1.63184541       0.97630967       1.46328104
O        3.32290813       6.02309688       9.80048518
O        2.25122996       1.53421173       8.97832132
O        3.95415395       0.47517786       4.42358970
O        0.05870539       2.83219979       9.02835385
O        8.63256499       2.62794211       5.49947535
O        1.05841713       6.40752169       8.12211151
O        1.83462397       3.70325192       7.72275092
Li       8.83906948       2.19090746       7.61120367
Li       3.47376477       5.55880204       3.72620576
Li       7.15245713       4.89579257       6.47087619
Li       9.47294217       4.78968463       8.20061960
Li       7.86592708       7.08841892       6.13401452
Li       5.16250941       8.71634837       1.98173485
P        2.57053350       7.99562224       2.89649646
P        9.29300281       6.44473380      11.99313502
O        1.02546542       7.76111145       5.90785243
O        4.31117557       5.14574355       1.56998307
O        2.38311902       7.89181987       1.44056110
O        5.68841796       5.20027249      11.71539890
O        2.04715360       9.31452956       3.51901613
O        9.14923622       4.99962667      11.46294404
O        1.89287234       0.04158857      11.31864950
O        4.08428126       8.08341687       3.15746317
Li       0.95962201       3.56173365      11.77360894
Li       1.49613447       5.66615305       5.88117446
Li       3.30096686       8.64593522       7.17705445
Li       1.78071188       2.72463519       6.14963236
Li       1.09534938       9.76116927       4.99777669
Li       1.22987054       9.00963471       9.99705502
P        4.23308398       7.33292898       9.94656906
P        0.66299214       7.78561222       7.44115355
O        0.82360913       7.19727517      11.39821461
O        2.00621801       3.81210998      10.27862228
O        5.75465399       7.11732067       9.72130307
O        3.95627563       7.49313322       5.81108595
O        3.94026524       8.48096253       9.00040169
O        1.48424320       8.87895928       8.08582300
O        2.25647921       4.29320830       4.47818530
O        4.15576327       7.84938910      11.45075846
Li       5.75129256       0.91240072       8.51912150
Li       8.33938768       0.79597654       5.54495697
Li       3.39813633       1.31290581      11.33603144
Li       6.20612697       2.52594981       5.81977900
Li       2.81773736       5.46723194       8.04728507
Li       4.50617951       9.10553905       4.64782099
P        7.43886647       3.38696507       2.89186832
P        5.56644209       0.14439841      12.00038224
O        4.17094786       2.34555187       5.98048185
O        8.91800328      10.06690257       4.29744258
O        0.04707094       1.70712795      11.74664470
N        8.38278197       4.48314940       3.52348699
O        6.45522720       1.26445031       0.48417085
O        6.67063177       4.07630573       1.58886895
O        8.46100227       2.34630937       2.41822832
Li       1.48414511       5.97250630       9.94729670
Li       7.86516334       0.65833068       1.64187417
Li       2.63557418       6.65188021      11.99472666
Li       8.70133663       1.33467298      10.08096261
Li       3.56061822       0.19095871       8.70893226
Li       5.26443338       1.12285705       2.78251181
P        6.62288919       3.49142677       9.01615380
P        3.55955203       0.94594039       5.88608385
O        6.52814919       9.33626473      11.73204638
O        8.77363767       0.35469912       7.39291276
O        5.06805002       3.70985354       9.15036009
O        8.94414796       5.15381730       5.91399800
N        7.24766761       4.87839718       8.59205116
O        1.99952682       0.74791682       6.01904864
O        6.12893571       6.66877170       6.74583189
O        6.98047498       2.53828252       7.86649742
Li       5.31262520       5.56658965       8.38092921
Li       7.94006037       6.26322229       3.09900489
Li       7.56438441       8.00084641       1.25755203
Li       2.86668551       0.63988116       2.67168400
Li       3.92356736       3.38125939       7.55744605
Li       5.71011920       7.38185780       3.68876474
P        7.66288404       9.15521118       3.98491340
P        5.77765779       5.41591408       1.11970872
O        4.21506832       5.19265168       6.86588567
O        6.42936574       2.76858181       3.91407760
O        7.06656489       9.21163969       2.50920741
O        9.36466792       6.76771816       1.47730123
N        7.96609907       7.63632059       4.34687788
O        6.14582226       6.83092946       1.58011150
O        4.47325018      10.32842659       1.02408333
O        6.55838155       9.68693152       5.04226865
Li       6.28192701       7.40594497      11.52026027
Li       8.26864758       9.16317038      11.11491162
Li       7.51610739       5.02233910      10.71156010
Li       5.77702843       9.22171473       6.82361405
Li       7.58100927       6.95091512       8.91986600
P        8.31246745       9.53016943       8.26695829
P        4.85542670       6.26648292       6.00037916
O        7.26013631       3.03902441      10.36903510
N        8.76913384       8.06239208       7.73805292
O        6.79545155       9.58962056       8.33531412
O        5.11672767       5.49955617       4.61902907
O        4.31180520      10.35308147       6.90299563
O        8.98926518       9.74316026       9.66407640
124
Lattice="9.63908 0.0 0.0 0.0 10.3723 0.0 0.0 0.0 12.0957" Properties=species:S:1:pos:R:3 material=LiPON model=NEP89 temperature_K=600 phase="NVT production" display_name="LiPON｜NEP89｜600 K｜NVT production計算" report_figures="23_LiPON_lithium_MSD; 24_LiPON_transport_comparison; 25_LiPON_temperature_RDF" source_frame_index=570 relative_time_ps=57.0 pbc="T T T"
Li       3.06372166       9.22368122       0.20429656
Li       4.30153146       2.75953926       4.04126471
Li       8.00368343       2.86446056       0.41383167
Li       0.16790567       8.34708712       3.37032903
Li       0.74916242       8.46138304       0.79465807
Li       5.72420403       9.44813297       9.67196112
P        3.38731473       3.57819587       1.28399761
P        0.76221290       0.85542507       0.39094074
N        1.24047697       4.01810271       4.27744920
O        1.83130382       6.85869465       3.52351065
O        1.88041011       4.12723378       1.34094966
O        4.79110068       0.45717453      10.62921821
O        3.50524933       3.08489146      11.88881146
O        9.29734915      10.11801986       0.77003737
O        8.08059076       7.04532144      11.38633880
O        3.69905591       2.48705584       2.26481970
Li       5.16285739       2.59314058      10.99919709
Li       0.19106134       0.87129615       3.12810218
Li       1.28773353       0.41153077       7.85201438
Li       0.90863494       5.76721318       2.31446251
Li       3.75905272       4.47326207      10.39400759
Li       1.49312571       3.00560580       2.76552431
P        1.63307999       3.09986999       8.99746931
P        9.35294404       4.17868109       4.97915801
O        1.38082723       1.34093151       1.73616226
O        3.46734563       6.23900957       9.33881486
O        2.32551481       1.71774008       9.21091479
O        4.03286829       0.53562773       4.18993159
O        0.01547010       2.94905857       8.89584751
O        9.27073765       2.76367945       5.53802542
O        0.72088887       6.47849026       8.28807495
O        2.09024549       3.68822403       7.60260220
Li       8.82510991       2.29519023       7.46676249
Li       3.40365430       5.12731765       3.96522812
Li       8.92638242       4.69061057       7.78532849
Li       8.94153560       3.89557462      10.33297695
Li       7.93889579       6.87038725       6.16932387
Li       5.24883108       8.71796688       1.73747238
P        2.62075914       7.99662161       2.87970683
P        9.30961108       6.53911923       0.03010073
O        0.73857841       7.64529008       6.05384456
O        4.25234639       4.79086076       1.83079326
O        2.52115392       7.86619221       1.36809658
O        5.72509390       4.78285358      11.70420599
O        1.75325313       9.31502127       3.25237402
O        9.17051621       4.98137349      11.87362033
O        1.80782686       0.09618913      11.53682480
O        4.07581249       8.17726325       3.28282648
Li       1.06597995       3.48805536      11.99294148
Li       1.70209115       6.13240677       5.32523379
Li       3.17712119       8.32542894       7.20208052
Li       1.82432633       2.68558682       6.15656130
Li       1.31409735       9.74913758       5.18940471
Li       0.98662018       8.95993478      10.16767818
P        4.28534724       7.38674932       9.91424457
P        0.54149546       7.86776613       7.54998459
O        0.95080964       6.99209623      11.32403911
O        1.87153294       4.09892970      10.18939413
O        5.85302953       7.09431424       9.73908873
O        3.57986555       6.54455846       6.03615491
O        3.99387540       8.71553989       8.98365559
O        1.58640907       8.74272701       8.25569005
O        2.49878159       3.70212488       4.58638452
O        4.09237202       7.74550123      11.37507413
Li       5.80210686       0.99662170       7.40719428
Li       7.95440765       0.85833725       5.63339108
Li       3.15863306       1.33064456      11.47118716
Li       6.17795666       3.08644811       5.75880758
Li       2.60864194       5.55671220       7.83853723
Li       4.86743038       9.28319032       4.65800023
P        7.44946664       3.37971217       3.13051290
P        5.52194824       0.15464037      12.03586016
O        4.37172572       1.97959535       6.25757471
O        8.97140100       9.99411953       3.97071286
O        0.06091718       1.99049314      11.69863106
N        8.39661810       4.57903850       3.72553964
O        6.35710981       1.40381735       0.34612975
O        6.81318011       4.20030046       1.81546558
O        8.18988918       2.14311878       2.62861447
Li       1.53170215       5.86715506       9.89192714
Li       7.58521770       0.70549076       1.53107759
Li       2.64095472       6.60201608       0.15537172
Li       8.74625374       1.34476021      10.10273299
Li       3.36877259       0.27499499       8.57843445
Li       5.35483432       1.49734891       2.13703373
P        6.65327608       3.47467456       9.00712799
P        3.63627552       0.73622711       5.69537418
O        6.47244338       9.34097512      11.73287577
O        9.02780920       0.42118116       7.54115937
O        5.09270149       3.59574209       9.21307507
O        9.39045760       5.35282237       6.03341709
N        7.35564687       4.88084236       8.98199397
O        2.13608596       0.91080574       6.01144092
O        6.01536388       7.09468792       6.54877066
O        6.85738575       2.78425164       7.63747406
Li       5.41318560       5.45365319       8.85921427
Li       7.70119004       6.01618921       2.91058060
Li       7.73990318       8.15222577       1.42278195
Li       3.05211412       0.63906410       2.57386659
Li       3.89887825       3.34897051       7.50285222
Li       5.61610128       7.20602996       3.54974590
P        7.55128873       9.28955698       3.81549205
P        5.70001140       5.14580255       1.10453523
O        5.21902908       4.66205640       6.69659475
O        6.29139233       2.89949640       3.95803309
O        6.85447128       9.69900142       2.58384708
O        9.37856025       6.92461175       1.53498369
N        7.68789258       7.64387293       3.73138245
O        6.05429402       6.61703191       1.39349242
O        4.38102439      10.19748362       0.96758702
O        6.69045325       9.75422125       5.06656883
Li       6.18200594       7.46627181      11.82813545
Li       8.25237390       9.27152547      11.35969885
Li       7.01439597       5.49565955      10.86589211
Li       5.78629159       8.98592269       6.85376078
Li       7.92870638       6.86960198       9.27909911
P        8.25971360       9.73057371       8.26459901
P        5.08899169       6.00431670       5.98005209
O        7.19470919       2.74541736      10.22833672
N        8.62370918       8.22587221       7.83357324
O        6.75028796       9.91962813       8.20787887
O        5.50562684       5.67561035       4.47966302
O        3.99650942       9.75411879       6.45201370
O        8.65769191       9.80011601       9.74859496
124
Lattice="9.63908 0.0 0.0 0.0 10.3723 0.0 0.0 0.0 12.0957" Properties=species:S:1:pos:R:3 material=LiPON model=NEP89 temperature_K=600 phase="NVT production" display_name="LiPON｜NEP89｜600 K｜NVT production計算" report_figures="23_LiPON_lithium_MSD; 24_LiPON_transport_comparison; 25_LiPON_temperature_RDF" source_frame_index=600 relative_time_ps=60.0 pbc="T T T"
Li       2.80690974       9.11924116       0.11737177
Li       4.21936984       3.12889513       3.88556307
Li       7.67561973       3.23013739       0.27172144
Li       0.22141878       7.09783414       4.71688948
Li       0.20300223       8.27891707       2.02389346
Li       4.44749976       1.64578173       8.74297544
P        3.36899652       3.64987743       1.08832914
P        0.57865429       0.73745854       0.46032336
N        1.08668767       4.04995991       4.26453714
O        2.27575351       6.91899474       3.89104190
O        1.92169442       4.02749168       1.19001583
O        4.58706053       0.53178180      10.84871637
O        3.79097473       3.33979283      11.67897987
O        9.16224917      10.00110431       0.83899647
O        8.53469324       7.26957499      11.40787250
O        4.05737641       2.67836568       2.04994067
Li       5.59548028       3.07308456      11.12629751
Li       0.57533776       1.02150513       3.59561339
Li       1.13592255       0.43646972       7.48344522
Li       1.50136127       5.51484462       2.99342864
Li       3.69209570       4.45130986      10.18619161
Li       0.57025210       3.54768428       2.36335501
P        1.58004298       3.02486797       8.71924173
P        9.24221268       4.17750168       5.09857320
O        1.28160985       1.10921491       1.69901339
O        3.54515881       6.21365501       9.57365170
O        2.05414783       1.52619028       8.93597615
O        4.11752055       1.12514195       4.39952598
O        0.03706841       3.02554306       8.58551619
O        9.23038845       2.77403011       5.77026508
O        0.76012843       6.41848203       8.48468207
O        2.13910098       3.78090431       7.47809940
Li       8.65844177       2.07201525       7.40036393
Li       4.42181587       6.36624501       3.10914631
Li       9.20039795       4.87906373       8.03871461
Li       8.72903599       3.71071480      10.31112060
Li       7.52657494       7.34495511       6.27690900
Li       4.96329599       8.22241265       1.02761801
P        2.66365868       8.25870246       2.98293570
P        9.57597836       6.36954437       0.09499247
O        1.02376156       7.96462714       6.46060555
O        4.25646606       5.04644525       1.46374322
O        2.06218707       8.18518428       1.54981634
O        6.38696376       4.47467414      12.07308952
O        2.08571053       9.45709248       3.63250407
O        9.07643082       4.85280373      11.70248080
O        1.50505897       0.06179285      11.38092697
O        4.26162292       8.32226209       2.90170585
Li       0.95600205       3.50795228      11.73778067
Li       2.29456748       5.74519769       5.38504205
Li       2.72792542       8.06632124       5.89573069
Li       1.69498385       2.57687404       5.88164271
Li       1.01264362       9.41994663       5.29490256
Li       9.60367556       8.78299955      10.78566952
P        4.37330013       7.31654989      10.21371512
P        0.51057609       7.91613283       7.90590131
O        1.33553728       6.56782089      11.62483205
O        1.77233116       3.74681916      10.06525440
O        5.89440499       6.77846212      10.14085239
O        3.67995147       6.50910455       6.37873583
O        4.39819509       8.64101467       9.35078225
O        1.36500233       8.96480457       8.51373085
O        2.18523363       3.44390107       4.24886300
O        3.96822480       7.64807980      11.66969202
Li       6.16181732       0.19793470       6.53529561
Li       8.25392368       1.31827950       4.98924021
Li       2.77127165       1.29051598      10.82210229
Li       5.91219635       2.94722550       6.09072453
Li       2.59775743       5.88408406       7.91052262
Li       5.08269299       8.18388806       4.47755957
P        7.34324371       3.38058094       3.37525249
P        5.33229140       0.29751780       0.08977877
O        4.50993869       1.68911915       6.68672086
O        8.97718913      10.22671237       3.98897696
O        9.45802378       1.90635918      11.66479586
N        7.95371825       4.59162760       4.28331685
O        6.25340902       1.50428791       0.39800856
O        6.32172275       4.28355123       2.50808762
O        8.19990701       2.77378166       2.22680359
Li       1.34870202       5.78035283      10.09488550
Li       7.97722808       0.74281147       1.75300881
Li       2.88029318       6.64930525       0.66957041
Li       0.50471631       0.76350651       9.59422367
Li       2.83296446       9.65235296       9.42695615
Li       5.56442741       1.06944503       2.97161113
P        6.62001216       3.35949968       8.83354279
P        3.72741145       0.65774419       5.75908341
O        6.34632557       9.47132246      11.90642647
O        8.65353174       0.15298902       7.04362355
O        5.02669926       3.67251639       8.94885536
O        9.46550743       5.27870422       6.14505230
N        7.37803142       4.78384675       8.82207334
O        2.16956690       0.72017251       5.89616214
O        6.15424099       6.13515819       6.94831345
O        7.00872901       2.53708080       7.53427518
Li       5.57196474       5.72873753       8.65139108
Li       7.67060348       8.70486735       0.96480324
Li       5.79864069       9.83423713       9.82528235
Li       2.92831898       0.48714692       2.66997348
Li       4.01502204       3.45868628       7.36621110
Li       7.97602223       6.21696081       2.72438924
P        7.71274775       9.31625181       3.87513749
P        5.91189838       5.23392836       1.31080075
O        4.77447058       4.29806628       5.80346687
O        6.54202785       2.39920598       4.22755235
O        6.81093213       9.79397890       2.72373692
O        9.55864346       6.32584001       1.60839631
N        8.33570209       7.97560881       3.45818452
O        6.28101313       6.69490861       1.40980387
O        4.35076561      10.31082548       1.13976339
O        6.83189201       9.20093475       5.17054994
Li       6.81856344       7.79146018      11.27708662
Li       7.60228634       0.95492678      10.98288185
Li       6.87709715       5.30661014      10.54667761
Li       4.95289142       8.30550062       7.73657305
Li       7.81957340       6.75742958       8.88181017
P        8.08273633       9.73576266       8.21260353
P        5.04702947       5.84170593       5.91675672
O        7.14950042       2.52483600      10.05936576
N        8.59892161       8.20991278       8.02424693
O        6.50060157       9.72026727       8.15743880
O        5.55850756       6.46661135       4.51157219
O        4.07178295       9.44603020       5.86218962
O        8.57235552      10.34619108       9.55089941
124
Lattice="9.63908 0.0 0.0 0.0 10.3723 0.0 0.0 0.0 12.0957" Properties=species:S:1:pos:R:3 material=LiPON model=NEP89 temperature_K=600 phase="NVT production" display_name="LiPON｜NEP89｜600 K｜NVT production計算" report_figures="23_LiPON_lithium_MSD; 24_LiPON_transport_comparison; 25_LiPON_temperature_RDF" source_frame_index=630 relative_time_ps=63.0 pbc="T T T"
Li       2.86044945       9.30128562       0.92868184
Li       3.88025857       3.71626420       3.91941905
Li       8.01025433       3.18891858       0.08435170
Li       0.24331786       7.47187957       5.06468350
Li       9.06539407       8.18980905       1.86863812
Li       4.30427045       1.75765747       8.85537435
P        3.34887097       3.56633024       1.02762773
P        0.56500988       0.52377423       0.36145730
N        0.96969951       4.03005421       4.01178701
O        2.72185072       6.22833844       3.38855175
O        1.84534450       3.88499280       1.09991584
O        4.90789583       0.63911004      10.63825439
O        3.94560050       3.07525611      11.74842538
O        9.14743624       9.76694043       0.66061907
O        8.19458846       7.08970414      11.32590708
O        3.78286632       2.72462078       2.21174640
Li       5.71888857       2.68106589      11.27412176
Li       1.20019227      10.17852298       3.70406708
Li       2.72067596       9.89606834       8.36716057
Li       1.41724354       5.35587011       2.49179626
Li       3.96920485       4.41541217      10.26236925
Li       0.66659429       2.47325987       2.53601791
P        1.85807518       2.94425399       8.79467695
P        9.19456154       4.42193503       4.89035030
O        1.37750377       0.87949768       1.64120523
O        3.39373410       6.27830404       9.49797581
O        2.57294884       1.53282435       8.95999766
O        4.22373410       0.73159631       4.28890020
O        0.30912101       2.84751349       8.70713530
O        8.98588944       3.29102975       5.91008728
O        0.79925080       6.25571617       8.35091422
O        2.42559648       3.80584580       7.58798866
Li       8.50833483       1.93264868       7.82973483
Li       4.70634376       6.49550394       3.14276172
Li       9.13960846       4.63638489       7.59247636
Li       8.94326303       3.84982724       9.89078952
Li       7.41214049       7.06413901       6.57699686
Li       5.61546734       9.15314193       2.23209578
P        2.49749262       7.77791305       3.04980191
P        9.33495990       6.22612436      11.93103682
O        0.78329291       8.20236842       6.66387383
O        4.12180624       5.00361623       1.01036055
O        1.81607565       7.92571809       1.70106602
O        6.30076764       4.41205497      11.92092860
O        1.73043127       8.36578071       4.18826181
O        9.03825420       4.88902541      11.39412551
O        1.69350170       0.13597168      11.33454638
O        3.91102362       8.34932714       2.86991956
Li       0.88684386       3.47702723      11.57112425
Li       2.19633810       5.46583737       5.08333059
Li       2.48113364       8.42295639       5.99772448
Li       1.52145385       2.52804107       6.18597896
Li       0.62588000      10.12283697       6.17940785
Li       1.42023375       8.37339425      11.04150262
P        4.22147396       7.36503803      10.10047468
P        0.51029916       7.79213066       8.21003151
O        1.05867343       6.66920282      11.54797080
O        2.08866649       3.81585251      10.04716584
O        5.68857801       6.94736075      10.23268477
O        3.29165109       6.43909356       6.17464270
O        4.17072876       8.62219551       9.15379336
O        1.38070300       8.68751995       9.10033037
O        2.08446409       3.40362729       4.28359679
O        3.52107488       7.95478043      11.44404966
Li       6.36864444       0.86577729       6.32473207
Li       8.64631065       1.65287853       4.97753678
Li       2.86327229       1.81347957      10.88647218
Li       6.17676314       3.29302828       5.64479880
Li       2.40301627       5.62517838       7.62858149
Li       5.05976725       8.85805598       4.75855677
P        7.42761467       3.48714763       3.03369241
P        5.57611163       0.23680629      11.97679131
O        4.30734377       1.64409506       6.65388170
O        9.20269344      10.32757641       4.38647363
O        9.54573608       1.77410735      12.04382715
N        7.99095463       4.80698822       3.86104175
O        6.56555407       1.35860499       0.29063994
O        5.99595678       4.02268536       2.38048049
O        8.40136321       3.02281460       2.00301857
Li       1.75779987       6.02983719       9.92661294
Li       8.11876797       0.78417083       1.71587447
Li       2.99358704       6.65627041       0.58776762
Li       0.75648405       0.14857476       9.48936977
Li       3.44044932       9.86687147      10.74099506
Li       5.93964639       0.93918064       3.51222827
P        6.51888778       3.46169458       8.79352136
P        3.54162046       0.69187527       5.73937693
O        6.26058001       9.20537389      11.70319022
O        8.80399846       0.33926130       7.24121500
O        4.96643986       3.64777841       9.09887246
O        9.57439852       5.67431783       5.65935270
N        7.42595481       4.77043347       8.88415725
O        2.01736923       0.76975032       5.67757722
O        5.64626965       6.68204815       7.15460043
O        6.76054637       2.78255954       7.38764912
Li       5.13131363       5.65833179       8.78533688
Li       8.06902509       9.09314576      11.29206352
Li       5.84229428       9.52257263       9.83135676
Li       3.57782336       1.03182868       2.32755501
Li       4.29896281       3.49993112       7.13672764
Li       7.69007665       6.49408180       3.20380842
P        7.87040678       9.46978701       4.06139677
P        5.79751139       4.93591824       1.10727600
O        4.85300924       4.60338407       5.77699025
O        7.04841528       2.45917882       4.05703666
O        7.18342926      10.11438992       2.73512885
O        9.16887343       6.23180421       1.34321002
N        8.47455485       8.01878397       3.82560002
O        6.18083785       6.32826398       1.58329237
O        4.65692031      10.34080340       1.08837102
O        6.87478237       9.50951740       5.16221229
Li       6.50151527       7.47189298       0.00057485
Li       7.92496478       1.41507283      10.89416897
Li       7.23214310       5.57609155      10.77091672
Li       4.87910609       8.61662862       7.57203823
Li       7.50450489       7.11838575       9.50948192
P        8.09195274       9.77129944       8.35414295
P        4.74472345       6.15178671       5.96307233
O        7.17930806       2.76007220      10.06330194
N        8.52815742       8.25833312       8.39301196
O        6.59366689       9.76543456       7.96700234
O        5.34939650       6.93825925       4.73934662
O        3.90920541       9.62235562       6.32185054
O        8.26397882      10.19650847       9.83242729
124
Lattice="9.63908 0.0 0.0 0.0 10.3723 0.0 0.0 0.0 12.0957" Properties=species:S:1:pos:R:3 material=LiPON model=NEP89 temperature_K=600 phase="NVT production" display_name="LiPON｜NEP89｜600 K｜NVT production計算" report_figures="23_LiPON_lithium_MSD; 24_LiPON_transport_comparison; 25_LiPON_temperature_RDF" source_frame_index=660 relative_time_ps=66.0 pbc="T T T"
Li       3.13887757       9.14727482       0.29310547
Li       4.35017035       2.87329188       4.15010774
Li       8.47606229       3.09183672       0.61244827
Li       0.15276894       7.27408155       4.94016609
Li       9.31219663       8.32681445       1.99398649
Li       3.58486588      10.34261958       9.45330121
P        3.28828198       3.57084945       1.36712685
P        0.51104832       0.71013370       0.33922095
N        0.90611375       4.20815078       4.30521126
O        1.98537847       7.08773496       3.87911957
O        1.90962622       4.23888699       1.33469615
O        4.73695657       0.67172601      10.88249977
O        3.79377588       3.13772982       0.02110581
O        9.02826601      10.19062887       1.00546141
O        8.27802928       6.89032746      11.24495177
O        3.39117217       2.52322779       2.43922723
Li       5.58830035       2.48350118      11.44558724
Li       0.48919497       0.70330587       3.04711593
Li       2.98924763       8.08974780       7.73404578
Li       1.17006703       5.50994165       2.60281526
Li       4.08630729       4.33149430      10.40290581
Li       0.81414212       3.15305151       2.45371864
P        1.93832368       3.16442885       8.66839162
P        9.06261213       4.39921118       5.05127867
O        1.40416002       1.25267991       1.45638749
O        3.75820795       6.19136841       9.05879629
O        2.41502086       1.70769974       8.93303734
O        4.11438775       1.10391961       4.42671134
O        0.38038053       3.21850236       8.34202915
O        8.87506539       3.04080063       5.79428098
O        0.72661949       6.46496818       8.22634318
O        2.68515317       3.79360926       7.44999543
Li       8.91891174       2.12815649       7.36681051
Li       3.95020946       6.18792113       3.33519846
Li       9.22109195       5.12681998       7.90798547
Li       9.35696044       2.51004508       9.80962698
Li       7.68933971       7.25333366       6.62569269
Li       5.58569481       8.68116372       1.87831721
P        2.57239500       8.25495837       2.92176676
P        9.47533931       6.19942215       0.02062156
O        0.82944622       8.18430418       6.30750539
O        4.30854105       4.97751992       1.68632265
O        2.19441277       8.00611206       1.43924124
O        5.74230744       5.09335973      11.72512916
O        1.98953788       9.67037860       3.36635116
O        9.36671443       4.63523049      11.71475225
O        1.44038325      10.28916164      11.49184955
O        4.12839472       8.25596566       2.99757241
Li       1.17230337       3.61326780      11.71780773
Li       2.19019007       5.32846236       5.20766727
Li       2.57265226       7.85851123       5.53944649
Li       2.26445668       2.63899397       5.99194785
Li       0.33366231       9.91665543       5.69812270
Li       1.82940049       8.18024059      10.48485642
P        4.36830013       7.48201408       9.77364364
P        0.47438213       7.90009517       7.82965232
O        1.19154482       6.73425994      11.55671314
O        2.15668059       3.91596627      10.02079360
O        5.89526880       7.24439565       9.94461810
O        3.50307732       6.54871579       6.46756304
O        4.34089473       8.72617223       8.74965858
O        1.41597950       8.96824151       8.67097909
O        2.02680748       3.60997428       4.33944158
O        3.57771054       7.74159543      11.09309314
Li       6.07928220       0.38165290       6.67265139
Li       7.77369740       1.73496348       4.81843538
Li       2.72092305       1.57710421      11.24462357
Li       6.59159734       3.67772284       5.73660963
Li       2.41165482       5.54983058       7.68136737
Li       4.92754009       8.43977426       4.76860384
P        7.45378402       3.49115587       3.06833899
P        5.40894649       0.13747454       0.03758712
O        4.40155410       1.08396135       6.76431802
O        8.77680840       0.08242104       4.46256098
O        9.53574011       1.80934284      11.59528779
N        7.90167222       4.64798067       4.06901635
O        6.50339530       1.25812640       0.43454868
O        6.64953725       4.01415969       1.79123607
O        8.58960334       2.66722907       2.58101105
Li       1.69161939       5.73569712      10.08084095
Li       7.52198852       0.84619535       1.91277051
Li       2.78712983       6.26073679       0.34056737
Li       0.52895203       0.08587278       9.84616943
Li       1.84313280       0.00328913       7.67486908
Li       5.20304599       0.96431194       2.94588501
P        6.75239978       3.39823888       8.75892020
P        3.59088805       0.42692528       5.70578069
O        6.07450037       9.11331010      12.00434557
O        9.22646485       0.38080612       7.79037406
O        5.23054218       3.77546041       9.11442251
O        8.96687819       5.74723370       5.76286502
N        7.52413050       4.77136657       8.84324990
O        2.12552019       0.79651957       6.02491200
O        5.97752862       6.31045902       7.01347165
O        6.74690980       2.63548956       7.40872600
Li       5.75990969       5.53650939       8.81113024
Li       8.05546573       9.10247511      11.55019975
Li       5.91949734       9.36055953      10.08466162
Li       2.93118503       0.54099342       2.30901139
Li       4.54685982       3.09092262       7.36932485
Li       7.33016265       6.34325925       3.44977350
P        7.59616396       9.36604595       4.22888219
P        5.83966090       5.28521837       1.13459931
O        4.74633150       4.41436567       6.02363628
O        6.48616473       2.71491026       3.99337722
O        6.73907811       9.98591164       3.08720198
O        9.33453771       6.47548188       1.50383797
N        8.28463695       8.00819625       3.73931325
O        6.32998903       6.56613571       1.75762096
O        4.36988799       0.12923129       1.21056013
O        6.84452814       9.06695971       5.53746975
Li       5.82787144       7.05680108      11.59642692
Li       7.71551316       1.07233434      11.00036291
Li       7.51541500       4.62357618      10.88749827
Li       5.43215392       8.27006670       7.43127817
Li       7.89697910       6.74821809       9.42559259
P        8.21084341       9.81379845       8.46478293
P        4.92854843       5.96968238       5.97476535
O        7.46302140       2.56671636      10.01361964
N        8.61119273       8.26997768       8.23194498
O        6.78212753      10.10691515       8.11268377
O        5.37168603       6.49913517       4.59247323
O        3.88457680       9.23482758       5.96301322
O        8.35465172       9.95185969       9.98879359
124
Lattice="9.63908 0.0 0.0 0.0 10.3723 0.0 0.0 0.0 12.0957" Properties=species:S:1:pos:R:3 material=LiPON model=NEP89 temperature_K=600 phase="NVT production" display_name="LiPON｜NEP89｜600 K｜NVT production計算" report_figures="23_LiPON_lithium_MSD; 24_LiPON_transport_comparison; 25_LiPON_temperature_RDF" source_frame_index=690 relative_time_ps=69.0 pbc="T T T"
Li       3.11649196       8.94811855       0.12990046
Li       4.33191049       3.06930228       4.19870139
Li       8.34327229       3.00547655       0.10846623
Li       9.53272257       7.52714859       4.71101508
Li       9.54187740       7.97968742       1.64199032
Li       3.21667463       9.85777471       9.90804854
P        3.40804560       3.70073587       1.43548922
P        0.69428124       0.59667159       0.37732096
N        1.05494693       4.30263037       4.73554576
O        1.78321563       7.23997494       3.95833661
O        2.07683650       4.49226689       1.41147752
O        4.95841811       0.61306579      10.56076907
O        3.66460390       3.25593728      12.05260394
O        9.33142783       9.99798466       0.99770803
O        8.30123030       7.03996305      11.32191774
O        3.48883161       2.55219189       2.44251698
Li       5.76408614       2.94068402      11.76791524
Li       0.41807053       0.36688972       2.76185171
Li       3.25225906       7.91343068       7.63053500
Li       1.14066504       5.33718446       2.72523770
Li       3.92330287       4.02475146      10.27284312
Li       1.33721932       2.74172683       2.72461957
P        1.75367809       2.92719281       8.76944071
P        9.00760984       4.46369084       5.00089313
O        1.47108059       1.35054375       1.40979750
O        3.56227960       6.42204461       9.09421736
O        2.12933283       1.54773059       9.16746027
O        4.04617444       0.86477215       4.60310255
O        0.25301280       3.25708578       8.55198150
O        8.63734732       3.21343459       5.69188463
O        0.88070490       6.40270325       8.24384976
O        2.47644319       3.43612884       7.47283705
Li       8.61898155       1.93269894       7.39355641
Li       4.50138192       6.36662736       3.05943530
Li       8.77270040       4.51226068       7.66337938
Li       9.14798361       3.18106255      10.10439363
Li       7.77851401       7.33505402       6.52767173
Li       5.42577724       8.77250686       1.94217575
P        2.42165952       8.40084122       3.16865270
P        9.35597162       6.09326046      11.81100807
O        1.03213757       8.13106835       6.42790671
O        4.53363487       4.72228855       2.07409968
O        2.21858103       7.96082554       1.60227324
O        5.63986251       4.89091910      11.75261651
O        1.90416565       9.78186106       3.60128765
O        9.05059851       4.60861103      11.42164012
O        1.66989104      10.09269189      11.50131179
O        3.88369491       8.40502566       3.40795070
Li       1.51505559       3.73701051      11.62596253
Li       1.60987527       5.83117604       5.80663184
Li       2.75588138       8.04989925       5.49243903
Li       1.14352982       2.91079201       5.99004360
Li       0.48278110       9.93468270       5.54353041
Li       1.36159670       8.39146666      10.82543985
P        4.44215847       7.51645758       9.71544453
P        0.68484506       7.87760561       7.94020707
O        1.12538595       6.52739432      11.36875174
O        2.20514512       4.00632886       9.87628918
O        5.90443858       7.14071015       9.79862075
O        3.58839997       6.22002264       6.27652639
O        4.42788889       8.80333598       8.85032902
O        1.59805019       8.87546157       8.77838604
O        2.19426601       3.74602237       4.35741806
O        3.98826669       7.71597229      11.15448534
Li       4.68106073       1.32818080       8.92158051
Li       7.03027128       0.47941205       6.44668023
Li       3.04900030       1.61494212      11.49778206
Li       6.44649148       3.28536193       5.97058920
Li       2.83112973       5.20878869       7.91403891
Li       5.07564333       9.28255446       4.54504510
P        7.66553649       3.48653450       2.77815265
P        5.42116218       0.25114811      12.03604593
O        4.25520220       1.21530376       7.15321776
O        8.71380332       0.08055705       4.33958445
O        9.54974833       1.57952368      11.43701618
N        8.32075933       4.65898928       3.61375153
O        6.19814695       1.42873517       0.60643347
O        7.10039494       4.43273223       1.61541015
O        8.77866079       2.69770983       2.00257423
Li       1.67111595       5.82256963       9.77672902
Li       7.45604479       0.80237688       1.92853439
Li       2.59150613       6.54829251       0.63245534
Li       0.64432569       0.61408662      10.03197106
Li       1.44961377       0.01719107       7.79833101
Li       5.11080730       1.56888638       2.63969390
P        6.50919431       3.30453125       8.92500721
P        3.57288277       0.42250704       5.97584320
O        6.32854572       9.36464470      11.85870823
O        9.29266072       0.33473080       7.69648040
O        4.99430962       3.62284789       8.89046660
O        8.87911824       5.65772363       6.00935569
N        7.24276897       4.78480090       8.80350686
O        2.07893300       0.58135806       6.08222769
O        5.89441174       6.56217812       7.06100742
O        6.96446974       2.58141501       7.61272467
Li       5.57303393       5.73957199       8.68885777
Li       8.06674481       9.25975933      11.81219790
Li       6.18056095       9.27684464       9.84369466
Li       3.12589849       0.75210240       2.29660196
Li       4.08488905       3.09385216       7.18707871
Li       7.29316092       6.44209868       3.16640636
P        7.64413826       9.43314954       4.08843165
P        5.77102192       5.27801983       1.14464285
O        5.12478032       4.35537782       5.77748313
O        6.50934195       2.71688704       3.37803668
O        6.57125827       9.96617191       3.13722399
O        9.35649373       6.26613564       1.28418661
N        8.29767466       8.19144272       3.43148797
O        6.03413985       6.80707539       1.55779605
O        4.29986377      10.23191244       0.98137904
O        6.98928066       9.00139253       5.43850726
Li       6.53010183       7.23458445      11.74997767
Li       7.57515035       0.93981188      10.96691045
Li       7.20225832       4.70446366      10.66441216
Li       5.78713005       8.51161805       7.04344924
Li       7.67683939       6.91100981       9.11958966
P        8.26895657       9.71083078       8.38821192
P        5.03504492       5.86004692       5.93805226
O        7.15337359       2.75069233      10.18201115
N        8.75627160       8.20472995       7.95103638
O        6.80256471       9.98707844       8.07654838
O        5.62517191       6.60732458       4.68114781
O        3.95186459       9.21817027       6.11482759
O        8.49692624       9.76182460       9.90419824
124
Lattice="9.63908 0.0 0.0 0.0 10.3723 0.0 0.0 0.0 12.0957" Properties=species:S:1:pos:R:3 material=LiPON model=NEP89 temperature_K=600 phase="NVT production" display_name="LiPON｜NEP89｜600 K｜NVT production計算" report_figures="23_LiPON_lithium_MSD; 24_LiPON_transport_comparison; 25_LiPON_temperature_RDF" source_frame_index=720 relative_time_ps=72.0 pbc="T T T"
Li       3.28940157       9.41789402       0.22467883
Li       4.22196743       3.11225884       4.04540236
Li       7.64636261       3.19284179      12.07195552
Li       0.09805696       7.90720658       4.80175031
Li       8.98540811       7.98806834       2.04330340
Li       3.20073654      10.12880679       9.88507224
P        3.33600568       3.64616316       1.33872686
P        0.81345820       0.38674693       0.38351185
N        1.16359799       3.81166938       4.20013626
O        2.72871852       6.55847240       3.29105273
O        1.85358650       3.68500333       1.50318703
O        4.71796281       0.36404475      10.61338903
O        3.68721190       3.15294981      12.02967727
O        9.34841699       9.80127617       0.81372217
O        8.21174644       6.86627383      11.33490171
O        3.77921355       2.60075829       2.37200234
Li       5.43381532       2.68344853      11.19078487
Li       0.76086293      10.35083603       3.05919501
Li       3.08221588       8.00800469       7.58837400
Li       1.33093603       5.30570314       2.66733400
Li       3.63048404       4.17558927      10.39416324
Li       0.37319215       2.39080414       2.03969825
P        2.04132668       2.95178466       8.87420987
P        9.38537634       4.44087826       4.79714416
O        1.67532131       0.81090245       1.58455535
O        3.54694957       6.13942474       9.53735556
O        2.75303236       1.53472731       9.07551149
O        3.90792626       0.91931476       4.31298741
O        0.63123979       2.44729131       8.37612976
O        9.18173575       3.78080197       6.11498699
O        0.73384433       6.42919839       8.15314993
O        2.74611592       3.83559658       7.85443214
Li       8.64069474       2.40622908       7.25651277
Li       4.78612000       6.69866498       3.11590806
Li       9.20695101       5.12794707       7.47214474
Li       9.28058908       3.82659198      10.07210914
Li       7.22884577       7.73356546       5.92304978
Li       5.69689719       8.87457065       1.83898458
P        2.57896962       7.99811377       2.89325321
P        9.29307113       6.12481925      11.97604046
O        1.05422573       8.30754311       6.38858778
O        4.00588016       5.16866355       1.45922777
O        2.13442967       8.04658452       1.49545105
O        6.25215790       4.63397226       0.03112779
O        1.73718181       8.96174890       3.82201019
O        9.23542730       4.58369672      11.62602387
O        1.83795462      10.03397143      11.51246796
O        4.10337441       8.69896051       2.98021611
Li       0.88786955       3.44323442      11.93569854
Li       2.14850416       5.77851376       5.04532745
Li       2.72164890       8.28585116       5.28922977
Li       1.73132181       3.03067059       6.41389752
Li       0.36791815      10.09339401       5.64390112
Li       1.61037875       8.36910188      10.77148488
P        4.29955347       7.35531511      10.13864221
P        0.61553401       7.91396678       7.85556089
O        1.01047579       6.72598264      11.40990604
O        1.70619248       3.69656834      10.19961898
O        5.86099384       7.07324419      10.20753756
O        3.35571439       6.50946463       6.44667682
O        4.37436051       8.60182371       9.12299233
O        1.49003730       8.76543904       8.75107681
O        2.26931315       3.22272984       4.48948932
O        3.51826650       7.89466634      11.33063110
Li       4.65064202       1.58838596       9.01182789
Li       6.43902728       1.36656039       5.69476121
Li       2.76548883       1.76261471      11.26792342
Li       6.94188927       3.70412243       5.48108536
Li       2.43087291       5.56548245       7.84814758
Li       4.82663627       8.89888989       4.65960385
P        7.22320365       3.30275629       3.12627801
P        5.55125207       0.14790051      11.91594646
O        4.63260681       1.37390630       6.61116742
O        8.76540352       0.20430875       4.40047470
O        0.28292527       1.68853206      11.89197180
N        8.05090540       4.20814493       4.01049601
O        6.42648080       1.37824379       0.02667479
O        6.03941751       4.29879835       2.61462072
O        8.08752001       2.83696579       1.94780590
Li       1.37431963       5.70759410       9.97817269
Li       7.68402577       0.68920523       1.47526926
Li       2.58572426       6.77027617       0.45951245
Li       0.02203439       1.43090654       9.99632858
Li       1.01402543       0.55979373       8.10894727
Li       5.52321160       1.09078152       2.80276050
P        6.67440570       3.47270634       8.71939988
P        3.57631526       0.59404927       5.76778116
O        6.37284921       9.21944850      11.85207372
O        8.91436808       0.33536439       7.46370066
O        5.13964642       3.52573402       9.06255306
O        0.06463044       5.95273474       4.80179675
N        7.33708407       4.94237379       8.75667234
O        2.09411324       1.02855349       6.10494540
O        5.80219326       6.49519036       7.16350788
O        6.82633970       2.70675947       7.27625440
Li       5.39182523       5.48276255       8.86551662
Li       8.39547360       9.32455643      11.67661399
Li       6.08951351       9.00342563      10.01757295
Li       3.34578869       0.45646978       2.51134131
Li       4.67369571       3.26743838       7.16826204
Li       7.82679739       6.24999946       3.25686636
P        7.57775578       9.71309700       4.08302440
P        5.76889603       5.25161017       1.29659889
O        4.87967939       4.56194465       5.63596062
O        6.55624104       2.21902968       3.92138226
O        6.80980968      10.12767312       2.75420253
O        9.36760555       6.26408967       1.39396902
N        7.94825535       8.18755158       4.01248703
O        6.19582863       6.64553048       1.72996400
O        4.68195235       0.11925003       1.13228000
O        6.63466507       9.70361568       5.37904926
Li       6.63097761       7.35971703      11.97116800
Li       7.39581798       1.00066628      10.45594921
Li       7.26252328       5.13283640      10.69920377
Li       5.19968090       8.84838710       7.48344306
Li       7.67503185       6.97134354       9.24765282
P        8.19473620       9.67741158       8.40511286
P        4.76076731       6.07291567       6.01339566
O        7.39886513       2.74210858       9.88627862
N        8.70028469       8.24885814       8.13215489
O        6.72491352       9.70044148       8.25392796
O        5.31498242       6.91305474       4.82231512
O        3.79342088       9.43505498       6.11211970
O        8.65697727       9.96512136       9.87920530
124
Lattice="9.63908 0.0 0.0 0.0 10.3723 0.0 0.0 0.0 12.0957" Properties=species:S:1:pos:R:3 material=LiPON model=NEP89 temperature_K=600 phase="NVT production" display_name="LiPON｜NEP89｜600 K｜NVT production計算" report_figures="23_LiPON_lithium_MSD; 24_LiPON_transport_comparison; 25_LiPON_temperature_RDF" source_frame_index=750 relative_time_ps=75.0 pbc="T T T"
Li       3.30325498       9.25912878       0.45306448
Li       4.06493400       3.79935363       4.28230683
Li       9.13931833       2.94343131       1.06782956
Li       0.09349903       7.51821831       4.55581818
Li       9.04236497       8.82588535       2.02583134
Li       3.15751265       9.96494036       9.84041260
P        3.40456899       3.68028824       1.33976692
P        0.74432504       0.63263152       0.36867084
N        1.10440471       4.08634919       4.61295454
O        1.75494529       7.01692342       3.41842339
O        1.90894486       4.15997303       1.43532113
O        4.87914181       0.74472796      10.89214580
O        3.82476675       3.06404725      12.07130230
O        9.19015259      10.02667785       0.75655559
O        8.39297248       7.10078220      11.34291186
O        3.67610438       2.61506585       2.40019135
Li       5.79599535       2.85848134      11.78887914
Li       0.70291379       0.37750649       3.25887011
Li       3.09656623       8.26095972       7.72677758
Li       0.95847068       5.52090753       2.48574186
Li       3.90951917       4.54142565      10.31646820
Li       1.66918502       2.90829929       3.05817216
P        1.60884756       2.91596613       8.84037557
P        9.16496183       4.27919306       5.13831982
O        1.47789692       1.12387491       1.67277959
O        3.87606820       6.21749526       9.55174006
O        1.90180609       1.38979463       8.98063064
O        3.89741794       0.70255161       4.21058313
O        0.10181941       3.13493303       8.44347627
O        8.83955999       2.95099401       5.77063244
O        0.96985174       6.47054205       8.43119504
O        2.29689477       3.48125226       7.61010698
Li       8.71402466       2.08139774       7.48690866
Li       4.36433732       6.63859968       2.71441883
Li       9.04616408       5.11978972       7.88022032
Li       8.99323215       3.12586034      10.26127978
Li       7.83582845       7.07460057       6.40398258
Li       5.51666013       8.88838241       1.70284160
P        2.32256311       8.28435160       2.74623130
P        9.43248710       6.19090954      12.07603944
O        0.97230350       7.92793699       6.35082922
O        4.40127751       4.89661300       1.80513647
O        1.88329587       8.27419217       1.26290898
O        5.59567253       4.95216611      11.75338405
O        1.73627366       9.42979987       3.53043425
O        9.12191171       4.71903193      11.74973030
O        1.71690387      10.25503189      11.48000694
O        3.87310532       8.37201426       2.85539899
Li       1.32835186       4.16562629      11.73605233
Li       1.92197994       5.75444622       5.26296106
Li       2.50465386       8.12807408       5.25538159
Li       1.39946561       2.56816883       6.18178698
Li       0.31190069       9.84012556       5.89803724
Li       1.75685236       8.31453189      11.32863064
P        4.46237226       7.50903616      10.09473211
P        0.61988254       7.82436600       7.90806318
O        1.11993848       6.55594861      11.34896076
O        2.02818429       3.77999825      10.05267427
O        5.93743691       7.15618357      10.12339906
O        3.33938058       6.40127060       6.27638971
O        4.32896014       8.78570148       9.12954992
O        1.59658291       8.96157022       8.53044470
O        2.32703885       3.66670231       4.64238281
O        3.93929567       7.82398760      11.46843865
Li       6.26680029       1.06281970       6.68144540
Li       7.98402988       1.29474978       5.11842986
Li       2.79467499       1.69703771      11.04554599
Li       6.28590378       3.26420281       5.80560302
Li       2.47926419       5.38309760       7.80440846
Li       4.66017139       9.09787114       4.29305122
P        7.47255125       3.39311379       3.15506185
P        5.53594976       0.28042735       0.11547976
O        4.46529639       1.43071356       6.46992470
O        8.89833585       9.96822750       4.31046087
O        0.11232984       1.83390724      11.67902200
N        8.09428205       4.59677001       4.05212113
O        6.68031028       1.25282959       0.58051690
O        6.73594786       3.93430008       1.78160126
O        8.53193933       2.40407173       2.79730656
Li       1.78996516       5.78074697       9.96021431
Li       8.09766132       0.70865338       1.74107686
Li       2.68111632       6.45885802       0.77382895
Li       0.74371868      10.34736240       9.88714276
Li       1.41918862       0.44024796       7.62064491
Li       5.17879336       1.74882163       2.93360601
P        6.54304887       3.39581630       8.85986762
P        3.48623970       0.49035067       5.62322766
O        6.33058090       9.32080481      12.02547328
O        9.24257130       0.25994995       7.43273207
O        5.06753657       3.60330413       9.02462284
O        9.18735161       5.50070619       6.13563694
N        7.07505761       4.88666581       8.86302342
O        2.00885652       0.80023727       5.71647255
O        5.82386398       6.79600307       6.84539425
O        6.78207169       2.62064171       7.49157647
Li       5.43496436       5.60635992       8.64696663
Li       8.09784380       8.94210609      11.63791292
Li       5.92598840       9.56006005       9.62838716
Li       3.33888102       0.79243165       2.50074609
Li       4.11461360       3.37965687       7.16109533
Li       8.09360603       6.61813453       2.66126549
P        7.63310321       9.22655205       4.01021085
P        5.88458551       5.20431030       1.15387140
O        4.98502498       4.56827166       5.79824995
O        6.50583060       2.63870038       4.08778899
O        7.33312300       9.30768852       2.50876529
O        9.36054998       6.34285281       1.50871637
N        7.87711512       7.72990864       4.44351734
O        6.36526074       6.62892258       1.60824333
O        4.50973814      10.34437002       1.24623908
O        6.55453533       9.78186273       4.94476353
Li       6.22549462       7.37127821      11.96348653
Li       8.10236164       1.24549872      11.01621561
Li       7.24688800       5.05366403      10.83088694
Li       5.47804446       8.82024464       6.92957907
Li       7.67694216       6.81001989       9.34230619
P        8.27272007       9.65611165       8.23733852
P        4.78025605       6.12585102       5.80247352
O        7.12675228       2.77177790      10.12053528
N        8.71485394       8.14559373       8.28197426
O        6.81396709       9.89765282       7.82949507
O        5.13879343       6.73115460       4.42407499
O        3.80815929       9.35913276       5.93196413
O        8.48635391       9.92524937       9.79121602
124
Lattice="9.63908 0.0 0.0 0.0 10.3723 0.0 0.0 0.0 12.0957" Properties=species:S:1:pos:R:3 material=LiPON model=NEP89 temperature_K=600 phase="NVT production" display_name="LiPON｜NEP89｜600 K｜NVT production計算" report_figures="23_LiPON_lithium_MSD; 24_LiPON_transport_comparison; 25_LiPON_temperature_RDF" source_frame_index=780 relative_time_ps=78.0 pbc="T T T"
Li       3.02552890       9.41363304       0.06052189
Li       4.45774343       2.96981234       4.39965861
Li       9.34905278       3.33503708       1.05228315
Li       9.55090966       7.30497104       4.51022835
Li       0.12024336       8.21966971       1.86692038
Li       4.05096568       0.46850416       9.07411595
P        3.22983817       3.40920480       1.49558475
P        0.54496719       0.78617816       0.42883266
N        1.05704739       4.26371922       4.19590332
O        1.86577173       7.32423638       3.72261045
O        1.86703023       3.91150203       1.12073882
O        4.90780041       0.55277789      10.71718599
O        3.80041569       2.83529445       0.13363875
O        9.04837263      10.14490065       0.80410959
O        8.52322421       7.27097113      11.12243955
O        3.35725502       2.47919497       2.67833628
Li       5.95581736       2.66932141      11.27967908
Li       0.13282367      10.31082763       3.09571796
Li       3.01310640       8.07305764       7.67735852
Li       1.12393794       5.47993622       2.53321843
Li       4.04295003       4.31252675      10.72218574
Li       1.39211447       2.83930094       2.94611971
P        1.71244159       3.04082483       8.68264561
P        9.10581022       4.38551023       4.80508361
O        1.22234125       1.30927390       1.66313658
O        3.57439342       6.21853871       9.52122264
O        2.00729313       1.56228101       8.98461670
O        4.58538993       0.93800965       4.82971422
O        0.20261605       3.24971726       8.34566473
O        8.98958236       3.13667398       5.53375579
O        0.77664669       6.31060422       8.03745815
O        2.58842552       3.79235869       7.57597397
Li       8.84096644       2.12034941       7.36103677
Li       3.61395960       6.10030040       3.50723370
Li       8.91063864       4.71260242       7.69574385
Li       9.02399688       3.29920289      10.12871037
Li       7.92501196       7.42962728       6.32310785
Li       5.60948135       8.76746004       1.63468013
P        2.55851959       8.50792695       2.87396907
P        9.46229794       6.27544943      11.83510646
O        0.98043321       8.22628184       6.27919088
O        4.22042720       4.71668960       1.92203083
O        1.97041183       8.36991703       1.44550703
O        5.40303824       5.11996280      11.93209602
O        2.15531952       9.88156264       3.54714121
O        9.15193267       4.90395465      11.32289063
O        1.59865375       0.08002167      11.67424348
O        4.03807676       8.20439554       2.97338040
Li       1.21669856       3.44393187      11.41391116
Li       1.45095759       5.40303767       6.20633567
Li       2.62789151       8.01276023       5.21638704
Li       1.92252543       2.60253433       5.23672677
Li       0.36331768       9.99188945       5.67387960
Li       0.77672348       8.37565697      10.42497117
P        4.39665546       7.38464217      10.03611238
P        0.65310198       7.79564011       7.71080557
O        1.25558884       6.67171213      11.39463501
O        1.95712950       3.89560426       9.92762771
O        5.93762956       6.92677292      10.00808812
O        3.44289401       6.50901558       6.45301411
O        4.18048125       8.52285337       9.03635830
O        1.51187734       8.66219501       8.72413082
O        2.26047258       4.60089803       4.58153015
O        3.93969346       7.78634889      11.49623887
Li       6.19704726       0.60191211       7.20228467
Li       8.01775474       1.77606913       4.54324727
Li       2.96832540       1.61825102      11.23961950
Li       6.61220796       3.85887535       5.84796243
Li       2.90142128       5.43400652       7.91360612
Li       5.13462517       8.17700243       4.64726624
P        7.30437909       3.41499011       2.97854201
P        5.57187589       0.27262750       0.00786644
O        4.25409441       1.03170056       7.29504584
O        8.66959067       0.03583931       4.48648022
O        0.13106668       1.97400938      11.50021377
N        7.93497279       4.66735502       3.75261686
O        6.63880557       1.47183523       0.42961367
O        6.68957311       4.08342801       1.64570118
O        8.36866628       2.43932129       2.49996681
Li       1.79168380       5.88405768       9.85089558
Li       7.55410705       0.62155221       1.64058616
Li       2.67036560       6.86891939       0.43410693
Li       0.78368646       0.50607714      10.02592658
Li       1.55039252       0.20041748       7.78754814
Li       5.48139798       1.06492502       3.20292407
P        6.72700375       3.28399288       8.80573473
P        3.66836169       0.42722876       6.04189784
O        6.40634760       9.34566654      12.05022398
O        9.02067306       0.30327175       7.67599384
O        5.27102782       3.42403613       9.11509394
O        8.89358217       5.66032158       5.71463084
N        7.46421588       4.65044658       8.92644430
O        2.23959108       0.92448770       5.89777569
O        5.95987293       6.54752544       6.92562275
O        6.93604343       2.64796588       7.36327582
Li       5.59239194       5.48827361       8.56328410
Li       8.18951942       9.11514842      11.59435344
Li       6.08844399       9.28069704       9.88591246
Li       2.91730349       0.75112383       2.17478861
Li       4.40201346       3.04020805       7.45439432
Li       7.54326857       6.44666652       3.01651759
P        7.62143043       9.42405185       3.97118414
P        5.57940477       5.21970952       1.33753858
O        4.88183104       4.29002125       6.21236815
O        6.15795698       2.76244946       3.84683013
O        6.66925996       9.94367727       2.86496921
O        9.30167394       6.31853851       1.28556659
N        8.53109349       8.37562930       3.23913515
O        6.02329345       6.65776171       1.82354807
O        4.61483049       0.01707285       1.19955520
O        6.83097191       8.72821574       5.10472088
Li       5.84762690       7.33447881      12.06004481
Li       8.10241934       1.07868696      11.19832268
Li       6.82446634       5.22870817      10.89067099
Li       5.58910848       8.38968003       7.57844701
Li       7.70452262       7.12434435       9.18493888
P        8.28710353       9.57719371       8.46920144
P        4.82508117       5.87092088       6.10190507
O        7.37457050       2.42043765       9.93576421
N        8.73633130       8.18648113       7.86719456
O        6.74196082       9.73058914       8.31483482
O        5.13164782       6.28876640       4.70654262
O        3.96579640       9.32961083       6.13093700
O        8.65358506       9.74153437      10.00661238
124
Lattice="9.63908 0.0 0.0 0.0 10.3723 0.0 0.0 0.0 12.0957" Properties=species:S:1:pos:R:3 material=LiPON model=NEP89 temperature_K=600 phase="NVT production" display_name="LiPON｜NEP89｜600 K｜NVT production計算" report_figures="23_LiPON_lithium_MSD; 24_LiPON_transport_comparison; 25_LiPON_temperature_RDF" source_frame_index=810 relative_time_ps=81.0 pbc="T T T"
Li       3.12415236       9.46969308       0.30261075
Li       4.30102047       2.89609595       4.01674471
Li       8.12229335       3.17668696       0.64622408
Li       0.11541345       7.63974405       4.72520688
Li       9.61066211       8.35624222       2.04036500
Li       3.82563447       0.50685497       9.22414411
P        3.55065698       3.57357540       1.18706476
P        0.68252808       0.64696410       0.44831053
N        1.01123518       4.10674698       4.20204466
O        1.91564064       6.90919268       3.69822073
O        2.04207914       3.88642192       1.21079886
O        5.01028975       0.71205801      10.67795502
O        3.92915248       3.19610297      11.84067909
O        9.37725362       9.80864652       0.75630613
O        8.37506894       6.94759211      11.44909109
O        3.98413980       2.55470838       2.16152869
Li       5.68991285       2.96134599      11.55351711
Li       9.62713390       0.92768565       3.26384538
Li       3.02739738       8.12330700       7.69553970
Li       1.02493646       5.67692386       2.59939001
Li       3.82792008       4.43915328      10.36787990
Li       0.85813526       3.05499099       2.46715079
P        1.71432136       2.96257273       8.84480323
P        9.18778633       4.41103338       5.01544502
O        1.34582519       1.03102120       1.81185484
O        3.51214843       6.38361942       9.50240587
O        2.34226429       1.51735200       9.19424880
O        3.91079555       0.97101763       4.68666363
O        0.15804431       2.82042637       8.85991546
O        8.93932160       3.17156733       5.93109897
O        0.66192397       6.27331531       8.38493232
O        2.26350231       3.52034546       7.53044822
Li       8.58362021       2.29182446       7.66241834
Li       4.86276548       6.67833265       2.93836469
Li       8.08515082       6.35798055       7.14117854
Li       9.21095003       4.63436828       8.66146405
Li       7.15025212       6.64441295       4.80158385
Li       5.45333565       8.59121773       1.77663143
P        2.52112409       8.22998499       3.02314955
P        9.41990711       6.08960801       0.11162387
O        1.10707263       7.93960341       6.39244402
O        4.14102673       5.07385201       1.56045179
O        2.17931758       8.11655215       1.51084127
O        5.93230883       5.19385522      11.77500725
O        1.78744490       9.39471094       3.73759708
O        9.22922406       4.61094274      11.84898504
O        1.84965397       0.13291390      11.58433494
O        4.04098592       8.39308983       3.16891490
Li       1.18291672       3.50053728      11.54080020
Li       2.28092652       5.36235724       5.22411247
Li       2.73346958       7.88710889       5.40610525
Li       1.57405888       2.66856992       5.77866900
Li       0.59034251      10.05751878       5.54754764
Li       1.65201805       8.38621648      11.18454428
P        4.28878028       7.62933067      10.03053488
P        0.64238734       7.75419466       7.86744516
O        1.09530091       6.74799775      11.74572718
O        2.04070174       3.90834602      10.01206589
O        5.84892220       7.26702088       9.90985838
O        3.44304182       6.51793620       6.19294477
O        4.11693947       8.87891034       9.13566817
O        1.35679458       8.58536577       8.92177743
O        2.32246420       3.73896971       4.09300489
O        3.95521009       7.91618077      11.50113966
Li       6.00913632       0.97700527       8.03940705
Li       7.88213182       1.29768172       5.49138677
Li       3.24651436       1.60288218      10.86827502
Li       6.15799873       3.27270637       5.77225836
Li       2.41158850       5.48266246       7.66261981
Li       4.95693374       9.33051728       4.49837987
P        7.46546955       3.24200362       3.13159737
P        5.70582291       0.22073357      12.01921573
O        4.30207877       1.20398880       7.24374010
O        8.68636103      10.05986751       4.25654036
O        0.05946224       1.92805526      11.80622889
N        7.94354754       4.62554947       3.88410407
O        6.65257059       1.41190480       0.41182987
O        6.70687965       3.96144632       1.81054562
O        8.57198670       2.29068941       2.60297660
Li       1.67665592       6.04578699      10.08409010
Li       7.80832963       0.43144701       1.45142467
Li       2.67257008       6.52029858       0.49826812
Li       1.12755919       0.08002469      10.00637796
Li       1.25429613       0.52156530       7.76597975
Li       5.41779041       1.29389807       2.42067352
P        6.52297864       3.56933116       8.88070597
P        3.60474340       0.51990687       6.09448834
O        6.52647791       9.29273522      11.87192984
O        8.83516848       0.26522998       7.25639817
O        5.02315195       4.00266826       9.02806502
O        9.08252449       5.79696732       5.72271673
N        7.44789297       4.88835071       8.83722423
O        2.06812925       0.72461663       6.17944277
O        5.79771085       6.46264879       7.07847555
O        6.80018157       2.73223648       7.53944695
Li       5.39275961       5.72444620       8.72638319
Li       8.21418957       8.82224698      11.59756060
Li       5.89557667       9.38160171       9.67593994
Li       2.69742024       0.73366982       2.93715835
Li       4.03512017       2.90870490       7.53084224
Li       7.64996102       6.30605707       2.49605470
P        7.58349851       9.08155632       3.97280425
P        5.74172207       5.22400263       1.13171378
O        4.60786428       4.36309707       6.09649457
O        6.50350690       2.45130114       4.03821210
O        6.58168798       9.69583277       2.94040701
O        9.38805556       6.30495762       1.62614333
N        8.32997275       7.90207126       3.34736665
O        6.02390871       6.73023940       1.57551789
O        4.58561792       0.09381578       0.96298907
O        6.65680752       8.72696865       5.12472346
Li       6.12318293       7.62069033      11.70945911
Li       8.49028978       1.71375280      10.41438056
Li       7.47742096       5.49000076      10.61236569
Li       5.58287551       8.75367506       6.98726049
Li       7.68886925       7.08054032       9.33197240
P        8.25328371       9.71870021       8.32428109
P        4.82522798       5.87485077       5.99598463
O        7.01749756       2.90594833      10.11458676
N        8.71405567       8.20134922       7.88562055
O        6.70830327       9.61876398       8.15664454
O        5.36932216       6.18321251       4.62106511
O        3.94901183       9.32883930       6.06607556
O        8.73728425      10.12853955       9.70041912
124
Lattice="9.63908 0.0 0.0 0.0 10.3723 0.0 0.0 0.0 12.0957" Properties=species:S:1:pos:R:3 material=LiPON model=NEP89 temperature_K=600 phase="NVT production" display_name="LiPON｜NEP89｜600 K｜NVT production計算" report_figures="23_LiPON_lithium_MSD; 24_LiPON_transport_comparison; 25_LiPON_temperature_RDF" source_frame_index=840 relative_time_ps=84.0 pbc="T T T"
Li       3.15141087       8.94099575       0.63437767
Li       4.02632541       2.67805356       4.22479803
Li       8.64325259       2.97652181       0.51184438
Li       0.20495673       7.26287507       4.49827883
Li       9.33703852       8.21672171       1.59583351
Li       3.76516922       0.79836620       8.98097321
P        3.42825395       3.41362092       1.27256142
P        0.70280729       0.52703218       0.29789053
N        1.05163072       4.04543494       4.03005814
O        1.92686864       7.06157023       3.94976524
O        1.96075271       4.05395015       1.17769986
O        4.95082462       0.74726823      10.84512480
O        3.85532265       2.82639650      12.02062280
O        9.17017893       9.93206610       0.76183852
O        8.27973129       6.64405797      11.39813111
O        3.58168398       2.31548075       2.36458431
Li       5.58195130       2.68708163      11.18805854
Li       0.46965033       0.44342657       3.10805909
Li       3.04418990       8.48844192       7.92146526
Li       1.30725844       5.52320478       2.65612066
Li       3.89898682       4.48326553      10.39698922
Li       0.85228940       3.21633028       2.52800730
P        1.63588078       3.23964243       8.77406374
P        9.24604419       4.39559529       4.86806368
O        1.30229799       1.22909059       1.51959843
O        3.72707419       6.38341693       9.44951306
O        2.20117987       1.77897592       9.04700294
O        4.01295581       0.92155072       4.47084470
O        0.15838314       3.10483721       8.59019826
O        9.16094126       3.22006260       5.79944773
O        0.92286226       6.32409597       8.26659630
O        2.27632830       3.83255438       7.42037786
Li       8.92030739       2.08972710       7.41786187
Li       4.29724188       6.58916015       3.19325542
Li       8.82968369       4.64829384       7.69740409
Li       9.07490076       2.78242102      10.27248111
Li       7.83754743       7.49242935       6.44027527
Li       5.44025423       8.62034119       1.88783087
P        2.36973779       8.28628456       3.06552022
P        9.44931872       5.90791101       0.01474306
O        0.80442717       8.13984771       6.22349479
O        4.30510038       4.80259737       1.67062147
O        1.77579940       8.05463374       1.63895148
O        5.75948248       4.88598628      11.73207659
O        1.71790469       9.52485142       3.80691225
O        9.32433977       4.53973823      11.57184077
O        1.81851624      10.03323963      11.71278505
O        3.89022614       8.56544245       3.00916497
Li       1.38794401       3.44803185      11.62076828
Li       2.03532339       5.60511348       5.43737252
Li       2.51849679       8.06292473       5.53878367
Li       1.46525973       2.42094414       5.34920159
Li       0.41878790       9.93611934       5.51190435
Li       1.87289130       8.07625349      10.94115860
P        4.45946574       7.47812361      10.21994321
P        0.61449504       7.77071033       7.75101731
O        1.12191465       6.43925775      11.64261349
O        2.04009694       4.15843648      10.00738929
O        6.05467163       7.19456038      10.08857360
O        3.31929782       6.71696667       6.48112438
O        4.21796289       8.87988587       9.57268321
O        1.45994663       8.71443856       8.70816526
O        2.33615541       3.98162397       4.20020935
O        3.84621500       7.43069654      11.60663447
Li       6.36165549       0.91766172       7.19366243
Li       8.26304152       1.88150880       4.49903595
Li       3.24193837       1.04549301      11.99211585
Li       6.56652061       3.72219367       5.69092983
Li       2.60229779       5.53031903       8.24900993
Li       4.87733812       8.83845608       4.37683560
P        7.39709274       3.50618180       3.03895353
P        5.66333993       0.27157941       0.08739016
O        4.35752374       1.23132781       7.04017223
O        8.73953891       0.12797585       4.37220833
O        0.09958368       1.59474781      11.45976970
N        8.05496874       4.70418752       3.81966758
O        6.84340777       1.34071826       0.30729246
O        6.73221197       4.29325695       1.81889709
O        8.41366736       2.59955986       2.40063075
Li       1.05973925       5.78085120       9.93986712
Li       7.83315275       0.48617119       1.72579127
Li       2.59563433       6.46204522       0.67585110
Li       1.27540998      10.21529676       9.89290277
Li       1.38385697       0.43389713       7.81588346
Li       5.01250702       0.82528021       2.61334068
P        6.50270169       3.42783740       8.80234445
P        3.51054852       0.47690460       5.86699723
O        6.39554652       9.30358081      11.89233214
O        9.07032369       0.21994369       7.41995020
O        4.96513822       3.49583828       9.24997826
O        9.28897776       5.69069488       5.62662637
N        7.13983924       4.84249866       8.82261330
O        2.01216512       1.02520119       6.08534658
O        6.01555825       6.75563662       7.05303470
O        6.63304126       2.78663537       7.44463154
Li       5.50539094       5.68773573       9.04318262
Li       8.18848793       9.24537756      11.33854410
Li       5.96312182       9.86624460       9.76592080
Li       2.61973654       0.74076027       2.85022085
Li       4.05452046       3.39708954       7.31410476
Li       7.72926695       6.41089443       2.96174391
P        7.67102047       9.40947135       4.02577608
P        5.66326952       5.18921847       1.07884015
O        4.81111975       4.65547626       6.07046382
O        6.52000762       2.68060229       3.98214691
O        6.82742076       9.87699608       2.81107750
O        9.33515994       5.95991232       1.61285193
N        8.39375861       8.10879336       3.60807564
O        5.76611237       6.69903990       1.46669428
O        4.50305127       0.19991013       1.06187554
O        6.85644716       9.13571972       5.24921399
Li       6.63733766       7.42757229      12.09568993
Li       7.94349639       1.13502423      10.94033133
Li       7.55762506       4.89025989      10.73056847
Li       5.73121129       8.69009040       6.59920945
Li       7.49462456       6.89025556       8.94241127
P        8.35654006       9.57228666       8.35774349
P        4.84122662       6.18011775       6.16092354
O        7.24382850       2.60431145       9.88703116
N        8.73225555       8.06016227       7.95035685
O        6.86990537       9.73876953       7.92633764
O        5.13168161       6.77621084       4.77287990
O        3.78499122       9.32754961       6.02557179
O        8.48162512      10.22847108       9.75936638
124
Lattice="9.63908 0.0 0.0 0.0 10.3723 0.0 0.0 0.0 12.0957" Properties=species:S:1:pos:R:3 material=LiPON model=NEP89 temperature_K=600 phase="NVT production" display_name="LiPON｜NEP89｜600 K｜NVT production計算" report_figures="23_LiPON_lithium_MSD; 24_LiPON_transport_comparison; 25_LiPON_temperature_RDF" source_frame_index=870 relative_time_ps=87.0 pbc="T T T"
Li       3.13986254       8.69133610       0.87885718
Li       4.62901213       3.45778477       4.01274840
Li       8.56786122       2.88659445       0.49760342
Li       0.02363560       7.50974323       4.58679344
Li       9.63779627       8.14232459       1.77663764
Li       3.19968782       0.08798206      10.42019961
P        3.41975125       3.64996506       1.31890379
P        0.93174960       0.50571231       0.47213166
N        0.97980984       4.07489078       4.33373697
O        2.31174410       6.66114574       3.82071180
O        1.95849896       3.90648483       1.28918990
O        5.08357048       0.80443918      10.75459099
O        4.02532416       3.00499232       0.07667516
O        9.46939438       9.88977068       1.03989611
O        8.03378924       6.79266464      11.31114647
O        3.73565304       2.80551190       2.53138262
Li       5.59217176       2.67664856      11.58301113
Li       0.47241012       0.10471607       3.38561446
Li       3.12435194       8.11154079       7.61903592
Li       0.97000230       5.27045003       2.65815410
Li       3.95106767       4.34055903      10.92821437
Li       1.09370524       2.85079389       2.79810233
P        1.73780550       3.16885018       8.85800725
P        9.07485508       4.17876144       4.94125698
O        1.49547520       1.19838712       1.80896625
O        3.59454282       6.59773429       9.11125738
O        2.12626878       1.70799766       9.21288819
O        3.72667495       0.63078385       4.25677118
O        0.22912463       3.31680051       8.52872323
O        8.79588622       2.92759278       5.71552497
O        0.74093157       6.31668535       8.16816710
O        2.57610167       3.65577983       7.58250820
Li       8.75418009       2.06093963       7.45436459
Li       4.51149296       6.54683904       3.13157468
Li       8.83411217       4.73760999       7.65110396
Li       9.07981168       3.32946121      10.15355559
Li       8.09403176       7.27755292       6.59914292
Li       5.76576714       8.47746494       1.84805641
P        2.23998855       7.90970810       2.94522449
P        9.21560494       5.98486897      11.99591144
O        0.80820674       8.04478824       6.23904019
O        3.96073619       5.29708686       1.46338407
O        1.89288603       7.48131718       1.56853739
O        5.55190703       5.50307846      11.66674543
O        1.18404323       8.80794791       3.51893265
O        9.11405941       4.45516004      11.57578558
O        2.00454593      10.05632328      11.79018241
O        3.65860701       8.45021370       2.79140017
Li       1.20034860       3.38746442      11.69800958
Li       2.31364189       5.06980336       5.78801706
Li       2.51696116       7.78604963       5.30392321
Li       1.30821645       2.77641515       5.94171342
Li       0.54597512       9.91703925       5.79701430
Li       1.77016067       8.42725970      10.76076697
P        4.28514597       7.74527898       9.99299300
P        0.56613580       7.82332446       7.75978906
O        0.86189931       6.61983575      11.32521651
O        2.11508624       3.96887214      10.16885269
O        5.89670117       7.47009828       9.96821940
O        3.50533296       6.60481941       6.34948973
O        4.03342974       9.03117951       9.24240847
O        1.51943398       8.68031144       8.60535324
O        2.21580552       3.73434399       4.38937444
O        3.66910703       7.79720174      11.39050756
Li       6.03659777       0.97512649       7.37131805
Li       7.05968835       1.78882776       5.18526454
Li       3.97381261       2.10908817       8.92594344
Li       6.85423030       4.41641565       6.03284509
Li       3.05266742       5.47761388       7.88605734
Li       4.33157282       8.79022232       4.45675045
P        7.41773636       3.35333154       2.93767707
P        5.75865198       0.29930202      12.00842304
O        4.38069914       1.44218648       6.66124807
O        8.75024164      10.24876477       4.64200369
O        0.29738722       1.61473298      11.73964545
N        7.92688605       4.41886919       3.88803208
O        6.88447339       1.28015548       0.32529134
O        6.45965486       4.19155274       1.90881832
O        8.59923014       2.65599053       2.22632468
Li       1.81435526       5.62982174       9.98745132
Li       8.02140013       0.55081331       1.62098933
Li       2.71912700       6.33690453       0.21162955
Li       0.52576723       0.85603555       9.87244213
Li       1.64213041       0.24352871       7.88864961
Li       5.59045944       0.59204310       3.37214190
P        6.63553914       3.44880513       8.89842118
P        3.48791216       0.57085196       5.79662279
O        6.42749314       9.25450127      11.88567721
O        9.33258081       0.33229676       7.67078272
O        5.08755177       3.63879448       9.11352866
O        9.05635683       5.44098783       5.67502340
N        7.34121473       4.86030062       8.89911622
O        2.01903160       0.88609999       6.30605773
O        6.03904212       6.73013055       7.00498182
O        6.96873845       2.70729381       7.54943551
Li       5.71573199       5.78907687       9.03810567
Li       8.40314032       8.91580010      11.72046202
Li       5.88479825       9.63690533       9.72596028
Li       3.56065495       0.92946247       2.21572970
Li       4.30657869       3.50401479       7.10405261
Li       7.27241503       6.29010316       3.60801247
P        7.64413903       9.37212918       4.23362047
P        5.57459280       5.51539984       1.08923116
O        4.96358304       4.59749707       5.75005079
O        6.51102980       2.21455777       3.55449843
O        7.33625615       9.43695923       2.67244452
O        9.06043476       6.19066608       1.43692095
N        7.95546819       7.90055823       4.58658307
O        6.15882643       6.79446804       1.73524797
O        4.82250355       0.16699603       1.05979371
O        6.35358266       9.72456194       4.96648099
Li       6.39157172       7.32426135      11.69760040
Li       7.95070121       1.11081259      10.99485516
Li       7.32166232       4.88604861      11.02997663
Li       5.82714268       8.76220059       6.51994758
Li       7.61188888       7.16215703       9.33685543
P        8.31583752       9.73010296       8.40827573
P        4.92808206       6.18615778       5.84145184
O        7.28302434       2.49790439      10.05904868
N        8.74795138       8.33059860       7.99764593
O        6.91022777       9.93004834       7.92321247
O        5.33094032       6.93491242       4.56433343
O        3.63496661       9.36212537       6.19005161
O        8.41627643       9.90453982      10.02450112
124
Lattice="9.63908 0.0 0.0 0.0 10.3723 0.0 0.0 0.0 12.0957" Properties=species:S:1:pos:R:3 material=LiPON model=NEP89 temperature_K=600 phase="NVT production" display_name="LiPON｜NEP89｜600 K｜NVT production計算" report_figures="23_LiPON_lithium_MSD; 24_LiPON_transport_comparison; 25_LiPON_temperature_RDF" source_frame_index=900 relative_time_ps=90.0 pbc="T T T"
Li       2.83972054       9.30551203       0.38787660
Li       4.43988542       2.79487913       4.25510522
Li       8.40659691       3.01342590       0.59877393
Li       0.13336079       7.79487258       4.63025447
Li       9.47082040       8.29842708       1.75004505
Li       2.98921819       1.37471808       0.30540645
P        3.30392352       3.71193043       1.45441478
P        0.56345263       0.62673186       0.38568012
N        1.09586400       4.34353828       4.36640551
O        2.13148516       6.90066199       3.94912350
O        1.75607560       4.04666362       1.48848160
O        4.78627340       0.82929715      10.99973548
O        3.58926235       3.09514033       0.02999324
O        9.00933874      10.09779649       0.74545530
O        8.37208038       7.02846028      11.27408031
O        3.72847598       2.70497885       2.44201652
Li       5.32775709       2.55109481      10.85565310
Li       0.51823230       0.20415417       3.11078318
Li       3.28941320       8.36198695       7.64558583
Li       0.93384993       5.57711300       2.87845441
Li       4.13968815       4.75624771      10.41987093
Li       0.63432818       2.89386266       2.88361776
P        1.78403229       3.11785009       8.78762554
P        9.10174849       4.45254033       4.87689540
O        1.39126633       0.92040547       1.66187241
O        3.58013087       6.28337540       9.38767399
O        2.18218687       1.50125190       8.86322718
O        4.03974343       0.68520699       4.31580936
O        0.21932440       3.23489801       8.71244993
O        8.95952482       3.06136091       5.56745507
O        0.98622537       6.27482324       8.03013689
O        2.36194894       3.74265845       7.49757556
Li       8.85625000       2.24101353       7.47849523
Li       4.71263499       6.24700966       3.06768132
Li       9.01696941       5.12845578       7.92495679
Li       9.06211471       3.42159608      10.39512875
Li       7.72153764       7.21942717       6.15513132
Li       5.14630073       8.28918258       1.34585267
P        2.58404836       8.03544133       2.98625976
P        9.52632763       6.13294326      12.08473217
O        0.71186699       8.22320995       6.25572470
O        4.05653069       5.20244154       1.46368967
O        2.21605317       7.81197881       1.56777145
O        5.83623273       4.78359178      11.67219747
O        1.91508665       9.27642925       3.59459675
O        9.21857279       4.63325351      11.83712838
O        1.51326861      10.29189090      11.46879194
O        4.17152101       8.08656494       2.89735938
Li       1.30708649       3.43139162      11.78016681
Li       2.22829979       5.60865160       5.39400796
Li       2.42800314       8.26083912       5.52606691
Li       1.45256677       2.51839898       6.01583646
Li       0.52746385       9.99095880       5.66720823
Li       1.42288010       8.49001332      10.69851728
P        4.23829393       7.58968140       9.97631359
P        0.61479016       7.75715779       7.73890380
O        1.22854211       6.47069107      11.41465116
O        2.22225007       3.84224144      10.11330879
O        5.79951991       7.21997756       9.73981603
O        3.44669297       6.75028287       6.32536167
O        3.97721916       8.99926189       9.26463424
O        1.40596725       8.65910276       8.62308909
O        2.14926065       3.61691341       4.57280459
O        3.73029140       7.62300947      11.42640475
Li       6.10238194       0.96135470       7.51432721
Li       7.73824424       1.58830221       5.14124283
Li       3.71847606       0.53700410       9.63540518
Li       6.65131226       3.59786229       5.81996034
Li       2.85638196       5.56630335       7.75026457
Li       4.91821418       8.54451585       4.58309299
P        7.29332525       3.37602374       3.01180551
P        5.55774920       0.24036875       0.17766229
O        4.55021868       1.38113975       6.61854072
O        8.72163532      10.31908984       4.44686908
O        9.57043066       1.88607825      11.85221020
N        8.16155826       4.56871482       3.55778145
O        6.60507160       1.30438811       0.62735363
O        6.23788570       4.01587177       2.02137769
O        8.37286390       2.52833033       2.40676691
Li       1.87593673       5.77608664       9.84532624
Li       7.86285005       0.65194185       1.89457355
Li       2.79137207       6.60213452       0.39900069
Li       0.71528235       0.84583065       9.92195209
Li       1.59378604       0.13278537       7.61502689
Li       5.33481546       1.25867212       2.60843018
P        6.67843954       3.45577740       8.96131400
P        3.70010318       0.41336777       5.75221749
O        6.27395811       9.21777647      11.85386307
O        9.20417765       0.34462654       7.24858377
O        5.12980379       3.54502445       9.02292663
O        8.75000467       5.63941361       5.80273109
N        7.38155620       4.85789781       8.96574096
O        2.18943317       0.74081204       5.92044460
O        5.90828927       6.71383789       7.07403177
O        7.07215309       2.58578587       7.69544658
Li       5.50123084       5.64349565       8.74462085
Li       8.44570416       8.93412795      11.40309844
Li       6.06950150       9.52717807       9.92483987
Li       3.00172350       0.59293771       2.50375632
Li       4.47377096       3.14673183       7.38391278
Li       7.19823327       6.37770000       3.31854403
P        7.68875714       9.26619122       4.04985282
P        5.65911341       5.19902575       0.99007211
O        5.00975137       4.56002127       6.12417767
O        6.45340745       2.60775933       4.05282551
O        6.84547616      10.06002017       3.06578581
O        9.45851071       6.48270068       1.48477543
N        8.17237728       7.96141001       3.45235075
O        6.21038595       6.67979565       1.43099485
O        4.36528634       0.00951412       1.17685229
O        7.04604155       8.72110295       5.34651253
Li       6.56058097       7.38826489      11.79757167
Li       7.93158566       0.88904323      11.08202771
Li       7.22984787       5.52204086      10.81433803
Li       5.72784203       8.82702763       6.82985033
Li       7.62138411       6.87854147       9.16469463
P        8.32469688       9.77664720       8.09714022
P        4.86680157       6.14415559       6.03903275
O        7.14190738       2.82154983      10.30156625
N        8.72415837       8.13851111       8.13753483
O        6.74170862       9.87559725       8.09207903
O        5.33869382       6.43646343       4.59243571
O        3.95355842       9.26351723       6.03087683
O        8.65882671      10.11754555       9.60036094
124
Lattice="9.63908 0.0 0.0 0.0 10.3723 0.0 0.0 0.0 12.0957" Properties=species:S:1:pos:R:3 material=LiPON model=NEP89 temperature_K=600 phase="NVT production" display_name="LiPON｜NEP89｜600 K｜NVT production計算" report_figures="23_LiPON_lithium_MSD; 24_LiPON_transport_comparison; 25_LiPON_temperature_RDF" source_frame_index=930 relative_time_ps=93.0 pbc="T T T"
Li       3.22257664       9.49480369       0.36015279
Li       4.41458806       2.60032748       4.17238002
Li       8.38141185       3.09322525       0.39282256
Li       0.00053288       7.06122888       4.85068825
Li       9.61201112       8.72121130       1.88560872
Li       3.29216631       1.50638832      10.99858843
P        3.40342539       3.67348073       1.35766817
P        0.67401738       0.72464026       0.32880938
N        1.00867297       4.18578300       4.10098100
O        1.97959108       7.17314207       3.71322911
O        2.06740776       4.35873789       1.07684550
O        4.81835313       0.54937738      10.82506860
O        3.84993858       3.05820286      12.09553988
O        9.27269771       9.97126727       0.54244339
O        8.12284722       6.89619112      11.26260467
O        3.44293752       2.76050189       2.54025565
Li       5.59909664       2.94456285      11.60747434
Li       0.42214973       0.66310721       3.53865500
Li       3.19631625       8.49832823       7.99783427
Li       0.72164983       5.62841561       2.63277979
Li       4.13336276       4.40014448      10.52171659
Li       1.00282337       3.09514798       2.21237804
P        1.77256620       3.17476774       8.70711277
P        9.13227677       4.43150873       4.84552154
O        1.03251929       1.21448672       1.82731358
O        3.60923033       6.14107072       9.56435950
O        2.23690066       1.69702072       9.10411170
O        4.25394401       0.75727750       4.84295866
O        0.23941849       3.09626646       8.50598011
O        8.94142872       3.05388976       5.57954271
O        1.23369259       6.41497701       8.11419497
O        2.45914163       3.79950052       7.44557531
Li       8.92105112       2.07589632       7.20130720
Li       3.74267105       6.23057131       3.33289044
Li       9.22256274       4.90649742       7.90736740
Li       9.29330793       3.17263283      10.23851222
Li       7.84654828       7.38883260       6.56541535
Li       5.59386867       8.56594661       1.79423217
P        2.38810617       8.53321635       3.04866452
P        9.30711840       6.25161411      11.87606049
O        0.84240583       8.06308103       6.25663520
O        4.30487507       5.09038898       1.46422379
O        1.89376943       8.57162890       1.58036550
O        5.67203257       5.05370331      11.57140252
O        1.82693030       9.78165280       3.74546005
O        9.31385488       4.69455092      11.67925118
O        1.89444748       0.04002409      11.68121749
O        3.93547242       8.48405461       3.06765258
Li       1.32327931       3.77981165      11.68502409
Li       1.90216223       5.14389553       5.79404662
Li       2.76655048       7.83707760       5.69078999
Li       1.69275066       2.70726349       5.19729135
Li       0.73410405       9.85019881       5.51783237
Li       1.42064072       8.41347938      10.57403676
P        4.15618309       7.43416476      10.26215098
P        0.75773338       7.86702525       7.81162837
O        0.96687772       6.73665561      11.29478823
O        2.09094920       4.09733702       9.97068742
O        5.70825874       7.48477057       9.95874866
O        3.50186824       6.17889787       6.17571456
O        3.61678848       8.82338296       9.83380618
O        1.49935270       8.84079672       8.65148627
O        2.21163304       4.57065763       4.07574756
O        3.84818121       7.31465113      11.77033899
Li       6.15077617       0.76156532       7.07023544
Li       8.12922709       1.69135705       4.71406591
Li       3.51961084       0.41172786       9.07699660
Li       6.54514671       3.10574184       5.86165523
Li       3.01288941       5.73621682       7.94662523
Li       4.97618113       8.16923344       4.83481694
P        7.42190702       3.49674889       2.95050115
P        5.58806344       0.17370076      12.09298035
O        4.25572451       0.86471495       7.43945116
O        8.63430528      10.21944039       4.50446886
O        0.06993873       1.88724223      11.50078237
N        8.14300779       4.73133347       3.63640580
O        6.52722113       1.35759849       0.34180759
O        6.42235040       4.00445723       1.78123256
O        8.48925110       2.63592263       2.21442711
Li       1.99729287       6.03010642      10.04822081
Li       7.77490191       0.36803337       1.54800474
Li       2.34154673       6.79855178       0.53097404
Li       0.81223495       0.92314247      10.04117807
Li       1.20931328       0.26167779       7.88910190
Li       5.63599274       0.88540827       3.46827856
P        6.67149327       3.35157463       8.95260795
P        3.55232444       0.32243182       6.09210714
O        6.53270643       9.33124876      11.84257707
O        8.93961872       0.11345933       7.30468755
O        5.12528611       3.75594469       9.12633607
O        9.25839174       5.52817389       5.88350591
N        7.41345852       4.76479672       8.86460675
O        2.09840962       0.84200963       6.04153825
O        6.04506952       6.28899221       6.86751817
O        6.83012625       2.63605993       7.55509040
Li       5.38493476       5.80948763       8.83451033
Li       8.15430625       8.91421152      11.57139454
Li       5.76199650       9.40281914       9.93263107
Li       2.83840824       0.85893810       2.47611876
Li       4.09433205       3.02710855       7.64851148
Li       7.71347037       6.29430113       2.69810107
P        7.56330751       9.25244963       4.05278530
P        5.78899300       5.26126599       0.92898127
O        4.92596658       4.19710866       6.02802703
O        6.62421284       2.59208019       3.95855893
O        6.99733505       9.56736874       2.68282931
O        9.30598764       6.40077929       1.37166118
N        8.29514561       7.85889213       3.95680658
O        6.32338224       6.70441486       1.36897740
O        4.66611302       0.00522572       1.22705212
O        6.44984072       9.06788871       5.14701542
Li       6.19574994       7.38371180      11.75690530
Li       7.79725606       1.02235805      11.06358939
Li       7.24355777       4.81822562      10.84544495
Li       5.60104990       8.72501202       6.98557218
Li       7.69080943       7.14258868       9.54620936
P        8.25944998       9.59128424       8.36403870
P        4.92940781       5.65172968       5.87928286
O        7.31076767       2.76457647      10.20523734
N        8.75749680       8.08810400       8.08666467
O        6.68393353       9.54682596       8.19004203
O        5.37578057       6.09685312       4.42003756
O        3.78825225       9.19401339       6.26985536
O        8.60310458       9.96485702       9.74722464
124
Lattice="9.63908 0.0 0.0 0.0 10.3723 0.0 0.0 0.0 12.0957" Properties=species:S:1:pos:R:3 material=LiPON model=NEP89 temperature_K=600 phase="NVT production" display_name="LiPON｜NEP89｜600 K｜NVT production計算" report_figures="23_LiPON_lithium_MSD; 24_LiPON_transport_comparison; 25_LiPON_temperature_RDF" source_frame_index=960 relative_time_ps=96.0 pbc="T T T"
Li       2.93528704       9.18506516       0.25188790
Li       3.96736675       4.30052331       3.77962948
Li       8.32120030       3.40857145       0.34242506
Li       0.13786441       7.08449612       4.31979513
Li       0.26836612       8.58956148       1.65346005
Li       2.96501254       1.59128138      11.16864130
P        3.11188182       3.93210984       1.22238556
P        0.60758600       0.92679940       0.26044478
N        1.04759966       4.70458629       4.34231142
O        1.94536276       7.62269405       3.90816007
O        1.64572764       4.47246749       1.45057372
O        4.76962629       0.80930275      10.87119641
O        3.40914407       3.10917149      12.02836832
O        9.02015529       0.01624414       0.53935557
O        8.03998864       7.09674637      11.30073412
O        3.50082325       2.93007830       2.41820362
Li       5.79523850       2.78324796      11.29298717
Li       0.46751678       0.52655418       2.98497739
Li       3.37427918       8.27409556       7.58728748
Li       1.10949534       5.93503292       2.51733143
Li       4.17440331       4.09338267      10.52804958
Li       1.54554069       3.20387074       3.04664616
P        1.78273172       2.89165667       8.86364252
P        9.23792179       4.11454209       4.79008783
O        1.14892444       1.47238267       1.56312311
O        3.38869018       6.23712570       9.72737318
O        2.29491253       1.50621016       9.28264168
O        4.21247644       1.10943155       4.79903464
O        0.23586886       2.79990249       8.58834451
O        9.54800639       2.63263655       4.98706514
O        0.83105939       6.17126956       8.10142754
O        2.59744132       3.56358161       7.68589885
Li       8.89784569       2.16303732       6.96214887
Li       5.74860924       7.23031085       3.34347140
Li       9.50857868       4.57998632       7.95862396
Li       9.24172515       3.79020578      10.19998385
Li       8.01444165       6.77751849       6.26457938
Li       5.18383022       8.69269571       1.65564244
P        2.65860224       8.50013704       2.89766941
P        9.23483831       6.36715488      12.08780855
O        0.69438646       7.77611393       6.11185154
O        4.01094598       5.31467089       1.42097786
O        2.11603831       8.10492646       1.47203245
O        5.76190193       4.83286456      11.79933634
O        2.15743727       9.96095557       3.26094170
O        9.20550755       4.88848364      11.75365732
O        1.60554262       0.04336302      11.52611191
O        4.16874700       8.26995154       3.35850720
Li       1.19784214       3.76256966      11.85125081
Li       1.74595526       5.75950028       5.74844823
Li       3.65191066       7.62664407       5.21751459
Li       1.80987203       2.51668454       6.09987305
Li       1.11006006       9.28441296       5.01851575
Li       1.20177534       8.79506114      10.40672645
P        4.31711844       7.28253390      10.34586962
P        0.60188942       7.71249627       7.61447526
O        0.82748463       6.99907218      11.38011185
O        1.89587897       4.08612450       9.90415290
O        5.81923029       7.13495941      10.10950057
O        3.67506992       6.45465300       6.72217222
O        4.06752645       8.64879876       9.65994540
O        1.57500396       8.74603777       8.33679758
O        2.33134449       4.75962398       4.49819475
O        4.06133428       7.51717241      11.89193903
Li       6.18228957       0.83178459       7.39457765
Li       8.17331303       0.87435038       5.09367148
Li       3.53320750       0.13540532       9.49791293
Li       5.72024255       2.84383521       5.47258437
Li       3.02822462       5.27508945       8.29534578
Li       4.96740339       9.95689009       3.96678253
P        7.44357983       3.36751915       3.01854323
P        5.28837574       0.37041289       0.14460614
O        4.36439462       0.94184608       7.18128712
O        8.98583999       9.56374049       3.81290967
O        0.14479515       2.10225509      11.43008776
N        8.20484988       4.58322571       3.71492355
O        6.23383740       1.50501638       0.71838238
O        6.02426802       3.97137385       2.18039141
O        8.37243523       2.69092766       2.00310403
Li       1.49671745       5.90777989       9.91358702
Li       7.57093367       0.62125699       1.64703162
Li       2.49036154       6.60569236       0.33510396
Li       9.27429703       1.36868255       9.92128818
Li       1.04835031       0.27111534       7.66357668
Li       5.43214592       1.69212683       2.40575807
P        6.97315118       3.31208089       8.84741717
P        3.63451780       0.28762050       5.92971715
O        6.22542503       9.51330707      11.94223459
O        8.87148191       0.23073853       7.35502862
O        5.45589073       3.49416026       9.20830658
O        9.03055285       4.82094963       6.18009769
N        7.72431685       4.76270519       8.93490927
O        2.02375384       0.36563029       6.01765270
O        6.21881806       6.11919398       6.91673665
O        6.83468440       2.79155922       7.48259364
Li       5.71988350       5.83092141       8.89476072
Li       8.11754729       9.12861467      11.22512625
Li       5.93524659       9.13289668       9.82484569
Li       2.87444120       1.03906521       2.14434528
Li       4.51993208       2.94805820       7.41019026
Li       8.14662926       6.15804519       2.69810098
P        7.51098362       9.09926974       4.04518255
P        5.63396364       5.20385908       1.19478470
O        4.75101585       4.17329534       6.08279617
O        6.75226172       2.32254057       3.94015900
O        6.66806174       9.20333227       2.73778389
O        9.29120885       6.75695133       1.54728683
N        7.47444711       7.50819140       4.24960862
O        6.25178261       6.47737865       1.63279965
O        4.18535459       0.01827105       1.18271073
O        6.86937065       9.75406612       5.23612339
Li       6.33520887       7.70149606      12.05932224
Li       7.58009278       1.12337166      11.51276319
Li       7.02954696       5.54455740      10.79829423
Li       6.11497062       8.56414137       6.85240026
Li       8.42012283       6.75032532       9.39317250
P        8.31782094       9.57674325       8.27369830
P        4.90411837       5.68389651       6.15890642
O        7.50921086       2.46352074      10.04143207
N        8.74893411       8.04820436       7.98085169
O        6.75507816       9.61932269       8.22480877
O        4.94752979       6.16141560       4.66483447
O        4.19218049       9.20455093       5.91341923
O        8.70075876      10.01093243       9.70334810
124
Lattice="9.63908 0.0 0.0 0.0 10.3723 0.0 0.0 0.0 12.0957" Properties=species:S:1:pos:R:3 material=LiPON model=NEP89 temperature_K=600 phase="NVT production" display_name="LiPON｜NEP89｜600 K｜NVT production計算" report_figures="23_LiPON_lithium_MSD; 24_LiPON_transport_comparison; 25_LiPON_temperature_RDF" source_frame_index=990 relative_time_ps=99.0 pbc="T T T"
Li       3.11373356       9.35878369       0.34378221
Li       3.86494315       3.24045035       4.45358979
Li       8.55504961       3.10378092       0.65367896
Li       9.46322677       7.35604605       4.79137965
Li       8.36450388       7.82582950       1.69475191
Li       3.09267790       1.50924681      11.82916222
P        3.58969589       3.78205055       1.26096890
P        0.84977940       0.58043191       0.39744997
N        0.89292435       4.38434843       4.02179749
O        1.55675923       7.09999364       3.86600238
O        2.14595669       4.34180838       1.17585597
O        4.92572429       0.67955376      10.92871438
O        3.79785625       3.26077840      11.87088849
O        9.38414609      10.03179352       1.11928899
O        8.31417076       7.30312266      11.37516024
O        3.74558008       2.64576281       2.35795145
Li       5.51579361       2.55751189      11.28342710
Li       0.20694368       0.51379782       3.03831209
Li       3.20924990       8.07471676       7.76898455
Li       1.22154220       5.48297562       2.58165971
Li       4.03108336       4.64210968      10.43285422
Li       1.47422683       2.75477059       2.78811705
P        1.68914433       3.18226102       8.73346767
P        9.13793884       4.40518868       4.84415688
O        1.66161686       1.28207752       1.50694999
O        3.37414839       6.50963917       9.29356880
O        1.97264502       1.69712425       9.02998451
O        4.24437089       1.09941019       4.66387344
O        0.20889611       3.46846890       8.55749445
O        8.94866806       3.12302605       5.67166899
O        0.82001785       6.58766699       8.24818616
O        2.33012621       3.75599092       7.45842162
Li       8.52537564       2.10708614       7.42137597
Li       4.18575593       6.36290471       3.43378005
Li       9.24274027       5.16229077       8.00339807
Li       9.18334071       2.79822773      10.16355811
Li       7.69109272       7.50138234       6.60228216
Li       5.76592358       8.32954858       1.93447532
P        2.32625204       8.25070290       3.06230337
P        9.33241751       6.23464314      12.07013414
O        0.66414707       8.34532587       6.25562984
O        4.59372303       5.00435085       1.72019099
O        2.16374684       8.00795384       1.56056749
O        5.81306872       5.13761760      11.70737787
O        1.85465106       9.64069048       3.55846649
O        9.10963731       4.80922141      11.40582645
O        1.67196790      10.01244631      11.50293544
O        3.82152084       8.06684097       3.22614772
Li       1.38411781       3.76103117      11.46705623
Li       2.24549600       5.64843326       5.00258056
Li       2.23843088       8.01991377       5.62312646
Li       1.60802227       2.89662228       6.07969728
Li       0.72133945       9.93683409       5.33124781
Li       1.84309596       8.19365970      10.47574589
P        4.22277801       7.67290993       9.92368671
P        0.48008114       8.00219134       7.82822170
O        1.07776099       6.63785498      11.49036788
O        2.12894024       4.11249082       9.93019701
O        5.71370190       7.23243895       9.78709850
O        3.44143236       6.57823623       6.23377846
O        3.99955667       9.10021353       9.28566315
O        1.47639723       8.93867156       8.50684822
O        2.04687167       3.89644906       4.31685130
O        3.91193764       7.72404670      11.41821263
Li       6.00486830       0.69042961       7.08158210
Li       8.25036663       1.44044023       4.94020088
Li       3.75804808       0.50667099       9.27704566
Li       6.57579017       3.28401824       5.69856089
Li       2.55364502       5.53442071       7.73280228
Li       4.86109671       8.48661807       4.65482559
P        7.59675788       3.10406637       2.98627920
P        5.57475809       0.13641558       0.10644130
O        4.25884070       1.10280179       7.22499460
O        8.77995229      10.20599448       4.29881048
O        0.08446559       1.67838278      11.57772066
N        7.85683520       4.40151940       3.89151640
O        6.50126852       1.26837591       0.45727012
O        6.90514739       3.79327249       1.66780666
O        8.86571004       2.41789733       2.40976745
Li       1.68249258       5.91189987       9.90951366
Li       7.74959387       0.54096689       1.75933377
Li       2.78036963       6.51350320       0.69402784
Li       0.69187902       0.22559940      10.01713822
Li       1.24974602       0.34857704       7.65826882
Li       5.45578725       1.14316802       3.15483883
P        6.64547936       3.37711625       8.85636844
P        3.60625930       0.43006925       5.89919574
O        6.29348807       9.20382932      11.93843291
O        8.90321396       0.28231847       7.41053256
O        5.17683025       3.73635707       9.05042773
O        9.11945919       5.65200198       5.73073258
N        7.28634200       4.77417429       8.69258166
O        2.04695003       0.78549006       5.97150285
O        5.79133644       6.56062318       7.23383356
O        6.84606526       2.63138295       7.51795340
Li       5.41935359       5.61306920       8.77812783
Li       8.39911997       9.39480549      11.44521899
Li       6.10173872       9.41299600       9.88079866
Li       3.28559623       0.51782068       2.92746424
Li       4.17806416       3.04220490       7.32722669
Li       7.23510078       6.17951085       3.73653654
P        7.72001588       9.07603195       4.03775914
P        6.06759596       5.19200103       1.11183589
O        4.81394279       4.42434495       6.03581148
O        6.66461240       2.36527759       3.95347293
O        6.75322772       9.54222606       2.89978308
O        9.28880398       6.11264180       1.50811168
N        8.22568342       7.67799758       3.66216270
O        6.59165646       6.52076304       1.50476762
O        4.44076705       0.06113426       1.12716573
O        6.87807259       8.85403972       5.35445890
Li       6.41405613       7.00698739      11.62905194
Li       7.64881169       1.23301629      11.06966122
Li       7.39388702       5.04263724      10.65498149
Li       5.67096098       8.35960468       7.18462278
Li       7.72611977       6.92254136       9.39393941
P        8.12828359       9.67765321       8.32688599
P        4.90978956       6.04325025       5.99142836
O        7.12869886       2.74237489      10.17570214
N        8.60778163       8.21490643       8.27544084
O        6.62980281       9.64088648       7.97436769
O        5.41315598       6.57800174       4.68231931
O        3.72119186       9.24690872       6.08130803
O        8.18437315      10.20439732       9.82488359
124
Lattice="9.63908 0.0 0.0 0.0 10.3723 0.0 0.0 0.0 12.0957" Properties=species:S:1:pos:R:3 material=LiPON model=NEP89 temperature_K=600 phase="NVT production" display_name="LiPON｜NEP89｜600 K｜NVT production計算" report_figures="23_LiPON_lithium_MSD; 24_LiPON_transport_comparison; 25_LiPON_temperature_RDF" source_frame_index=1020 relative_time_ps=102.0 pbc="T T T"
Li       3.13818294       9.33843545       0.26948943
Li       4.68479981       3.32694414       4.25527562
Li       8.51023361       2.96981880       0.67381970
Li       0.34050443       7.28123413       4.08396263
Li       9.54750764       8.31636510       1.49123372
Li       2.95687303       1.30783249      11.35413501
P        3.36599666       3.65124188       1.39040951
P        0.76469462       0.66147580       0.36077037
N        0.84203364       3.72453410       4.10946560
O        2.15308507       7.01609478       3.56408695
O        1.91895774       4.05166038       1.56570111
O        4.86906486       1.05065248      10.84985784
O        3.39828271       3.04380747      12.01193680
O        9.22782085      10.18038850       0.82837875
O        8.22218143       7.19932576      11.57464123
O        3.89533799       2.72567873       2.41852151
Li       5.46683160       2.86686979      11.24850089
Li       0.49982258       0.29050436       3.23353116
Li       3.09712654       8.05559239       7.96777658
Li       1.42234585       5.15424029       2.84222072
Li       3.89806196       4.67561418      10.67592130
Li       0.78031914       2.58296963       2.65863315
P        1.70017149       3.07870777       8.81604618
P        9.08901482       4.17289174       4.82994355
O        1.62145852       1.20273890       1.52775230
O        3.44957606       6.61714169       9.37481952
O        2.11376491       1.61855908       9.17628953
O        4.11794374       0.46381040       4.62627966
O        0.09831670       3.23190358       8.71366291
O        8.93223310       2.99895825       5.77367179
O        0.57828697       6.26481212       8.13222114
O        2.31011569       3.42275145       7.43369171
Li       8.82889416       2.22221976       7.46504266
Li       4.72115083       6.29965402       2.87646071
Li       8.80134046       5.24745040       7.47837374
Li       9.02419078       3.47440779      10.46498497
Li       7.40447229       7.73553476       6.33631781
Li       5.65006465       8.61513315       1.72609613
P        2.69922771       8.21957984       2.80756028
P        9.42179183       6.21648551       0.02983812
O        0.87553287       7.85575815       6.33381903
O        4.18762799       5.07297534       1.42774612
O        1.98261240       8.03740588       1.45137275
O        5.73764039       4.85630249      11.62525867
O        2.06631041       9.54599858       3.50048372
O        9.14397773       4.82227993      11.67048205
O        1.61997513      10.19821272      11.40756987
O        4.24480709       8.25734156       2.63572515
Li       1.26993049       3.60295403      11.70279492
Li       2.12261013       5.00202691       5.68627241
Li       2.49011675       7.59524530       5.41348215
Li       1.13594410       2.59207257       6.08134916
Li       0.70748623       9.73009563       5.73601831
Li       0.98934035       8.68803220      10.61827670
P        4.31445673       7.76357013       9.98297563
P        0.43169470       7.75300137       7.78106441
O        1.01155420       6.81251130      11.36803606
O        2.13853433       4.19767461       9.83752604
O        5.82987903       7.24338041      10.12608999
O        3.49491494       6.40774622       6.40845598
O        4.18466696       9.06225010       9.12520900
O        1.39276258       8.64876604       8.57872680
O        2.08332175       3.52974048       4.46367991
O        3.84240359       7.97062203      11.46287329
Li       6.00241818       0.95685030       7.02941407
Li       8.56523661       1.16301298       5.49138148
Li       4.03102703       2.11056417       9.36558756
Li       6.72575758       3.48042205       5.75544933
Li       3.13495698       5.57772565       7.97827766
Li       4.79896225       8.79261608       4.73458508
P        7.29904071       3.20204839       3.18423073
P        5.60279011       0.44193336      12.06929109
O        4.21169038       1.18949373       7.16522777
O        8.92466784      10.15960396       4.33604307
O        0.20357120       1.97639179      11.75392489
N        7.73322101       4.46194789       3.98531533
O        6.77268254       1.46441152       0.44262202
O        6.44281770       3.88048175       1.91213443
O        8.42365302       2.41871627       2.61842900
Li       1.62903523       6.10914017       9.81798091
Li       7.75687441       0.76856367       1.84764523
Li       2.88761583       6.80234665       0.72262113
Li       0.82445852       0.49212591       9.71954484
Li       3.03574881       0.05178172       8.25800608
Li       5.54545477       0.63131332       3.18436634
P        6.71670321       3.48494583       8.87405074
P        3.44567731       0.45822958       5.96355739
O        6.18525468       9.41266916      11.76245066
O        9.21045066       0.22751491       7.50745526
O        5.12707453       3.53802854       8.96855684
O        9.12014056       5.48852983       5.51902485
N        7.21750851       4.95617099       8.76348071
O        1.90253065       0.75811581       5.87313836
O        5.77688559       6.69795459       7.11199300
O        6.95061308       2.57341439       7.57991680
Li       5.45253377       5.69436750       8.78631220
Li       8.18281941       9.07230081      11.60892911
Li       5.71013667      10.16987517       9.56436309
Li       3.28288004       0.84848792       2.45137151
Li       4.31373421       3.10856108       7.00897475
Li       7.29094955       6.07072132       3.51507760
P        7.71300126       9.23224021       4.12240066
P        5.74172794       5.10443344       1.07252244
O        5.00884532       4.40253117       5.88787694
O        6.37710150       2.35905239       4.15157838
O        7.05674270       9.52973820       2.68259765
O        9.53810780       6.43941143       1.56823490
N        8.14978269       7.79457839       3.68406595
O        6.32758723       6.52478050       1.39225551
O        4.52321870       0.24442636       1.12903962
O        6.69299668       9.25151533       5.31033364
Li       6.21983087       7.47311984      11.99185153
Li       7.88706319       1.32450275      10.91283305
Li       7.16383967       5.46001946      10.60243646
Li       5.27183075       8.61682789       7.19596819
Li       7.29652572       7.04005843       9.05302825
P        8.29738406       9.57697006       8.32754705
P        4.93819938       5.97012711       5.92624253
O        7.21260811       2.90295656      10.26388284
N        8.51996095       8.07776540       7.98781625
O        6.76935917       9.70705110       8.15564698
O        5.37414701       6.64774629       4.60026533
O        3.59137864       9.27406388       6.30071393
O        8.53937197       9.89458635       9.84628231
124
Lattice="9.63908 0.0 0.0 0.0 10.3723 0.0 0.0 0.0 12.0957" Properties=species:S:1:pos:R:3 material=LiPON model=NEP89 temperature_K=600 phase="NVT production" display_name="LiPON｜NEP89｜600 K｜NVT production計算" report_figures="23_LiPON_lithium_MSD; 24_LiPON_transport_comparison; 25_LiPON_temperature_RDF" source_frame_index=1050 relative_time_ps=105.0 pbc="T T T"
Li       3.16070640       9.05040135       0.37971839
Li       4.42046381       3.05869131       4.33318953
Li       8.46981922       3.15291865       0.55561540
Li       0.39077101       7.42941581       4.63309617
Li       0.08191309       8.25857392       1.73791755
Li       3.13525002       1.25478794      11.76574173
P        3.20897719       3.53009710       1.46997546
P        0.59291778       0.46163141       0.27608001
N        1.00548908       3.93925720       4.52223607
O        2.06650579       7.03328047       3.71809623
O        1.73751283       4.01912925       1.48780398
O        5.03471253       0.64885254      10.54609312
O        3.58144440       3.01587595       0.00246844
O        9.10496504       9.83272642       0.67367561
O        8.13108368       7.05295426      11.26231275
O        3.50036739       2.50043964       2.55319630
Li       5.81341019       3.11601296      11.62271356
Li       0.26915248       0.15654034       2.77002062
Li       3.08917572       8.05972422       7.84378331
Li       0.70364502       5.39738522       2.60201771
Li       3.97878802       4.58277043      10.52868541
Li       0.77020491       2.57205453       2.79181073
P        1.69620379       3.05754725       8.82321150
P        9.05566831       4.37462425       4.89066235
O        1.25404529       1.04492931       1.46808895
O        3.47660813       6.32892592       9.49241028
O        2.27028455       1.63172091       9.00800251
O        4.46664953       0.92348180       4.60339902
O        0.18428341       3.19207971       8.51766830
O        8.44164385       3.27836805       5.74668332
O        0.74045937       6.24379961       8.18922433
O        2.51259948       3.74446472       7.73385307
Li       8.58788639       2.07909641       7.06567719
Li       3.97742407       6.37614133       3.40622203
Li       9.08615858       4.73612348       7.58165755
Li       9.39807086       3.77969404      10.28632844
Li       7.47273200       7.51161129       6.65192488
Li       5.79086382       8.23548841       1.55193655
P        2.37913462       8.38841991       2.95726750
P        9.38483857       6.23525779      12.00007758
O        1.13885699       7.93727245       6.30270531
O        4.01582343       4.94315719       1.63023074
O        2.01132501       8.12121221       1.45525111
O        5.54416797       4.95477900      11.66097006
O        1.78830328       9.68804665       3.60533747
O        9.15436517       4.73364459      11.68678715
O        1.64361709      10.06648537      11.38732195
O        3.93323156       8.58638328       2.97811949
Li       1.23097204       3.37222638      11.97799422
Li       2.31448588       5.60808827       5.49326306
Li       2.94958889       7.99608474       5.54943403
Li       1.26501635       0.40661170       7.65859114
Li       0.66780417       9.88674580       5.75678051
Li       1.14724214       8.51153569      10.59940120
P        4.38415930       7.44618863      10.13316363
P        0.58572911       7.71268759       7.74517039
O        1.02278402       6.75486514      11.32889450
O        1.79274760       3.87208909      10.10094682
O        5.91390368       7.04597913       9.89321524
O        3.64444774       6.46776700       6.57007058
O        4.15735707       8.79499693       9.31079098
O        1.39279816       8.66871989       8.60627953
O        2.24338302       4.11968685       4.36455081
O        4.08497807       7.67220436      11.64919412
Li       5.67523203       1.00155305       8.21494348
Li       1.04063949       2.53549084       6.00087753
Li       4.10766390       2.11068275       9.59428327
Li       6.40175002       3.25010629       5.93954107
Li       2.55520638       5.65589757       8.00668253
Li       4.99502888       9.36948324       4.09128095
P        7.42756840       3.37902448       2.95866041
P        5.46790507       0.25252560      12.03291619
O        4.45843019       1.54227467       6.97765465
O        8.62374003       0.00435256       4.35925076
O        9.59135498       1.70612438      11.56678681
N        8.20753848       4.62899983       3.56645830
O        6.36922100       1.38609809       0.41076564
O        6.52874401       3.90885944       1.72844011
O        8.29473731       2.36065886       2.24378367
Li       1.64502214       5.69271098      10.08607059
Li       7.68949269       0.45384017       1.64485505
Li       2.55464059       6.74783867       0.31566701
Li       0.49302225       0.71277562       9.86875494
Li       2.97047124       9.96401323       9.84334208
Li       5.06664095       1.56492559       2.69213637
P        6.66829822       3.45993601       8.90511601
P        3.70939058       0.63756126       5.94389797
O        6.32820404       9.29139214      12.03437704
O        9.05119884       0.22375103       7.33249942
O        5.10634447       3.73725303       8.94135359
O        9.09206218       5.70049529       5.63388735
N        7.37796283       4.84809454       8.78822805
O        2.16898343       0.93563577       5.86175013
O        6.25993190       6.35730079       6.84310688
O        6.85511462       2.69434571       7.55282037
Li       5.61100645       5.69356636       8.62488981
Li       8.15933896       9.13723117      11.54746468
Li       6.10329780       9.25214505       9.94360481
Li       2.83234723       0.64775013       2.93443827
Li       4.18385074       3.58268644       7.14249178
Li       7.15078700       6.31854428       3.82365828
P        7.63809512       9.35378290       4.00081794
P        5.56076492       5.08323454       1.13286142
O        5.13226678       4.56895262       5.59575876
O        6.32881752       2.81391092       3.81457147
O        6.75699106       9.75316531       2.82013447
O        9.35589992       6.58164386       1.39476358
N        8.42573837       8.07161344       3.46505129
O        6.22709362       6.38130800       1.51912413
O        4.19468154       0.15386879       0.90454460
O        6.94653655       8.89294743       5.26965058
Li       6.38440724       7.33197610      11.70775566
Li       7.98256540       1.15639046      10.68361898
Li       7.23758388       5.28079055      10.90076230
Li       5.72648733       8.75908049       6.52393126
Li       7.93390906       7.00062794       9.16173583
P        8.32877002       9.52478126       8.26918934
P        5.04785016       6.06644431       5.92841307
O        7.20039188       2.69177597      10.12523269
N        8.72005001       8.01868309       7.88837917
O        6.89595229       9.55475540       7.99619228
O        5.32707776       6.82019453       4.62766313
O        3.93910467       9.50534373       6.10215870
O        8.66515156       9.91550328       9.74900666
124
Lattice="9.63908 0.0 0.0 0.0 10.3723 0.0 0.0 0.0 12.0957" Properties=species:S:1:pos:R:3 material=LiPON model=NEP89 temperature_K=600 phase="NVT production" display_name="LiPON｜NEP89｜600 K｜NVT production計算" report_figures="23_LiPON_lithium_MSD; 24_LiPON_transport_comparison; 25_LiPON_temperature_RDF" source_frame_index=1080 relative_time_ps=108.0 pbc="T T T"
Li       2.86658759       9.23750163       0.19164318
Li       4.21193838       3.54659832       4.19643113
Li       8.59382350       3.14253836       0.51378164
Li       0.18309888       7.38785222       4.58070510
Li       9.36790108       8.06785991       1.39423116
Li       2.88647764       1.47542933      11.62216488
P        3.43179336       3.70450936       1.33076141
P        0.53137767       0.62683721       0.17981013
N        1.14177294       4.21732320       4.28721872
O        1.92830796       7.10908200       3.80019323
O        2.09936811       4.38786387       1.34459417
O        4.38243294       0.92819051      10.86871609
O        3.72594469       3.10689058      12.06608491
O        8.82370846      10.17298798       0.52647536
O        8.12413183       7.12100225      11.64313599
O        3.62688019       2.65916790       2.42785468
Li       5.81974335       2.93929496      11.80718888
Li       0.67636362       0.45305955       3.56942785
Li       3.12299801       8.49445649       7.52980304
Li       1.61249640       5.72947310       2.42198353
Li       4.08401988       4.36142634      10.73118134
Li       1.09026211       2.80828021       2.65601588
P        1.81796265       3.21393859       8.79843571
P        9.22686802       4.32861715       5.00470902
O        1.41314459       1.15706587       1.44565369
O        3.52116027       6.18382521       9.28324141
O        2.19375941       1.69103342       9.10132194
O        4.25752425       0.96723558       4.54160005
O        0.20768438       3.23546369       8.67612281
O        9.00361483       3.11340316       5.79764169
O        0.77107098       6.29567705       8.45318402
O        2.36516054       3.55980461       7.41210465
Li       8.92245359       2.05952441       7.35588132
Li       4.69137863       6.56001624       3.08393969
Li       9.07616645       4.92003889       8.13914274
Li       8.93483301       3.54125595      10.23159643
Li       7.80926323       7.28870672       6.25227162
Li       5.28554720       9.02004574       1.94742262
P        2.48095226       8.30165370       2.98666497
P        9.24185978       6.11662974      12.07045807
O        1.01452540       7.88655462       6.25524019
O        4.38631625       4.98246648       1.89676967
O        2.04005058       7.93631352       1.45324302
O        5.58860326       5.05191111      11.70325513
O        1.92052763       9.64570725       3.37843956
O        8.87828783       4.71445992      11.49987826
O        1.64382165      10.31437650      11.30842237
O        4.01705656       8.20715503       2.96820911
Li       1.31007142       3.84209199      11.80871706
Li       1.76408784       5.60346157       5.55527207
Li       2.63441988       8.04451383       5.42570394
Li       1.36413149       0.21701621       7.67091792
Li       0.48066045       9.70230738       5.52116604
Li       0.91202984       8.51735002      10.34418044
P        4.26847208       7.41095129       9.76901576
P        0.60501056       7.71738411       7.81027930
O        0.81915359       6.72647258      11.42342877
O        2.17064507       4.09450008      10.07578758
O        5.75031506       7.13018110       9.79763300
O        3.54588245       6.44249439       6.43099414
O        4.21529356       8.58743811       8.79191729
O        1.59648374       8.70982486       8.51737188
O        2.42635861       4.02602283       4.41806670
O        3.79273128       7.72243683      11.21033705
Li       6.28716400       0.91441338       6.88985273
Li       1.28062820       2.39277340       5.79719275
Li       4.05904105       1.56394954       8.86674813
Li       6.43589150       3.16418302       5.89771314
Li       2.81818473       5.54634286       7.84593045
Li       5.07078137       8.43336837       4.59211296
P        7.51146057       3.36728554       2.99408274
P        5.11177286       0.34938260       0.07871464
O        4.47335871       1.21144827       6.98930788
O        8.78772282      10.30893781       4.54672962
O        0.02983552       1.92658778      11.56007250
N        8.34626380       4.64658111       3.65554621
O        6.17724382       1.34810472       0.49376825
O        6.81026538       4.18274184       1.63507865
O        8.68112201       2.49748618       2.36700293
Li       1.83084755       6.04129940       9.98475242
Li       7.72417680       0.87815054       1.85746547
Li       2.41019557       6.46956017       0.38446790
Li       0.19552677       1.38899862       9.71651624
Li       2.95494452       9.99748988       9.66867983
Li       5.37006893       1.31031186       3.12562913
P        6.61954010       3.29457990       8.87331385
P        3.66049665       0.44475340       5.89558142
O        5.69649082       9.34556950      11.90633856
O        9.14175892       0.26964076       7.78612477
O        5.10088288       3.42072983       9.11751416
O        9.17819764       5.55595545       5.89599271
N        7.23116463       4.76059526       8.92608714
O        2.09307999       0.61452285       5.97935563
O        5.89960612       6.47720089       7.05679485
O        6.85972439       2.54506333       7.40907453
Li       5.35860844       5.35430667       8.93203008
Li       8.03550720       8.95992379      11.67886131
Li       5.52556298       9.74134805       9.85288402
Li       2.95155170       0.86465385       2.54121681
Li       4.18341981       3.13684930       7.21023930
Li       7.76282537       6.32407593       2.94383230
P        7.64924240       9.39489532       3.95539298
P        5.72999297       5.29283372       1.16224430
O        5.03270232       4.36432851       5.86108147
O        6.59517204       2.50746102       3.83739356
O        6.71074707      10.13143871       3.00140167
O        9.46543111       6.18559429       1.51745048
N        8.47937577       8.21774337       3.33987862
O        6.20284482       6.64919710       1.71892111
O        3.94413776       0.14527745       1.18848265
O        6.94065653       8.80068162       5.22176416
Li       6.06865529       7.51773667      11.75401736
Li       7.73095525       0.73808083      10.79882999
Li       7.25595483       5.66520181      10.75394387
Li       5.58428627       8.46511228       7.22739944
Li       7.11588882       6.92660910       8.57573761
P        8.37690819       9.51110771       8.47986638
P        4.97113734       5.96452189       5.99114031
O        7.14920584       2.43078638      10.00741161
N        8.65174189       8.06174349       7.89408474
O        6.84171040       9.64414634       8.32249136
O        5.34866759       6.61114085       4.68883886
O        3.97425051       9.23073849       5.82952727
O        8.62803135       9.59530093       9.97253867
124
Lattice="9.63908 0.0 0.0 0.0 10.3723 0.0 0.0 0.0 12.0957" Properties=species:S:1:pos:R:3 material=LiPON model=NEP89 temperature_K=600 phase="NVT production" display_name="LiPON｜NEP89｜600 K｜NVT production計算" report_figures="23_LiPON_lithium_MSD; 24_LiPON_transport_comparison; 25_LiPON_temperature_RDF" source_frame_index=1110 relative_time_ps=111.0 pbc="T T T"
Li       2.96223651       9.07944697       0.21938767
Li       4.76496668       3.20830607       4.13667316
Li       8.80320741       3.17908738       0.37414520
Li       0.23150171       7.16647489       4.61489534
Li       9.27703587       8.38642392       2.00557938
Li       3.37338652       1.40117533      12.00831844
P        3.36493517       3.63366749       1.41729093
P        0.78485533       0.66503457       0.23711898
N        1.15309701       4.37187314       4.41308407
O        1.93629909       6.97099288       3.71158545
O        1.86313339       4.10826233       1.20538349
O        4.86044115       0.61196134      10.56019229
O        3.75811021       3.11532335      12.08252673
O        9.26787857      10.04670269       0.74871957
O        8.29142773       7.22187494      11.24523495
O        3.62439845       2.68962787       2.58470753
Li       5.63531995       3.10970180      11.81396910
Li       0.29094497       0.55228313       2.76297588
Li       2.95455368       8.23745121       7.66059896
Li       0.44784169       5.01624110       2.38578562
Li       3.93008166       4.10046953      10.42774460
Li       2.15669828       2.01998110       3.42755327
P        1.78021446       2.90709785       8.80991088
P        9.12590758       4.29048959       4.85263000
O        1.35274026       1.21848691       1.56859472
O        3.62721588       5.90767308       9.63005500
O        2.35614547       1.49857000       8.97060904
O        3.85832256       0.86734105       4.33586505
O        0.12278466       2.84906382       8.73821568
O        8.94064564       2.92816957       5.69336823
O        0.74228753       6.26044523       8.64788667
O        2.43829384       3.58600304       7.53332783
Li       8.98763617       2.04389411       7.24842486
Li       3.86770918       6.32725796       3.07884070
Li       9.09644834       4.59724696       7.89340508
Li       8.86817940       3.78389477      10.14958454
Li       7.99524379       7.39887775       6.41547472
Li       5.28254921       8.72236145       1.95627704
P        2.32894498       8.30607255       3.00344972
P        9.28109892       6.34214882       0.03542354
O        1.18863512       7.58489536       6.55436273
O        4.24261070       5.10720084       1.82257262
O        1.94934565       8.22395023       1.51967273
O        5.56944322       5.19234728      11.73870447
O        1.52746931       9.43883640       3.71696418
O        9.07893107       4.86950477      11.68262220
O        1.75885010       0.03939090      11.32083124
O        3.84930955       8.46604831       3.19926512
Li       1.42721925       3.48827968      11.64918327
Li       1.77885281       5.62958226       5.85316516
Li       2.76586226       7.66241194       5.37132124
Li       1.31965668       0.03182706       7.69286210
Li       0.44043563      10.12827451       5.25100354
Li       1.04100941       8.46692316      10.87664811
P        4.29672601       7.32886159       9.99602792
P        0.56218460       7.67582973       7.99754127
O        1.07956153       6.67167375      11.54021708
O        2.01011036       3.82516537       9.98352768
O        5.92127171       7.15205039       9.96106609
O        3.56828779       6.36169602       6.53333700
O        4.13130928       8.59823015       9.14863061
O        1.33448003       8.76830132       8.74522279
O        2.23843589       3.65509670       4.50648267
O        3.97846429       7.69051415      11.52869004
Li       6.30452542       0.94937294       6.56682251
Li       1.66733588       2.78651964       6.01551767
Li       4.68942351       1.31281189       8.87572928
Li       6.73296852       3.38542114       5.76763736
Li       2.69183494       5.47521539       7.95862522
Li       5.05743409       8.45895989       4.70935840
P        7.38792832       3.53160647       2.80755417
P        5.52864580       0.25743232      11.94266426
O        4.37803544       1.12062729       6.85456256
O        8.59161293       0.22832024       4.12633562
O        0.00765610       1.87666865      11.71118712
N        8.26008176       4.58623723       3.54384989
O        6.49185340       1.34434937       0.36934928
O        6.77836682       4.45022659       1.64308459
O        8.45932540       2.63262769       2.26867141
Li       1.93934639       5.66567306      10.26880435
Li       7.89232597       0.69821766       1.55447401
Li       2.74364185       6.41488478       0.31127384
Li       0.32147529       1.17795875       9.77853346
Li       2.96622265      10.28711923       9.88680612
Li       5.50944832       1.05477147       3.81641314
P        6.58154260       3.39794850       8.91544774
P        3.35852977       0.41203389       5.84695126
O        6.37923759       9.37215823      11.75998623
O        9.08065007       0.14174926       7.21208431
O        5.00378043       3.63196952       8.83202450
O        9.06395261       5.50435869       5.80835251
N        7.44384221       4.73530532       8.85570234
O        1.86139966       0.80089343       6.04910492
O        6.06065818       6.64688311       6.72638893
O        6.88211686       2.58486572       7.66100457
Li       5.82766177       5.72322151       8.24720419
Li       8.39238122       9.22540791      11.41982352
Li       6.06819261       9.16629390       9.58476210
Li       3.55159262       0.19599312       2.53888696
Li       4.24979302       3.34871929       7.02838865
Li       7.16402629       6.32572580       3.56915464
P        7.43374267       9.49915998       4.01514745
P        5.65208136       5.42174541       1.11900779
O        5.15384946       4.37008984       5.84700398
O        6.44254228       2.77993012       3.74717540
O        6.73537603       9.59094465       2.55630441
O        9.17829559       6.59301267       1.55061709
N        8.24379523       8.14746230       4.12354146
O        6.08137706       6.82653426       1.48390305
O        4.28363502       0.04748493       0.89541071
O        6.42830854       9.65515962       5.13619570
Li       6.37332885       7.43923899      11.89657128
Li       7.87781990       1.38837280      10.99131369
Li       6.89711094       5.40899572      10.61141877
Li       5.78643831       8.75937510       6.85454092
Li       7.70349456       6.85699732       8.99693483
P        8.34977302       9.60545559       8.20558877
P        4.97195834       5.95244945       5.94092836
O        7.01672230       2.94474200      10.33498188
N        8.65954737       8.04738157       8.06672829
O        6.81572471       9.77788272       7.94622712
O        5.15546511       6.43847061       4.46837621
O        3.71310469       9.23789005       6.12027548
O        8.53717778      10.17417252       9.76707327
124
Lattice="9.63908 0.0 0.0 0.0 10.3723 0.0 0.0 0.0 12.0957" Properties=species:S:1:pos:R:3 material=LiPON model=NEP89 temperature_K=600 phase="NVT production" display_name="LiPON｜NEP89｜600 K｜NVT production計算" report_figures="23_LiPON_lithium_MSD; 24_LiPON_transport_comparison; 25_LiPON_temperature_RDF" source_frame_index=1140 relative_time_ps=114.0 pbc="T T T"
Li       2.98368779       9.33914582       0.34156851
Li       4.43827048       2.86261920       4.48318482
Li       8.45230634       3.19336208       0.71204913
Li       0.21733685       7.41141547       3.47550256
Li       0.63733134       8.57793193       1.10197409
Li       2.87831144       1.39947798      11.32978623
P        3.37113883       3.55183632       1.28910431
P        0.45732313       0.78686107       0.48390356
N        1.08275959       4.34316145       4.26135486
O        2.11744267       6.73648233       3.57972688
O        1.82341769       3.92653730       1.46551349
O        4.70274012       0.41023048      10.86948704
O        3.77562323       3.08551494      11.98963847
O        8.93519087      10.15580303       0.78965584
O        8.19554205       7.03425801      11.11166147
O        3.71428383       2.54420015       2.42168931
Li       5.57849147       2.94621305      11.82510068
Li       9.55785724       0.76447198       3.21176242
Li       2.70626010       8.07401486       6.60735414
Li       1.21894963       5.49874389       2.36836708
Li       4.28938750       4.24257087      10.43263478
Li       1.31514716       2.89614682       2.77431015
P        1.70940769       2.97670691       9.04547804
P        9.16092611       4.39184029       5.02273651
O        1.19067206       1.27416546       1.79762186
O        3.60915575       6.25382433       9.06110279
O        2.10180243       1.50736487       9.31995348
O        4.12440304       0.99241375       4.71367618
O        0.16493035       2.92245660       8.92562934
O        9.04713627       3.07426234       5.67367916
O        0.70267619       6.30434839       8.27760957
O        2.42790119       3.46784334       7.74958542
Li       8.68939810       2.00671925       7.60537476
Li       3.93903566       6.22340534       3.73653923
Li       8.98874490       4.84744198       7.85528950
Li       8.82088149       3.21584773      10.32240606
Li       7.79000811       7.48762622       6.57278696
Li       7.80078379       8.14707791       1.49588058
P        2.61628803       8.17286824       2.82422671
P        9.34596285       6.18963186      11.79090423
O        0.76830308       8.19655971       6.43662936
O        4.10051363       5.03137144       1.75419185
O        2.39298392       7.85157142       1.35287785
O        5.69130819       4.89678961      11.79826357
O        1.71547656       9.34905319       3.23438501
O        8.91915263       4.67735685      11.61704467
O        1.47565764      10.36134280      11.66502818
O        4.09554748       8.32146776       3.21732136
Li       1.03338979       3.81178635      11.74424373
Li       1.39451083       6.01982422       5.37859636
Li       4.96863630       8.72303601       4.62403653
Li       1.22615078       0.45998467       7.85705759
Li       0.39450246       9.89239041       5.77544368
Li       1.76149835       8.44593223      10.60636786
P        4.09927456       7.53418023       9.68607562
P        0.42274805       7.85212490       7.91668724
O        1.04577605       6.44198608      11.17729902
O        2.02120650       4.06767546      10.17636773
O        5.65599828       7.23973880       9.79035062
O        3.67101226       6.33143968       6.08995742
O        3.99859439       8.80650345       8.84273868
O        1.23687953       8.70689157       8.75732296
O        2.25780557       3.80775114       4.41793523
O        3.58731577       7.86738649      11.13779447
Li       7.84638148       1.36172911       5.04588783
Li       1.78611163       2.57971852       6.18741464
Li       5.83007461       1.12767978       7.27017598
Li       6.61179117       3.52552344       5.68354720
Li       2.39659845       5.38499482       7.52993984
Li       5.31896353       8.70385672       1.92905566
P        7.32722250       3.40795728       3.08873199
P        5.34050960       0.12626036       0.15215015
O        4.14238247       1.23271714       7.21976593
O        8.68355759      10.32252274       4.40129951
O        9.58620107       2.06753907      11.73569317
N        8.04664404       4.55709576       3.84648862
O        6.36424480       1.22334467       0.32888559
O        6.61774403       4.24965868       1.87882920
O        8.32262757       2.38366086       2.45912509
Li       1.77569092       5.98516635       9.61754976
Li       7.52476247       0.48068035       1.68575806
Li       2.74885371       6.44565844       0.18153834
Li       0.56106871       0.88130999      10.08643442
Li       3.74079930       0.48953401       9.28950475
Li       5.40348174       1.09024006       2.91631919
P        6.65863011       3.24186959       9.00889181
P        3.53322134       0.44482054       5.99206158
O        6.14508951       9.16054381       0.14069761
O        8.94916649       0.30512015       7.35144847
O        5.23906403       3.59475088       9.00912453
O        9.24951625       5.69700423       5.86058591
N        7.36892571       4.70048584       9.00516388
O        2.03357429       0.74518445       5.96130936
O        5.92511689       6.67747785       7.00161001
O        6.92927662       2.63660478       7.63126273
Li       5.56436784       5.51442571       8.57882033
Li       8.33827041       9.02331768      11.25280029
Li       5.62632218       9.53574692       9.81238095
Li       3.05885894       0.65123975       2.89284478
Li       4.19808494       3.40888506       7.69525591
Li       7.32044942       6.42290008       3.75778346
P        7.45613356       9.36699394       4.12868217
P        5.61225384       5.34114930       1.22923099
O        5.12322016       4.41682099       5.93762828
O        6.36420750       2.58232237       3.81720403
O        6.35882857       9.91551687       3.21222715
O        9.33728273       6.63195428       1.16366818
N        8.12472430       8.06585448       3.55223909
O        6.00923055       6.74999032       1.60102303
O        4.39555887      10.36446220       1.37580055
O        6.85918076       9.07444854       5.46326158
Li       6.23402596       7.43105439      11.80181309
Li       7.81867860       1.03183533      11.10978128
Li       7.34995101       5.04991407      11.05417641
Li       5.41527084       8.79859818       7.24999080
Li       7.46510296       7.02035203       9.30798624
P        8.15237387       9.75426635       8.35102858
P        5.13448547       5.97870665       5.83719808
O        7.12159694       2.62361755      10.37304628
N        8.59134526       8.20531585       8.24720487
O        6.64418880       9.77993468       8.11945227
O        5.72323600       6.49441123       4.52635884
O        3.92606848       9.31956672       6.21721265
O        8.47418881      10.20143263       9.87814764
124
Lattice="9.63908 0.0 0.0 0.0 10.3723 0.0 0.0 0.0 12.0957" Properties=species:S:1:pos:R:3 material=LiPON model=NEP89 temperature_K=600 phase="NVT production" display_name="LiPON｜NEP89｜600 K｜NVT production計算" report_figures="23_LiPON_lithium_MSD; 24_LiPON_transport_comparison; 25_LiPON_temperature_RDF" source_frame_index=1170 relative_time_ps=117.0 pbc="T T T"
Li       2.79818685       8.94986362       0.23566787
Li       4.36456624       2.79010794       4.34994726
Li       7.83209980       2.78028594      11.85602921
Li       0.00664080       7.35911727       4.75694902
Li       0.27267306       8.39434044       1.93775027
Li       3.13360027       1.23403623      11.47790259
P        3.15255441       3.55949634       1.36470371
P        0.55483637       0.83103390       0.47316818
N        1.01836689       4.07593976       4.13680606
O        1.76040934       7.19109474       4.04969144
O        1.70328221       4.18876117       1.25531920
O        4.91443076       0.56304766      10.89589238
O        3.51647923       3.08833556      12.00826613
O        9.10904095      10.04338702       0.84166918
O        8.23172001       7.14633997      11.30513329
O        3.49081401       2.53378709       2.46797651
Li       5.59059098       2.67923435      11.38199754
Li       0.83487072       0.76382471       3.75439682
Li       2.45895127       7.95213742       5.56644303
Li       1.03330815       5.76319957       2.65589984
Li       3.88546087       4.28307218      10.38737527
Li       0.73614446       3.01814156       2.26767793
P        1.58776118       3.15218583       9.04097643
P        9.22655907       4.54408859       4.89076809
O        1.22395189       1.29396705       1.73459540
O        3.55398268       6.19758125       9.39006955
O        1.93158606       1.57412985       9.31875366
O        4.24759552       0.84643621       4.65876456
O        0.08843664       3.34615399       8.62574634
O        8.82218622       3.45399075       5.89998519
O        0.61254606       6.35198505       8.30949230
O        2.40960859       3.63569621       7.74436495
Li       8.71040774       2.15897849       7.46421682
Li       4.58368115       6.18363222       3.08134090
Li       9.07967301       4.77471636       7.57690452
Li       9.22799724       4.80291361       9.83915194
Li       7.74894870       7.31404570       6.57371734
Li       7.61564702       8.65575836       1.58900923
P        2.44902132       8.15020271       3.17823869
P        9.22520307       6.33355211      12.07211602
O        0.87171850       8.34012801       6.53247778
O        4.06354216       4.87303565       1.82475420
O        2.11719988       7.73099847       1.70002089
O        5.51034320       4.82730812      11.68920660
O        1.89361561       9.60469560       3.53252284
O        8.81445120       4.80637825      11.72267772
O        1.66186167       0.07510488      11.79439251
O        4.05043618       8.06012044       3.37552178
Li       0.80387353       3.65750479      11.72425648
Li       2.08122707       5.50113301       5.29058217
Li       4.99909881       9.36016537       4.36833835
Li       2.89209433       8.69624539       7.71961463
Li       0.62544636       9.99776891       5.96250710
Li       0.60374462       8.07128657      10.72423024
P        4.34120948       7.41323384       9.98605903
P        0.41640068       7.88960211       8.04510747
O        0.95977920       6.38684354      11.35219305
O        1.97436079       4.16745644      10.29240966
O        5.86974830       7.01347516       9.79559648
O        3.71059419       6.40501219       6.34309203
O        4.10672041       8.65794090       9.04063485
O        1.25584286       8.62838308       9.04167805
O        2.28655235       3.85762754       4.30232480
O        3.90510243       7.59782795      11.44563459
Li       8.36493337       1.55504107       5.25919147
Li       1.64659103       3.12984992       6.20434811
Li       5.84373913       1.03766070       7.22839862
Li       6.63944813       3.44556227       5.98823943
Li       2.86335724       5.71339583       7.75673819
Li       4.76687929       7.96669746       1.19560013
P        7.34114775       3.67173785       3.06578798
P        5.44634925       0.03650309       0.18395128
O        4.00680512       1.28158091       7.18765325
O        8.71549075       0.04295317       4.31588088
O        9.33334738       1.87941812      11.71670816
N        7.99094466       4.85847000       3.92165896
O        6.25338175       1.17489491       0.95947998
O        6.32668518       4.10760610       1.84873707
O        8.33239956       2.59578514       2.47506930
Li       1.79133304       5.98673321       9.75066915
Li       7.93189342       0.82767292       1.73445878
Li       2.46562667       6.46918348       0.34713578
Li       0.95391692      10.28070159       9.73636924
Li       4.25974379       1.29563162       9.39228019
Li       5.49415283       1.23557585       2.47957432
P        6.67485736       3.22632177       8.95258563
P        3.40960450       0.54190616       5.92759219
O        6.38446934       9.20661092      11.90932389
O        8.75529476       0.24870397       7.25189639
O        5.12656050       3.33575849       9.21421927
O        9.58135969       5.82660608       5.73690784
N        7.33365061       4.65623084       8.91259201
O        1.95351509       0.91112094       5.67602272
O        6.16863280       6.32590059       6.79112468
O        6.93441278       2.55665438       7.55984380
Li       5.63836501       5.49868694       8.60771921
Li       8.03095349       9.59028591      11.24430414
Li       6.04339685       9.35702183       9.90699844
Li       2.98551519       0.75527313       2.32237927
Li       4.19112518       3.22303039       7.55773759
Li       7.88632758       6.48917261       2.63904440
P        7.71863120       9.32840328       3.95779338
P        5.42896914       5.17926885       1.08895683
O        4.86407779       4.15482803       6.14204347
O        6.56909189       2.92936252       4.17003651
O        6.86171795       9.84089379       2.83158934
O        9.28852602       6.47462378       1.48841089
N        8.49394810       8.12286310       3.44035760
O        5.91880709       6.60355184       1.29429818
O        4.27274860       9.96526992       1.01268783
O        6.81421639       8.85569673       5.13110038
Li       6.19179409       7.45756265      11.87818233
Li       9.06554533       1.84421703       9.93991671
Li       7.01343555       5.59722722      10.83010463
Li       5.26598071       8.50955636       7.40379603
Li       7.54595884       6.89261975       8.95324736
P        8.08833964       9.75458154       8.30599680
P        5.06918507       5.70178994       5.88644823
O        7.34890519       2.51575524      10.12722568
N        8.47546347       8.19146382       8.17373505
O        6.55039759       9.83631763       8.12794321
O        5.57058609       5.98898174       4.47059828
O        3.57255101       9.40931905       6.12163924
O        8.56434855      10.33382333       9.62904447
124
Lattice="9.63908 0.0 0.0 0.0 10.3723 0.0 0.0 0.0 12.0957" Properties=species:S:1:pos:R:3 material=LiPON model=NEP89 temperature_K=600 phase="NVT production" display_name="LiPON｜NEP89｜600 K｜NVT production計算" report_figures="23_LiPON_lithium_MSD; 24_LiPON_transport_comparison; 25_LiPON_temperature_RDF" source_frame_index=1200 relative_time_ps=120.0 pbc="T T T"
Li       2.89971772       9.30575785       0.39466286
Li       3.98394682       2.56889616       4.08317691
Li       7.91571486       3.35177047       0.24252943
Li       0.04651844       7.36364698       4.22612388
Li       0.06122720       8.44800957       2.20941776
Li       3.24764214       1.21277092      10.79958561
P        3.29990159       3.61051086       0.98799544
P        0.63519265       0.58469744       0.65119417
N        1.16814900       4.25305694       4.15553165
O        2.24641605       6.62190252       3.63735586
O        1.81767917       3.82586527       0.99647549
O        5.01205863       0.78809803      10.73467703
O        3.83908810       3.00336338      11.80770567
O        9.20032927       9.81067291       0.96947952
O        8.24423484       7.05175232      11.31926506
O        3.64733154       2.65595327       2.15659758
Li       5.64889952       2.76463476      11.34902814
Li       1.24318168       0.46871883       3.88731106
Li       2.42381439       8.10463289       5.60605627
Li       1.36970215       5.40713816       2.35841677
Li       4.26085015       4.41128159      10.61937972
Li       0.79401914       2.93476010       2.79349256
P        1.61723012       2.97481239       8.88687006
P        9.28642244       4.40342903       4.89772134
O        1.18529248       0.89994384       2.01975796
O        3.28350713       6.15843924       9.45856712
O        2.25582055       1.56524686       8.98398745
O        4.14040878       0.64772586       4.09916167
O        0.02924759       2.84766895       8.85922414
O        8.98193437       3.23770019       5.92239574
O        0.69117089       6.36315407       8.45226247
O        2.24374481       3.73166804       7.69173205
Li       8.56210985       2.26177242       7.47084164
Li       4.52860442       6.69097389       3.17834708
Li       8.42476815       5.06505375       7.34923394
Li       9.01677620       4.60617892       9.72948977
Li       7.51901117       7.75779268       6.43068445
Li       7.61855554       8.76225663       1.28967799
P        2.43767702       8.06103922       3.10234050
P        9.33299774       6.20434371      12.03776289
O        0.78229290       7.97211944       6.50814128
O        4.04318789       5.04065910       1.19010600
O        2.02978942       8.13975284       1.68085373
O        6.19089679       4.59858452      12.05576943
O        1.51914142       8.94793886       4.02791477
O        9.01378937       4.71997146      11.63257881
O        1.61785672       0.06599798      11.70402270
O        3.95505351       8.35162796       3.19867962
Li       0.79402479       3.53520348      11.62345328
Li       2.23491468       5.61471618       5.19399696
Li       5.04858852       8.62704791       4.75823200
Li       2.83202639       9.56904003       7.94971303
Li       0.63695541       9.78376649       5.88824519
Li       1.57766129       8.20053863      10.92309377
P        4.08806284       7.34519808      10.00018145
P        0.42241936       7.82428997       8.01868722
O        1.09751278       6.49173117      11.47379477
O        2.07960451       3.87220798      10.05586819
O        5.58064427       7.04061974      10.05788178
O        3.45226243       6.44346053       6.37730378
O        4.05479145       8.59097321       9.08152096
O        1.29145736       8.74335467       8.89271669
O        2.32208310       3.70009686       4.44091256
O        3.43524531       7.68327750      11.38314116
Li       8.23018655       1.58907026       5.39639398
Li       1.60683405       2.56980170       6.07300851
Li       6.43361691       0.31106032       6.58162591
Li       5.87432685       3.03968183       5.89472713
Li       2.38551242       5.58142023       7.83588694
Li       4.94126790       9.67086135       2.60866838
P        7.41780717       3.44440649       3.26766923
P        5.61190116       0.29298694      12.08810065
O        4.51861880       1.27124363       6.53664995
O        8.72329158       0.08327491       4.27488814
O        9.62559939       1.84689061      12.01441946
N        8.09582289       4.71745446       3.80972715
O        6.31935241       1.50435020       0.70557059
O        6.02401815       4.11299571       2.59236297
O        8.21293196       2.84202493       2.14889477
Li       1.60600120       5.73413248       9.93708999
Li       7.76611692       0.70893039       1.52369850
Li       2.55948042       6.85888381       0.61850867
Li       0.90374425       0.02274583       9.68727343
Li       4.96295177       0.71914440       8.54115669
Li       5.85579459       1.31566147       3.01732202
P        6.57448487       3.43945327       9.02497227
P        3.64356835       0.34516812       5.50429341
O        6.53062513       9.36781266      11.89472698
O        8.34990261       0.41279630       7.32061304
O        5.08228721       3.62320570       9.11605615
O        9.33470106       5.74278437       5.58790205
N        7.22673869       4.88865236       9.17352143
O        2.09629152       0.73810725       5.59423361
O        5.79472493       6.75550129       7.28259916
O        6.78427145       2.67157609       7.74022465
Li       5.49223404       5.60987103       8.46122015
Li       8.24414003       9.26595386      11.23334960
Li       5.57372107       9.28100346      10.00383907
Li       2.99900861       1.03169231       2.47645474
Li       3.98923119       3.66602584       7.57119596
Li       7.24795991       6.52867550       3.37557305
P        7.59236822       9.45174770       3.91485679
P        5.71682406       5.07100478       1.36522425
O        4.96739377       4.60748753       6.07281371
O        6.81087467       2.43730669       4.31771153
O        6.78525286       9.95455081       2.67770508
O        9.39639173       6.31822998       1.47776856
N        8.26337546       8.18140361       3.38432220
O        5.94022379       6.52494520       1.71278685
O        4.51036511      10.13051738       0.90106851
O        6.65329008       9.35933828       5.12957121
Li       5.11191448       7.72231308       0.60030925
Li       8.58373820       1.77714591      10.26644620
Li       6.98130075       5.60956145      10.86094379
Li       5.14299071       8.50067987       7.48774014
Li       7.04987735       7.29612060       8.96824333
P        7.92359689       9.66151222       8.30725918
P        4.99708491       6.17476569       6.09251579
O        7.07551347       2.63276375      10.23827512
N        8.47616217       8.24835419       8.11710921
O        6.35962603       9.52054313       8.39258740
O        5.47506092       6.84186209       4.78440759
O        3.81007347       9.22445248       6.01097061
O        8.55223219      10.24155068       9.59440389
124
Lattice="9.63908 0.0 0.0 0.0 10.3723 0.0 0.0 0.0 12.0957" Properties=species:S:1:pos:R:3 material=LiPON model=NEP89 temperature_K=600 phase="NVT production" display_name="LiPON｜NEP89｜600 K｜NVT production計算" report_figures="23_LiPON_lithium_MSD; 24_LiPON_transport_comparison; 25_LiPON_temperature_RDF" source_frame_index=1230 relative_time_ps=123.0 pbc="T T T"
Li       2.99629896       9.38722015       0.34919965
Li       4.10502257       3.52171188       3.87455571
Li       8.21436725       3.62256349       0.47788777
Li       0.43938581       7.58429411       4.80202776
Li       0.17986164       8.25061943       2.06031886
Li       3.29253509       1.10772533      11.15174392
P        3.38851416       3.48989100       0.95415436
P        0.44767775       0.50294441       0.65785473
N        0.88633132       3.85155550       4.22397607
O        2.31377077       6.34653473       3.19808744
O        1.83088267       3.70444256       0.95972079
O        5.05066632       0.41480898      10.70481721
O        3.93232366       2.89002327      11.62767819
O        9.09163222       9.67767507       0.94365647
O        8.24401476       7.03997070      11.18237835
O        4.06033442       2.65675374       2.10847234
Li       5.78828929       2.60400973      11.36894951
Li       1.02552176       0.05527224       3.77096583
Li       2.58368956       8.34286441       5.93027640
Li       0.97469072       5.25053103       2.52660762
Li       3.70405760       4.14806014      10.12638716
Li       0.53202442       2.86127391       2.10200192
P        1.79312470       2.75649906       8.98289513
P        9.11914947       4.51636811       5.06760788
O        1.19078201       1.00619367       1.94986253
O        3.47797275       6.09060477       9.44154462
O        2.78340174       1.52784176       9.27882039
O        4.13057903       1.05166581       4.09530069
O        0.48080125       2.07225103       8.96810302
O        8.94608923       3.32694337       6.01761400
O        0.82713882       6.60199466       8.50453618
O        2.11282984       3.57284148       7.67277147
Li       8.75847329       2.33455864       7.70214894
Li       5.08395841       6.65112263       3.04526778
Li       9.06165619       5.43122141       8.01205003
Li       7.40924452       4.93374575      10.61560316
Li       7.84667799       7.71439811       6.46552664
Li       7.61268837       8.76677581       1.54509733
P        2.65541860       7.83068813       2.89243183
P        9.24101639       6.11296232      11.98823373
O        1.01742379       8.25237421       6.63963641
O        3.97384163       5.08774227       1.10157407
O        1.96739462       8.35197197       1.65144251
O        6.33797489       4.56151352       0.05443551
O        2.06873419       8.60069121       4.07255625
O        9.06129540       4.73877781      11.33142588
O        1.55471069       0.04643747      11.70190179
O        4.17759231       8.13208914       2.90337643
Li       0.68297469       3.17230034      11.46290449
Li       2.35774052       5.35422192       4.96282964
Li       5.15161345       8.36434852       4.60337279
Li       2.54051754      10.09000435       9.21837261
Li       0.46136851      10.11624682       6.09650505
Li       1.35049244       8.27329094      11.07872171
P        4.04585830       7.49502020      10.07477141
P        0.47040393       8.09054505       8.10686609
O        1.04794029       6.49284057      11.64105882
O        1.89192587       3.78023650      10.11101872
O        5.58231780       7.16013420      10.12776532
O        3.31758070       6.41325383       6.12000823
O        3.93293057       8.72872401       9.14116081
O        0.98233633       9.01287443       9.27023243
O        2.15517340       3.47297842       4.42806592
O        3.48418765       7.70902703      11.47146295
Li       8.03766482       1.64607890       5.42246981
Li       1.25110916       2.60201291       6.15282445
Li       6.12758828       0.10322469       6.44200043
Li       5.89624230       2.86142923       5.80748311
Li       2.13921333       5.94789081       7.51526190
Li       5.04728731       9.90151025       2.76520175
P        7.28473299       3.76398481       3.25594551
P        5.61237263       0.10180828       0.07913954
O        4.46479848       1.55471401       6.51790803
O        8.87299638      10.28506876       4.47386923
O        9.28897759       1.69666320       0.10631389
N        7.94763178       4.88996027       4.07024974
O        6.49631614       1.33372058       0.47682378
O        5.97866521       4.44873848       2.68691860
O        8.28687918       3.17047522       2.27725602
Li       1.49335584       5.68443920       9.94013619
Li       7.84152157       0.80269520       1.60327193
Li       2.21140912       6.55537891       0.81945502
Li       0.39158185       0.27795503      10.08212581
Li       4.69247293       1.22961191       8.66115473
Li       5.65144787       1.72572291       3.23864657
P        6.49145704       3.38509531       8.57981672
P        3.71061451       0.65220603       5.59904299
O        6.37609222       9.06571624       0.11798544
O        8.74938176       0.23448455       7.39477176
O        4.95706036       3.43876303       8.79118944
O        0.06440543       5.79883702       5.82497272
N        7.03074732       4.84173194       8.49144606
O        2.14114949       0.65856614       5.63153882
O        5.60416898       6.48582846       7.24902742
O        6.89385509       2.52044815       7.35281820
Li       5.25840597       5.57697898       8.89870216
Li       7.99530183       9.09732666      11.26951588
Li       5.73163313       9.27468845       9.91201205
Li       3.04445706       1.05569927       2.44663122
Li       3.84573339       3.35742228       7.25485608
Li       7.59457171       6.44120268       3.37087288
P        7.75095024       9.46780343       3.84921160
P        5.66056208       5.20349876       1.21992793
O        4.91488663       4.39358300       5.98595716
O        6.79238897       2.62929646       4.17908373
O        6.91869658      10.20250239       2.85921130
O        9.12790409       6.09446482       1.40849156
N        8.30316037       8.10777824       3.35056909
O        5.91368351       6.64785898       1.33426361
O        4.38628318      10.25349640       0.96715447
O        6.91085891       9.18815609       5.12252328
Li       4.76083801       7.91395525       0.80933245
Li       8.37335043       1.74964674      10.31733329
Li       6.65473809       7.04562398      11.70185873
Li       4.84186350       8.38536082       7.45266237
Li       7.49067466       7.13195902       9.31472476
P        7.97502635       9.66983506       8.31356290
P        4.82881696       5.98092489       5.99591924
O        7.05400066       3.03699030       9.92462375
N        8.58545838       8.23562990       8.10959897
O        6.45653494       9.56203486       8.03537564
O        5.50773922       6.54427176       4.72318774
O        4.24022906       9.56221164       6.01759889
O        8.21275592      10.14935505       9.76639461
124
Lattice="9.63908 0.0 0.0 0.0 10.3723 0.0 0.0 0.0 12.0957" Properties=species:S:1:pos:R:3 material=LiPON model=NEP89 temperature_K=600 phase="NVT production" display_name="LiPON｜NEP89｜600 K｜NVT production計算" report_figures="23_LiPON_lithium_MSD; 24_LiPON_transport_comparison; 25_LiPON_temperature_RDF" source_frame_index=1260 relative_time_ps=126.0 pbc="T T T"
Li       3.56423785       9.58803813      11.25218388
Li       3.61964264       2.71804436       4.05054756
Li       8.30595623       3.15689643      11.58348587
Li       0.44025820       7.47926538       5.33382876
Li       0.14254725       8.76119228       2.27461844
Li       3.16015775       1.28998261      10.70879443
P        3.36865840       3.31393109       1.04657531
P        0.65088690       0.62298102       0.36692922
N        1.06892916       4.08038027       4.26383862
O        2.50564694       6.43001005       3.15114355
O        1.98122705       4.00254778       1.18207429
O        4.99370483       0.30212881      10.78729946
O        3.69148125       2.77189548      11.75483356
O        9.21099331       9.86366148       0.62200525
O        8.32403841       6.79644131      11.08179514
O        3.77285578       2.27318226       2.16680441
Li       5.80182004       2.66902605      11.38264387
Li       0.89391675       0.69562412       3.47317211
Li       2.81689016       8.09460710       6.12546474
Li       0.20713981       5.76444680       2.65735485
Li       3.70999349       4.33388966      10.38132530
Li       0.69549683       3.21420789       2.38942777
P        1.74361921       3.09603391       8.80400533
P        9.20307248       4.55885251       4.88739885
O        0.99572011       1.24455439       1.74740441
O        3.46991477       6.14759995       9.28910460
O        2.14868437       1.71093743       9.22109515
O        3.92857509       0.98662989       4.60145675
O        0.20391129       3.29564336       8.50612745
O        8.66950809       3.31108377       5.72663529
O        0.30248300       6.07860531       8.57617021
O        2.55344683       3.56838117       7.48227148
Li       8.69054089       1.98505377       7.21014902
Li       4.35033092       6.16045722       3.37021542
Li       8.76945713       5.14874967       7.38162463
Li       9.26451442       4.65956245       9.74060225
Li       7.26492537       7.41843583       6.41692977
Li       6.89845408       8.70653161       1.63795790
P        2.61187387       7.97601460       3.17915072
P        9.34236419       6.05595932      12.01912523
O        0.98919688       8.12378208       7.10036530
O        4.31159708       4.55693127       1.51522236
O        2.02001985       8.57487419       1.89306551
O        5.61535194       5.17026115      11.38140318
O        1.77483499       8.67192616       4.36024633
O        9.42008088       4.52744530      11.90798780
O        1.99585537      10.31718977      11.77684225
O        4.09107100       8.49542562       3.27808535
Li       1.27657472       3.50742624      11.72280457
Li       2.36779027       5.15390159       5.16421476
Li       5.03469951       8.49928074       4.84122802
Li       2.15996025       9.81813409       8.81045939
Li       0.38036699      10.09853533       6.09890116
Li       1.83134431       8.18132230      11.49876659
P        4.06735893       7.50170075       9.92354342
P        0.27947606       7.69252202       8.39281061
O        1.17301306       6.68123871      11.83011009
O        1.89625280       4.00606808      10.03138790
O        5.73698147       7.40916061       9.79055127
O        3.29029645       6.35153696       6.16840256
O        3.69660467       8.83410789       9.22887761
O        0.97771907       8.26225201       9.61016894
O        1.87615844       3.07804163       3.94553331
O        3.66728240       7.56754655      11.41075537
Li       7.60475348       1.67220420       4.55390757
Li       1.19472186       2.63139158       6.04437862
Li       6.34233016       0.22210067       6.45697859
Li       6.31214704       3.40029081       6.06616497
Li       2.07031283       5.55463672       7.51777709
Li       4.81951392       0.04015274       3.26494424
P        7.31527137       3.72727698       2.77740521
P        5.68996900       0.06058060       0.09187004
O        4.53188253       1.52463394       6.91171716
O        8.91678080       0.18004067       4.57601990
O        0.20395060       1.77690633      11.53505861
N        8.14360155       4.85970449       3.58505798
O        6.53470872       1.26520161       0.38595704
O        6.81704457       4.47454668       1.47598748
O        8.46821709       2.72602534       2.28077193
Li       1.67887401       6.02451412      10.11029716
Li       7.91521580       0.94494757       1.89379606
Li       2.63173884       5.92637047       0.91590963
Li       9.13963731       1.61309890       9.68324242
Li       5.32716046       1.32319011       8.57426102
Li       5.64429308       1.74741360       2.33028765
P        6.76690222       3.27454343       9.04915083
P        3.59616595       0.57422671       6.02967907
O        6.79115194       9.26809693      11.98268138
O        8.72779696       0.11210530       7.35715917
O        5.20665148       3.39993077       9.21750984
O        9.33158086       5.80582109       5.74862240
N        7.31198114       4.72211774       8.84880333
O        2.07059426       0.77375520       6.24314284
O        5.68106614       6.46310894       7.15502828
O        6.90213532       2.55378653       7.72888832
Li       5.39668621       5.51009747       8.73172964
Li       8.69539740       8.83841882      11.24727521
Li       5.71269485       9.34549770       9.87268298
Li       2.94184901       0.61152399       1.46622361
Li       4.22588199       3.63775040       7.40811706
Li       6.75295438       6.31244776       3.33798742
P        7.66300070       9.60165441       4.05449333
P        5.61533497       5.24603592       0.77140696
O        4.86386258       4.43769683       5.62539387
O        6.33722233       2.91846486       3.67185681
O        6.73756611       0.00117332       3.12063903
O        8.87027850       6.49910319       1.33770538
N        8.10710842       8.24272937       3.36278945
O        5.77533300       6.67886285       1.38389493
O        4.59626737       9.94754098       1.09031307
O        6.77914090       9.04322880       5.24558909
Li       4.33950959       7.95229558       1.02855263
Li       7.95085169       0.60637038      11.45897922
Li       6.50017692       7.13257064      11.54072455
Li       5.39538432       8.40859660       7.93405610
Li       7.46244245       6.50399374       9.42609063
P        8.02276885       9.63102396       8.44659988
P        4.81894103       5.97572390       5.90189460
O        7.37818816       2.36320148      10.21272821
N        8.36745078       8.09076152       8.25407718
O        6.45398061       9.85749624       8.23088723
O        5.52164327       6.57718182       4.72442304
O        3.99875618       9.43177039       6.43354024
O        8.29947905      10.14804465       9.85900630
124
Lattice="9.63908 0.0 0.0 0.0 10.3723 0.0 0.0 0.0 12.0957" Properties=species:S:1:pos:R:3 material=LiPON model=NEP89 temperature_K=600 phase="NVT production" display_name="LiPON｜NEP89｜600 K｜NVT production計算" report_figures="23_LiPON_lithium_MSD; 24_LiPON_transport_comparison; 25_LiPON_temperature_RDF" source_frame_index=1290 relative_time_ps=129.0 pbc="T T T"
Li       3.28532397       8.05300756       7.67910913
Li       4.66534677       2.67472304       4.52099915
Li       8.07718229       2.63634279       0.35884106
Li       0.19554528       7.79879183       4.17670240
Li       0.87894241       8.53973502       0.92029152
Li       3.17638284       1.12810514      11.24473157
P        3.25218336       3.75142448       1.26656045
P        0.46296182       0.80443251       0.48716624
N        1.01161068       4.54139026       4.28873885
O        2.15737446       7.15027172       3.75846790
O        1.75682396       4.15280374       1.33417069
O        4.66059452       0.34398460      10.90178597
O        3.51141486       3.04002319      11.95881420
O        9.04791228      10.03518396       1.07088455
O        8.20217241       7.49951764      11.53791091
O        3.61076067       2.86775449       2.41641121
Li       5.50816505       2.57374301      11.21912398
Li       0.44317024       0.18939111       2.88812207
Li       2.43347148       7.78929714       5.28791072
Li       0.34237504       5.47461741       2.73324050
Li       3.71070029       4.21204605      10.39888305
Li       0.79634455       3.03823920       2.50731364
P        1.60936052       3.01820064       8.88415744
P        9.04132793       4.45232237       4.88556663
O        1.21287556       1.38389061       1.68031082
O        3.71807057       6.07016119       9.63437325
O        2.29920849       1.61300842       9.23026050
O        4.01911903       0.75382562       4.68500498
O        0.09127538       2.88641628       8.68270534
O        8.93099202       2.95753289       5.31361550
O        0.51780974       6.27720976       8.29007968
O        2.26950754       3.58629389       7.58836119
Li       8.88246989       1.97757153       6.98881952
Li       3.49101506       5.73940335       3.82361054
Li       9.26181058       4.50909561       8.06821572
Li       7.67174508       4.22811115      10.54305694
Li       7.97104783       7.41318293       6.24383764
Li       7.72652005       7.80103812       1.60742936
P        2.81486428       8.27493965       2.93815776
P        9.27300343       6.46512048       0.01889466
O        0.80697911       7.82053774       6.20007872
O        4.16549635       5.14011908       1.35811522
O        2.52479851       8.01284998       1.40767298
O        5.70821390       4.98466081      11.38880034
O        2.01722710       9.53261740       3.27002037
O        8.87027830       4.97627388      11.82862669
O        1.59255006      10.22825860      11.82959737
O        4.35860424       8.45715832       3.27398473
Li       0.75684519       3.68433513      11.55395281
Li       1.70089720       5.18515809       6.09368229
Li       4.83116332       8.17754717       5.07565174
Li       1.19334474       0.28250821       8.44409304
Li       0.56257582      10.29577927       5.88448785
Li       3.24480782       9.14106004       0.15411064
P        4.29707078       7.45185249      10.04920553
P        0.42988642       7.64520729       7.69088520
O        0.97882079       6.89814244      11.42746251
O        1.93199825       4.01004928      10.01555647
O        5.87405395       7.33452629       9.85521010
O        3.48375764       6.25720950       6.64582477
O        3.89711567       8.76094870       9.39521191
O        1.26408288       8.65155834       8.57106971
O        2.26204661       4.19535953       4.45452673
O        4.14048898       7.66343025      11.54801267
Li       7.66468087       1.63673636       4.19772393
Li       1.72994070       2.87707675       5.93283035
Li       6.15484792       0.64537291       7.04668729
Li       7.18176413       3.98462374       6.51057528
Li       3.17704697       5.14738652       8.06064904
Li       5.06545864      10.16020643       2.99038891
P        7.40440663       3.58174901       2.77903264
P        5.44815989       0.22110339       0.09559105
O        4.33592028       0.82996653       7.17302382
O        8.73658185       0.01781224       4.78308133
O        9.52762584       1.92416626      11.76690541
N        8.12370456       4.76957023       3.61749809
O        6.17945569       1.61152775       0.60882907
O        6.71211476       4.21453388       1.44956418
O        8.40120526       2.46564863       2.34057883
Li       1.84869243       6.03028407       9.92128549
Li       7.69542828       0.74236762       1.58289695
Li       2.73224264       6.66838411       0.28754283
Li       8.65165374       1.44227784      10.01297905
Li       4.12361341       0.18161201       8.77874665
Li       5.32150874       1.99676885       2.21144700
P        6.58860825       3.09335003       8.93479262
P        3.42586989       0.32330529       5.99620817
O        6.45801724       9.42631697       0.02201209
O        8.86496904       0.17243572       7.55496315
O        5.08194136       3.32311774       9.18591381
O        8.86115173       5.45117195       6.07439330
N        7.35281984       4.45172686       8.66588967
O        2.00865740       0.95365145       6.14386095
O        6.09086182       6.35060647       6.72179442
O        7.01932278       2.46958155       7.61217699
Li       5.54101584       5.43756841       9.23763536
Li       0.69293527       8.67364496      10.55085194
Li       6.11317895       9.49040689      10.24423158
Li       2.99378971       0.86634191       2.47684736
Li       3.86158799       2.50905429       7.59569650
Li       7.01067351       6.29250249       3.40327124
P        7.60988801       9.52930270       4.34701850
P        5.67223377       5.26082797       0.78049527
O        4.95658660       4.18469935       6.09027107
O        6.29456523       2.80812479       3.50764306
O        6.89447251      10.17132591       3.17535066
O        9.50843980       6.72947518       1.56033228
N        7.96572219       8.05651752       3.82518523
O        6.17715327       6.64749038       1.29365204
O        4.40037360       0.03403247       1.22245067
O        6.71409156       9.43943695       5.64102524
Li       4.93120628       7.98759046       1.46515345
Li       8.21091605       9.60094246      11.44272320
Li       6.26997736       7.31514114      11.56537661
Li       5.66125368       8.50819635       7.25460414
Li       7.60170208       6.69235881       9.25232567
P        8.22391122       9.48064942       8.34176522
P        4.83701848       5.75270507       6.02668549
O        7.20594806       2.41482657      10.22251872
N        8.52443414       7.96103424       7.85081876
O        6.64702172       9.61954918       8.36583047
O        4.99803858       6.15443103       4.53961739
O        3.51115534       9.14809330       6.16822151
O        8.68151855       9.94668997       9.84203701
124
Lattice="9.63908 0.0 0.0 0.0 10.3723 0.0 0.0 0.0 12.0957" Properties=species:S:1:pos:R:3 material=LiPON model=NEP89 temperature_K=600 phase="NVT production" display_name="LiPON｜NEP89｜600 K｜NVT production計算" report_figures="23_LiPON_lithium_MSD; 24_LiPON_transport_comparison; 25_LiPON_temperature_RDF" source_frame_index=1320 relative_time_ps=132.0 pbc="T T T"
Li       3.27115595       8.63442534       7.58040697
Li       4.12473962       3.29657551       3.89169280
Li       7.59931953       0.98948077      11.11080083
Li       0.20335673       7.42399877       4.44865269
Li       2.37398005       8.56226751      12.00317673
Li       2.98589988       1.72138056      11.95089681
P        3.42527696       3.88268705       1.24432788
P        0.66373902       0.66098877       0.18583157
N        1.05448477       4.22048454       4.31460860
O        1.93737010       7.23548625       3.75378453
O        2.07479621       4.63748280       1.35884877
O        4.53310457       0.86422198      11.09474895
O        3.82107686       3.51498087      11.82198643
O        9.24563580      10.16695544       0.85096410
O        8.21919581       7.29579486      11.38980498
O        3.47046172       2.76311247       2.26551906
Li       5.50299358       3.02965876      11.11380359
Li       0.08536357       8.84363175       2.14180556
Li       2.43120037       7.79765126       5.57579564
Li       0.59053795       5.62040500       2.79099621
Li       3.65210880       4.13499127      10.03581165
Li       0.68335389       2.94831602       2.14339006
P        1.73337640       2.98564383       8.86645944
P        9.20869752       4.06652728       5.05370763
O        1.43096511       1.48393127       1.28737788
O        3.62525611       6.14213509       9.50852809
O        2.46929611       1.55649503       9.14648892
O        3.79017552       0.91293966       4.50539932
O        0.25060870       2.66398584       8.58176228
O        9.13835929       2.60473455       5.40485785
O        0.65919791       6.24765401       8.63039648
O        2.44262604       3.73633645       7.64048745
Li       8.52195253       1.92215402       7.10359105
Li       4.47590111       6.53679183       3.27120158
Li       9.42802526       4.74653017       8.17393306
Li       7.79166502       4.78531061      10.76683597
Li       7.79941086       6.61683738       6.49701682
Li       7.24986383       8.17069957       1.69251275
P        2.47362256       8.49926185       3.10859922
P        9.36590203       6.57677013       0.12642919
O        0.94334653       7.66468509       6.52643452
O        4.46775254       5.08986341       1.68495191
O        2.05542735       8.16412440       1.63105405
O        6.07135098       5.16887295      11.64105247
O        1.75927267       9.78848529       3.44966241
O        9.17610972       5.05147561      12.01864673
O        1.53182636      10.16357956      11.41232956
O        4.03013969       8.37639826       3.11534790
Li       0.65454201       3.41237574      11.50185745
Li       1.57254040       5.49552175       6.03839925
Li       4.84185432       8.32419387       5.03954516
Li       1.52220699       0.01181958       8.27696695
Li       0.51941223       9.98140985       5.72129592
Li       3.03472141      10.36763237      10.17615206
P        4.22332225       7.41383981      10.12640956
P        0.56445468       7.61765285       7.97054688
O        1.12307398       6.97741608      11.59951135
O        1.72971636       4.00684032      10.04073412
O        5.80713955       7.15048647       9.86457331
O        3.26713539       6.28909982       6.51257348
O        4.00853560       8.80479215       9.34911636
O        1.29406876       8.69295718       8.75440350
O        2.29011872       3.64733241       4.36143212
O        3.93538933       7.54247515      11.65521610
Li       9.62784426       1.18941010       3.96411850
Li       1.54852429       2.65373072       5.85189580
Li       6.02102780       0.69243198       6.97799273
Li       6.45528953       3.25580346       5.45111814
Li       2.43353490       5.63017552       8.24190943
Li       5.00331385       0.00581920       3.35034995
P        7.44698131       3.46086388       2.95424981
P        5.34658312       0.34909350       0.26154093
O        4.28703537       1.18292058       6.95135932
O        8.71719546       9.86884351       4.42519502
O        9.48954052       1.72193024      11.49322698
N        8.03319449       4.48027843       4.01174477
O        6.43425369       1.51424460       0.39105161
O        7.11472185       4.42118650       1.72481968
O        8.47174814       2.37646048       2.42070850
Li       1.88561078       5.78984296      10.36243489
Li       7.78204568       0.83665877       1.55403707
Li       2.52054558       6.55814561       0.66107901
Li       8.90878130       1.78465522       9.70188628
Li       4.24501183       1.61956648       8.89395374
Li       5.32212444       2.03540834       2.14185888
P        6.65573051       3.19181681       8.71782753
P        3.36953357       0.49717342       5.95268174
O        6.20799133       9.34006858       0.00283663
O        8.90693430       0.18411859       7.74715438
O        5.05307679       3.49619586       8.93424283
O        9.02051475       5.10314557       6.20496998
N        7.27154702       4.60680442       8.97736475
O        1.83108467       0.61307381       6.26589461
O        5.72044425       6.20054651       7.34662675
O        6.74958514       2.56988643       7.34214415
Li       5.47887480       5.29863001       9.06933873
Li       0.46457164       8.54099980      10.56747793
Li       5.97801250       9.32124560      10.11263636
Li       2.76168719       0.93175050       2.56937829
Li       4.11579169       3.05680964       6.82711460
Li       6.93967927       5.94229541       3.71694109
P        7.38126080       9.24404609       4.23051816
P        6.01972119       5.30028648       1.05596596
O        4.85860965       4.28455697       5.76689932
O        6.30658596       2.93440361       3.74759996
O        6.81220826       9.78166241       2.84502426
O        9.31488393       6.97837726       1.66737380
N        7.67373812       7.77561617       4.01868940
O        6.16364915       6.81920236       1.48318476
O        4.49767234       0.32179461       1.52749826
O        6.31656538       9.42466771       5.36632815
Li       4.78180189       8.11127510       1.17477817
Li       8.06857316       9.06215172      11.77346519
Li       6.33781411       7.28448220      11.55852306
Li       5.50365657       8.03310801       7.90981900
Li       7.79037119       6.78731145       9.36600504
P        8.10524588       9.48338838       8.43353517
P        4.75863036       5.81570185       6.16157285
O        7.01519488       2.21279351       9.77979863
N        8.68233806       8.04990393       7.97228098
O        6.62197468       9.54586327       8.15110790
O        5.20999213       6.58369465       4.95670627
O        3.74317819       9.35963392       6.06641647
O        8.30104850       9.70376283       9.99221199
124
Lattice="9.63908 0.0 0.0 0.0 10.3723 0.0 0.0 0.0 12.0957" Properties=species:S:1:pos:R:3 material=LiPON model=NEP89 temperature_K=600 phase="NVT production" display_name="LiPON｜NEP89｜600 K｜NVT production計算" report_figures="23_LiPON_lithium_MSD; 24_LiPON_transport_comparison; 25_LiPON_temperature_RDF" source_frame_index=1350 relative_time_ps=135.0 pbc="T T T"
Li       3.16586291       8.36432737       7.65823270
Li       4.61314885       3.15430394       4.29467894
Li       0.15264299       3.44449203       1.36760627
Li       0.21643958       7.19789395       4.29488273
Li       3.24334813       9.24988098       0.21640565
Li       3.03620148       1.61244897      11.33417383
P        3.16619526       3.75846776       1.28730007
P        0.70946787       0.72497925       0.41607771
N        1.02947226       4.44905393       4.65128661
O        2.01560884       7.19115060       3.76083885
O        1.79497797       4.33998980       1.32453097
O        4.47861259       0.63240351      10.90711024
O        3.43673102       3.28425631      11.91716463
O        9.28910452       9.96063106       0.64176211
O        8.28824344       7.17985814      11.44191641
O        3.38962516       2.66628547       2.33217111
Li       5.56030763       2.94598875      11.19679307
Li       0.36682001      10.11060503       2.71048091
Li       2.51285487       7.85472901       5.51585512
Li       1.16178153       5.74539264       2.66427427
Li       3.86016729       4.55473390      10.59745632
Li       1.58377825       2.31872510       3.35192360
P        1.55844482       3.08730391       8.88093967
P        9.03341779       4.17433348       4.96780540
O        1.31430561       1.22296802       1.81190619
O        3.39165289       6.60098617       9.75503159
O        2.22326526       1.68357469       9.13202617
O        4.40311434       0.99439973       4.87032700
O        0.06599340       2.89022380       8.79938311
O        9.05724051       2.72338066       5.55249318
O        0.65556500       6.20783024       8.34160221
O        2.06608131       3.51732139       7.51015231
Li       8.82969366       2.16029162       7.41055563
Li       3.71436904       5.77800802       3.76177897
Li       8.88444114       4.61221938       8.36242234
Li       7.81710713       2.49888066       0.06652690
Li       8.00961941       7.30116539       5.87582033
Li       7.73061597       7.66325613       1.60347608
P        2.63483352       8.35867909       2.95084851
P        9.29464364       6.17165184      12.07899822
O        0.71006222       7.44255581       6.16099220
O        4.28468634       4.87573212       1.59063549
O        2.37984761       8.17032072       1.36675399
O        5.71094253       4.90428000      11.57292325
O        1.90159861       9.64157579       3.48918481
O        9.21019811       4.66982102      11.71183881
O        1.82783341       0.15337239      11.59573097
O        4.11288594       8.40894119       3.32829763
Li       1.17193389       3.62844907      11.37201385
Li       1.45912041       5.66822536       6.24508464
Li       4.77954151       8.14768700       4.98033140
Li       1.41529816       0.25677997       7.90362536
Li       0.84464414       9.73752575       5.31962982
Li       1.73266279       8.86457537      10.17824410
P        4.23492773       7.74631872      10.14036464
P        0.38216082       7.62873804       7.72895191
O        1.03749898       6.96020273      11.41395840
O        1.96492331       4.24732171       9.83981284
O        5.69643193       7.51925620       9.73335734
O        3.42983473       6.34044860       6.69196914
O        3.69294125       8.99646594       9.51394659
O        1.36903928       8.63527937       8.23439158
O        2.23264384       4.03859659       4.56400460
O        4.09555910       7.84964437      11.67755460
Li       8.66441292       0.76445327       5.36893613
Li       1.66719032       2.60892436       5.86030617
Li       6.02201750       1.05721354       6.92540009
Li       6.98161165       4.36497838       6.66615558
Li       2.78710312       5.64162189       8.38597036
Li       5.07913959      10.10764092       3.62453459
P        7.44052463       3.53867616       2.86655643
P        5.33625498       0.43153596       0.15042523
O        4.09375932       1.09989480       7.36649842
O        8.80817626      10.01929025       4.20130592
O        0.11775339       1.96889321      11.84639281
N        8.11179614       4.55324148       3.78839740
O        5.98657786       1.77428758       0.57863076
O        6.76469751       4.18451723       1.60638678
O        8.44261616       2.57596557       2.12591723
Li       1.47051608       6.30534320       9.92220551
Li       7.69392194       0.33535557       1.32511648
Li       2.78013706       6.47573162       0.51879566
Li       8.59825279       1.36046844       9.79292243
Li       3.78730199       0.48644956       9.14915960
Li       5.21406609       1.84295836       2.38790646
P        6.41647772       3.16899655       8.99999019
P        3.52329004       0.46037172       6.04145631
O        6.48824495       9.81241439      11.94186142
O        9.00859516       0.34089079       7.16913806
O        4.93717955       3.70813575       9.18627462
O        8.63305799       5.08844152       6.17337152
N        7.19524291       4.61933045       9.18853512
O        2.05525754       0.82586787       5.81042739
O        6.06758646       6.20438866       6.98005863
O        6.74861743       2.64003955       7.52738723
Li       5.48377499       5.65273385       8.94130788
Li       0.86191068       8.49489093       0.37173671
Li       5.93696585       9.75654450       9.78474224
Li       2.89894955       0.49216348       2.47946218
Li       3.97607162       3.20304028       7.61700651
Li       6.74357941       6.02848273       3.62821379
P        7.47836109       9.12967716       3.92347781
P        5.74066416       5.15308789       0.92379806
O        4.87630630       4.18837614       6.12170503
O        6.32923005       2.79446525       3.59420329
O        6.92684171       9.63019690       2.57327954
O        9.38579824       6.53200031       1.51012910
N        7.99594832       7.70615663       3.64781100
O        6.17088760       6.59214698       1.31426251
O        4.35133769       0.20107829       1.35497304
O        6.64043030       9.07376553       5.12099154
Li       4.64926301       7.93613095       1.52839356
Li       7.99721022       9.30513972      11.17166765
Li       6.25366505       7.22860670      11.70837584
Li       5.82157956       8.06160305       7.69541179
Li       7.71594653       6.67230567       9.67673587
P        8.33320859       9.70437758       8.14764008
P        4.82112155       5.73546635       6.12243963
O        6.96949203       2.21102367       9.97759613
N        8.50807606       8.12238467       7.80903078
O        6.74994132       9.89091209       7.94356089
O        5.14346136       6.34153975       4.70260573
O        3.59054085       9.28536640       6.16387383
O        8.83306677       9.99049559       9.55306370
124
Lattice="9.63908 0.0 0.0 0.0 10.3723 0.0 0.0 0.0 12.0957" Properties=species:S:1:pos:R:3 material=LiPON model=NEP89 temperature_K=600 phase="NVT production" display_name="LiPON｜NEP89｜600 K｜NVT production計算" report_figures="23_LiPON_lithium_MSD; 24_LiPON_transport_comparison; 25_LiPON_temperature_RDF" source_frame_index=1380 relative_time_ps=138.0 pbc="T T T"
Li       2.61196548       7.91613478       6.00295049
Li       3.88982692       5.38507005       3.21073808
Li       0.61270395       3.55027361       2.19476589
Li       0.45330575       7.37171569       4.28437807
Li       2.11954453       8.92290727      11.84730177
Li       3.02281538       1.31239844      10.94424279
P        3.35390263       3.62689593       1.09717982
P        0.40467872       1.03637796       0.38876571
N        0.41783654       4.78482709       4.19102617
O        3.03483977       6.89544441       2.29046893
O        1.92481204       4.05581216       0.97090215
O        4.82920733       0.50287507      10.89858576
O        3.75518875       2.91594251      11.89681073
O        9.07823438      10.19825678       0.72330375
O        8.27734372       7.39745458      11.76340835
O        3.60746627       2.85104527       2.39404008
Li       5.69632058       2.67433436      11.22838502
Li       0.22866006       9.50522533       2.48137527
Li       4.81828279       8.19600325       4.73450335
Li       1.49501543       5.91705511       2.59111541
Li       3.69494143       4.10235035      10.44639357
Li       8.87151419       1.28249767       4.67124726
P        1.58588782       3.05445771       8.68705792
P        8.85530156       4.37399804       5.25184934
O        1.09440897       1.41256406       1.72233983
O        3.58251867       6.00389733       9.56763215
O        1.75794269       1.46193787       9.04812073
O        4.22112881       1.06883097       4.90796019
O        0.03782809       3.22357955       8.50875939
O        9.19105232       2.96898836       5.57243401
O        0.50225996       6.56098650       8.68215058
O        2.30321960       3.43835409       7.32855589
Li       8.53828053       2.22150592       7.14199034
Li       6.74486015       6.22738282       4.14746337
Li       8.82944728       4.74850857       7.93517006
Li       7.73210915       3.00479842       0.47286680
Li       7.65370839       7.27574502       6.54947654
Li       7.73640586       8.64755684       1.22637005
P        2.98813521       8.31694434       2.82864597
P        9.52914924       6.57240883       0.15217511
O        0.76285344       7.81142038       6.45386703
O        4.31802759       4.89850544       1.02262403
O        2.24557642       9.26788493       1.89354750
O        6.44308204       4.22480108      12.02667869
O        2.06778277       8.50094843       4.16501073
O        9.21010225       5.19022601      11.63277550
O        1.50015269       0.38925738      11.63761395
O        4.40591410       8.71992925       3.15250171
Li       0.87822221       3.81573389      11.57655873
Li       1.64703137       5.16286840       6.03252892
Li       4.82482885       7.93846478       7.50839016
Li       0.66409821      10.33702318       9.82836124
Li       0.81538428       9.41099962       5.36488594
Li       2.97154579       9.99058044       8.68993449
P        4.27210128       7.36458183      10.11401430
P        0.37121904       7.88132218       7.94170697
O        1.19022209       7.03293090      11.60658492
O        1.96253052       3.73235439      10.01255842
O        5.85406519       6.95681535      10.08468885
O        3.28800329       6.27788821       6.50741026
O        4.03106628       8.56961130       9.15539494
O        1.14421094       8.95778967       8.72585671
O        1.71650406       4.87378943       4.00773610
O        4.01609164       7.54052622      11.61951964
Li       3.57088503       2.73996170       4.48169201
Li       1.27589708       2.30561559       6.22228200
Li       6.44226550       0.00392709       6.43090263
Li       6.30960116       3.05717309       5.33391424
Li       2.40664371       5.91777962       8.10223770
Li       5.29299870      10.25408907       3.24588356
P        7.41988410       3.35297296       3.19749176
P        5.54930322       0.21790258       0.15468562
O        4.06175664       0.89472169       7.52868062
O        9.14812802       9.78493081       4.24851880
O        9.29642072       2.13959691      11.66088130
N        7.53479498       4.52580579       4.24500936
O        6.55098721       1.43475155       0.58192039
O        6.00253961       3.77947383       2.55202475
O        8.53449176       3.49962188       2.21790540
Li       2.03928753       5.63468368      10.31235850
Li       7.84399196       0.75899380       1.81057941
Li       2.84283847       6.35614923       0.49339568
Li       8.81403933       3.47025841      10.37432045
Li       0.93932282       0.23122697       7.67216876
Li       5.21043427       2.07983147       1.98107152
P        6.48159086       3.36464176       8.65422722
P        3.65641701       0.26868581       6.19456316
O        6.37368694       9.29817818      12.05391334
O        8.64233041       0.26883603       7.24212590
O        4.98387935       3.68619719       8.74965612
O        9.07572507       5.40144508       6.30781255
N        7.10700654       4.72362762       9.04932852
O        2.00370444       0.34535820       6.04782725
O        5.78399308       6.32612751       6.76662857
O        6.78317661       2.80777816       7.22796986
Li       5.47972954       5.69071974       8.80680275
Li       8.48842569       9.21687468      11.24600671
Li       5.12626512       0.45659373       9.01303870
Li       2.70761039       0.91441392       2.13573583
Li       4.16382893       3.00733310       7.10280831
Li       8.44298508       5.72249968       2.73476347
P        7.84364769       8.83658007       4.09090091
P        5.92329300       4.84302086       1.18158369
O        4.73879330       4.29083742       5.43593985
O        7.30304793       1.94042573       3.79085996
O        7.05548152       9.15869125       2.80757118
O        9.43305241       6.57033595       1.65563336
N        8.17782525       7.34004985       4.06921790
O        6.45232091       6.14485311       1.55666130
O        4.52774220       0.41907906       1.25207906
O        6.80271703       8.93647608       5.27386474
Li       5.61812681       7.64013124       2.10923898
Li       8.06157716       1.17671099      10.77764312
Li       6.11775151       9.13191806      10.14480509
Li       7.86448749       6.16105446      10.07262914
Li       6.34019572       7.41386681      11.85905598
P        8.03204232       9.64649751       8.27162477
P        4.60624093       5.80312264       5.89146378
O        6.69614941       2.18660351       9.63874161
N        8.45659157       8.18125000       7.95781511
O        6.51628035       9.60107390       8.20021870
O        4.68873515       6.42768152       4.43202965
O        4.20299066       9.10641469       6.15289811
O        8.50983770       9.99225721       9.68329189
124
Lattice="9.63908 0.0 0.0 0.0 10.3723 0.0 0.0 0.0 12.0957" Properties=species:S:1:pos:R:3 material=LiPON model=NEP89 temperature_K=600 phase="NVT production" display_name="LiPON｜NEP89｜600 K｜NVT production計算" report_figures="23_LiPON_lithium_MSD; 24_LiPON_transport_comparison; 25_LiPON_temperature_RDF" source_frame_index=1410 relative_time_ps=141.0 pbc="T T T"
Li       2.59386768       8.28748759       6.11569536
Li       4.70359863       6.42149759       2.86285345
Li       0.82283442       2.72220013       2.50928346
Li       0.24511456       7.59647620       4.68407041
Li       3.27318218       9.20138008       0.22932937
Li       2.86864057       1.43977549      11.13641901
P        3.22535092       3.61737463       1.22645719
P        0.66693436       0.33542901       0.68859732
N        1.18916549       3.95281336       4.36204882
O        2.81239033       6.34027936       3.32232566
O        1.77565596       3.87180265       1.60038394
O        4.77790057       0.61134628      10.74933548
O        3.16936204       3.04080384      11.79908101
O        9.23473254       9.65681628       0.91910104
O        8.08216634       7.10634311      11.55001080
O        3.76907854       2.66180195       2.29630629
Li       5.30977288       2.86766816      11.07987926
Li       1.07130471       0.01568627       3.65367843
Li       5.23929299       8.42042728       4.89834640
Li       1.14008543       5.33613606       2.46181254
Li       3.43136756       4.36606851      10.40238998
Li       8.19943942       1.53311401       4.64950765
P        1.47340686       3.03234769       8.92903529
P        9.32560016       4.16649212       4.94749694
O        1.44075788       0.73810102       1.98431412
O        3.31608345       6.19713142       9.35271693
O        2.25174215       1.66735070       9.11764575
O        4.16592766       0.71721310       4.09742177
O        0.00883756       2.62204867       8.77629632
O        9.04326422       2.90787057       5.78518575
O        0.58450173       6.33962495       8.32709284
O        2.03309033       3.63919103       7.67620470
Li       8.46457678       2.23015828       7.26623187
Li       7.61453516       6.25595555       3.53173957
Li       9.09390614       4.55452304       7.86498184
Li       7.82017792       3.19174318       0.31920147
Li       7.99737891       7.88924989       6.07158092
Li       0.43495687       8.17360738       1.89156458
P        2.85229522       7.91482842       2.98847926
P        9.35455730       6.30949057       0.01661954
O        0.81301847       8.06936454       6.42737511
O        4.05111006       5.03696853       0.89746298
O        2.33421917       8.00380143       1.54077895
O        6.40086636       4.61373678      12.04257330
O        1.92116888       8.66540200       3.96653976
O        9.22891940       4.81296500      11.67555645
O        1.56361392      10.28456388      11.53770433
O        4.29579675       8.34528254       2.98036750
Li       1.17208770       3.58853271      11.73722101
Li       2.06860197       5.59736130       5.07580131
Li       5.95173198       0.35277315       6.60262857
Li       1.20027505       8.56937308      10.67213814
Li       0.38516701       9.94545695       6.07767756
Li       4.92888932       8.68601434       7.52006533
P        4.16987733       7.31973294       9.97819290
P        0.41121106       7.84593895       7.92368181
O        0.99768360       6.99223333      11.46447173
O        1.61183338       4.00548652      10.04356609
O        5.69607315       6.80786973       9.91648444
O        3.37471572       6.47809411       6.35567499
O        3.98977179       8.64236953       9.31159111
O        1.31337912       8.77415718       8.83364709
O        2.35841236       3.43307476       4.72994004
O        3.67400287       7.56157749      11.48527484
Li       4.04909356       3.05364982       4.15121728
Li       1.44538478       2.30985498       5.93303770
Li       5.72673230       2.54450966       6.12978054
Li       7.13606197       4.63957533       6.48178295
Li       2.68671765       5.45542239       7.81083451
Li       5.12533684       9.90241783       2.80560372
P        7.22984835       3.40756840       3.34260364
P        5.45455177       0.14485303      12.00919087
O        4.21599736       1.55802791       6.47891929
O        9.00618329       0.01367550       4.28153211
O        9.45281569       1.57699850       0.26442185
N        8.21561266       4.55631139       3.93975108
O        6.56394096       1.23295491       0.33822868
O        6.04396692       4.36905797       2.59144551
O        7.92257313       2.56567385       2.29626735
Li       1.45580026       6.00093408       9.78693245
Li       7.84620119       0.56960104       1.43574206
Li       2.63571660       6.49800417       0.32596053
Li       7.33383714       4.89073760      10.42665460
Li       1.16632645       0.09150071       8.67413881
Li       5.24860728       1.46951879       1.91804335
P        6.35764087       3.14697322       8.94188479
P        3.58698105       0.43779220       5.47178878
O        6.13142744       9.11173320      11.84150558
O        8.81178067       0.24608835       7.37917470
O        4.82603435       3.53148572       9.24492428
O        9.27549981       5.40210386       5.74608514
N        7.05954499       4.52850078       8.54450404
O        2.02456018       0.55852740       5.43208469
O        5.75873323       6.52152861       7.08467441
O        6.57954196       2.19027006       7.70121165
Li       5.22967465       5.34272073       8.82558013
Li       8.13517291       8.99485191      11.39001880
Li       3.61398941       0.21483865       9.13211023
Li       3.24271875       0.92135480       2.34341199
Li       3.80992949       3.00420910       7.64241965
Li       7.34751334       8.48882138       1.88873518
P        7.69597556       9.51145271       4.12607372
P        5.80094030       5.19015498       1.19573189
O        4.77184282       4.30670025       6.31053048
O        6.65084409       2.67030487       4.56506795
O        6.87602155       9.99836076       2.85358768
O        9.42315014       6.42785866       1.57851430
N        8.17256334       8.01923810       3.90285918
O        6.15674202       6.65091316       1.48194438
O        4.50094196       0.14431642       1.09027186
O        6.69118476       9.55320834       5.40829531
Li       4.90508562       7.98395623       1.20018671
Li       8.78782445       1.67857864      10.13238842
Li       5.78862738       9.29409609       9.96957076
Li       7.10105412       6.98905533       8.38599228
Li       6.40375920       6.88231545      11.62862581
P        8.08993516       9.64174816       8.30728327
P        4.81283690       5.83910206       6.12227039
O        7.10451908       2.80012405      10.15284636
N        8.54173728       8.18188537       7.89170733
O        6.56542432       9.49509408       8.20068389
O        5.35735500       6.36814345       4.70274179
O        3.99221609       9.33640356       5.90082683
O        8.42400363       9.94987346       9.80868985
124
Lattice="9.63908 0.0 0.0 0.0 10.3723 0.0 0.0 0.0 12.0957" Properties=species:S:1:pos:R:3 material=LiPON model=NEP89 temperature_K=600 phase="NVT production" display_name="LiPON｜NEP89｜600 K｜NVT production計算" report_figures="23_LiPON_lithium_MSD; 24_LiPON_transport_comparison; 25_LiPON_temperature_RDF" source_frame_index=1440 relative_time_ps=144.0 pbc="T T T"
Li       2.70906702       7.81934581       6.58762557
Li       4.38796647       6.16178156       2.89714378
Li       0.73578766       2.75787691       2.60980294
Li       0.33933942       7.54771064       4.85585544
Li       3.03860222       9.24437354       0.53225952
Li       2.74072324       1.43034268      11.39563839
P        3.35194120       3.52352699       1.17014541
P        0.49895857       0.44026583       0.62332775
N        0.96766538       4.18916244       4.19487118
O        2.47426275       6.35165139       3.30589843
O        1.86188828       3.82482658       1.10081552
O        4.70385452       0.60200228      10.78403226
O        3.69130586       3.03370014      11.85884631
O        9.08597117       9.67295936       0.92181593
O        8.32667619       7.01713429      11.56821526
O        3.78776356       2.53980740       2.26279261
Li       5.47171752       2.46999790      11.28461233
Li       1.10914255      10.29382376       3.59650654
Li       4.99541479       8.32831264       4.73030343
Li       1.29204556       5.20292641       2.24571699
Li       3.79642279       4.46076852      10.60683800
Li       8.10186041       1.66163682       4.35324292
P        1.66267029       2.88900697       8.87411308
P        9.10465089       4.30860271       4.70204793
O        1.17124176       0.82451275       2.05921144
O        3.33247341       6.23818774       9.46157321
O        2.21215139       1.53156590       9.32727487
O        3.76789901       0.86392374       4.40867429
O        0.14637528       2.76602005       8.28662201
O        8.90291692       3.06272896       5.53788437
O        0.46060963       6.11582282       8.32428688
O        2.58957620       3.58459928       7.86412390
Li       8.74687040       1.86152102       6.97723248
Li       7.40043615       6.32209870       4.36242690
Li       9.17386470       4.73922860       7.71069181
Li       8.15616279       3.13423945       0.59484519
Li       5.08722017       8.32066875       7.38002740
Li       9.61870951       8.34813653       2.25856053
P        2.61293515       7.87440038       3.03688789
P        9.42963464       6.03645324       0.06849518
O        0.84354825       7.94899803       6.63182368
O        4.10704225       5.00677121       1.30540323
O        2.14933144       7.90485749       1.51101925
O        5.72954539       5.19530021      11.39671777
O        1.65171854       8.62734189       3.97349881
O        9.12509701       4.57369839      11.90787703
O        1.61797307      10.18908770      11.84891364
O        4.03915652       8.34874988       3.13179457
Li       0.78280176       3.25667888      11.63873470
Li       2.31144199       5.40553932       5.18060202
Li       6.22663337       0.68291143       6.77546105
Li       1.25564216       8.36141511      11.15584271
Li       0.74316924       9.83370630       5.95100441
Li       2.40945041      10.07843298       8.67414325
P        4.18521087       7.56113035       9.90235218
P        0.43284284       7.72160684       8.11825208
O        1.26419314       6.31164195      11.67811344
O        1.65185993       3.83880863      10.07142216
O        5.61519761       7.35658435       9.68780057
O        3.53806405       6.20548811       6.27502997
O        3.90648104       8.81850166       9.04939407
O        1.19204715       8.55992301       9.19198736
O        2.16916497       3.65382451       4.19187600
O        3.85122249       7.78400011      11.46424092
Li       4.36312140       3.22008681       3.92435242
Li       1.87441923       2.36866764       6.08953372
Li       6.29267074       3.02480627       5.76979632
Li       7.25480508       7.84289824       6.63660181
Li       3.05777874       5.48602252       7.86774575
Li       4.76657731      10.10044546       3.24727523
P        7.35529487       3.53748598       2.93741759
P        5.47148316       0.15765607       0.02493344
O        4.52202625       1.23572572       6.87984582
O        9.07362256      10.07998514       4.56001674
O        9.52668609       1.64468708      11.89490587
N        7.97332785       4.79124701       3.66333901
O        6.49609558       1.30223587       0.40121525
O        6.70491204       4.09656846       1.53047339
O        8.43769606       2.55939163       2.61629380
Li       1.51280606       5.67321226       9.98231214
Li       8.08974603       0.79342399       1.77721563
Li       2.91362588       6.49293103       0.44827330
Li       7.79749381       4.53922012      10.59324111
Li       9.12706803       1.66656373       9.72960190
Li       5.67748762       1.81890566       2.07369920
P        6.75647333       3.18141713       8.91046295
P        3.58867272       0.37644030       5.97297918
O        6.32049143       9.25463960      11.82048707
O        8.67607402       0.07081470       7.30733530
O        5.21961856       3.44737738       9.03192065
O        9.01890789       5.52596743       5.66967994
N        7.37991790       4.55714784       8.57404050
O        2.06969499       0.53467893       6.24996909
O        6.01121885       6.37912576       6.90192724
O        6.83708716       2.32266806       7.54243230
Li       5.51243419       5.48532336       8.55260638
Li       8.25094736       8.94189739      11.40928796
Li       4.30162171       1.24725331       8.94390258
Li       2.89616195       0.79137509       2.36310390
Li       4.33073126       3.30085266       7.39810446
Li       7.87571433       6.31752004       2.38834915
P        7.76136000       9.34175477       4.05310578
P        5.66133284       5.30689417       0.89286426
O        4.92501174       4.26639078       5.71606650
O        6.25445214       2.94246323       3.74538340
O        7.05169753      10.32366850       3.10445040
O        9.49943074       6.22639622       1.62584026
N        8.21824516       8.00113151       3.44530629
O        5.92794039       6.69037634       1.47232557
O        4.35453039       0.07874757       1.09035101
O        6.73113871       8.98945104       5.18400680
Li       5.37332370       8.48510013       1.39799997
Li       7.82103378       0.68041657      11.21238649
Li       5.81040042       9.51564534       9.71009564
Li       7.62408199       6.48425745       9.10820699
Li       6.20974924       7.29822296      11.47600115
P        7.96870950       9.59107873       8.31763704
P        4.95801390       5.80963777       5.85953024
O        7.26402200       2.50995422      10.14368597
N        8.48426457       8.05881657       8.27860589
O        6.45500691       9.40715433       7.94569171
O        5.22960483       6.32685679       4.47762886
O        3.92895789       9.21638974       6.22335082
O        8.22314948       9.95658931       9.77882392
124
Lattice="9.63908 0.0 0.0 0.0 10.3723 0.0 0.0 0.0 12.0957" Properties=species:S:1:pos:R:3 material=LiPON model=NEP89 temperature_K=600 phase="NVT production" display_name="LiPON｜NEP89｜600 K｜NVT production計算" report_figures="23_LiPON_lithium_MSD; 24_LiPON_transport_comparison; 25_LiPON_temperature_RDF" source_frame_index=1470 relative_time_ps=147.0 pbc="T T T"
Li       2.61771359       8.14607608       6.17654579
Li       5.46293403       6.42815664       3.08881672
Li       0.73230560       2.72053869       2.41158913
Li       0.19312072       7.55810512       4.90534336
Li       3.21139354       9.06901889      11.78158832
Li       2.98308401       1.33579025      10.94399599
P        3.45824160       3.30387303       1.21937084
P        0.65347590       0.55015307       0.23938137
N        1.07705579       3.94620532       4.19984489
O        1.98047926       7.71556345       4.39116198
O        2.01634337       3.82700593       1.26449699
O        4.91119007       0.52740812      10.78021494
O        3.76198343       2.88896181      11.82673954
O        9.33767113       9.65594562       0.43960334
O        8.34839094       7.00270404      11.07629906
O        3.68942875       2.25899973       2.30845688
Li       5.53397705       2.56746911      11.44136993
Li       0.92832689       0.24538472       3.45141406
Li       4.93735564       8.63808114       4.86775845
Li       1.57532761       5.18232096       2.69971601
Li       3.94920764       3.93846169      10.42986820
Li       8.88443323       1.60407296       4.60240029
P        1.48050075       3.09166309       8.92660576
P        9.27723429       4.38511781       4.89883694
O        0.98736581       1.09484165       1.64335218
O        3.28345530       6.05815788       9.59677220
O        2.21486050       1.77322665       9.15182723
O        4.27745659       0.38144272       4.38570312
O        9.56437326       2.90889434       8.75909727
O        9.27745198       3.14627213       5.72456646
O        0.40299767       6.23480359       8.44188498
O        2.20452202       3.79022137       7.78747300
Li       8.51877730       2.05163320       7.13865080
Li       8.53891738       6.11971485       2.83309334
Li       9.08067850       4.55002043       7.76421225
Li       8.49309901       2.74374016       0.63685671
Li       4.81349503       7.94122154       8.12782794
Li       0.66952045       8.57418917       1.46558730
P        2.70173033       7.92847942       3.00303196
P        9.37232191       6.41034180      12.06660816
O        0.85579743       8.04093881       6.68063516
O        4.45353357       4.66556175       1.44497151
O        2.45747882       6.65336246       2.15537403
O        6.17385617       4.92667498      11.58334163
O        1.91732981       9.23148929       2.57517453
O        9.22912609       4.76134957       0.11670998
O        1.82115271       0.00993587      11.49175911
O        4.23061067       8.19258671       3.11984367
Li       1.22097254       3.58396601      11.87509858
Li       2.23264647       5.80885813       5.20523366
Li       5.69332230       0.89737806       6.71577433
Li       1.04473197       8.58974424      10.79258597
Li       0.40128356       9.90463298       6.01477861
Li       2.58945126       9.79221533       8.52683990
P        4.02173239       7.22577847      10.22071690
P        0.29754189       7.73181747       8.03356712
O        1.11213238       6.88617091      11.49255645
O        1.79743146       3.93862584      10.18744802
O        5.51556214       7.26512573       9.77664914
O        3.62468823       6.45220823       6.60538363
O        3.57726801       8.60653186       9.61084214
O        1.06874115       8.66272279       9.03858649
O        2.34579175       4.03187447       4.42118572
O        3.80910970       7.20957714      11.85349700
Li       4.31157685       3.65900375       4.09771974
Li       1.69243894       2.62330690       5.88835811
Li       5.90686273       2.96209813       5.81798163
Li       7.56486851       7.50694708       6.23803906
Li       2.66918075       5.52653202       8.02411811
Li       4.92644638       9.84101416       2.93307336
P        7.41580681       3.22839961       3.10347486
P        5.55853026       0.04551979       0.05358347
O        4.04061836       1.83642176       6.41379777
O        8.90773309      10.04867508       4.27152930
O        9.60861611       1.76234949      11.45846159
N        8.22545208       4.37757830       3.69164562
O        6.52002089       1.10493583       0.62777650
O        6.84189857       3.69670650       1.62418207
O        8.43750009       2.13168499       2.86006747
Li       1.38216874       5.93285606      10.07821353
Li       8.04370526       0.23250826       1.53174452
Li       2.45096993       6.09080509       0.36974187
Li       8.30017118       4.15732220      10.67431321
Li       0.26376509       0.15112825       9.29954246
Li       5.45090083       1.46596844       2.87424605
P        6.37490925       3.20120280       8.96825096
P        3.41004307       0.57442792       5.69161346
O        6.31562612       8.98329915      11.86028024
O        8.76148810       0.11703878       7.35688008
O        4.88075356       3.59014451       8.93314404
O        9.46968210       5.75756593       5.45904226
N        7.20638791       4.51081451       8.83654335
O        1.80914849       0.76834305       5.36173231
O        6.00384641       6.31811160       7.25859577
O        6.60197897       2.39521309       7.57485308
Li       5.35895930       5.53470151       9.06772402
Li       8.03182143       9.07184339      11.32320591
Li       4.30531652       1.57696224       8.98911098
Li       2.89912892       0.46366726       2.04423587
Li       3.88078421       3.33622427       7.21886573
Li       7.55415945       8.00703704       1.41076047
P        7.65445683       9.22710954       3.98941416
P        6.01076204       4.98656891       1.01486138
O        4.79301026       4.37463596       5.91558192
O        6.24403033       2.61949405       4.00255821
O        7.05107720       9.50651361       2.62831468
O        9.23417276       6.86459226       1.41730869
N        8.04135529       7.75789126       3.91739886
O        6.39434363       6.41063119       1.55108923
O        4.53340750      10.02246119       1.12008177
O        6.48152191       9.47861676       4.98693740
Li       4.76433983       7.72984343       1.24997080
Li       7.69270370       1.08534088      11.03845727
Li       5.38637745       9.29670564       9.76894473
Li       7.37027216       6.72424699       8.70133903
Li       6.48834142       7.17206848      11.49151026
P        7.82696703       9.61233430       8.30637038
P        5.01348240       5.88450506       6.19854790
O        6.87317406       2.45451378      10.23769751
N        8.26686631       8.10431639       7.94526476
O        6.27263703       9.76726007       8.07477193
O        5.53893037       6.63655268       4.91502373
O        3.68367367       9.75440236       6.66484798
O        8.12806742      10.19507623       9.75965074
124
Lattice="9.63908 0.0 0.0 0.0 10.3723 0.0 0.0 0.0 12.0957" Properties=species:S:1:pos:R:3 material=LiPON model=NEP89 temperature_K=600 phase="NVT production" display_name="LiPON｜NEP89｜600 K｜NVT production計算" report_figures="23_LiPON_lithium_MSD; 24_LiPON_transport_comparison; 25_LiPON_temperature_RDF" source_frame_index=1500 relative_time_ps=150.0 pbc="T T T"
Li       2.58102460       8.40666064       6.09645096
Li       4.59346959       5.88735403       2.99954547
Li       1.69644937       2.97663513       2.57191818
Li       0.11585106       7.47941826       4.46024696
Li       3.00698694       9.09055130      12.03711492
Li       3.49462248       1.69410325      10.64503435
P        3.54272588       3.56982351       1.17722661
P        0.49317901       0.34500864       0.37314198
N        0.93795735       4.26350258       4.44318974
O        1.81477777       8.34301787       4.16293807
O        2.01789702       4.08136426       1.12567447
O        4.76514546       0.20469916      10.71103538
O        3.96451931       2.81988726      12.03578149
O        8.88731273       9.90234509       0.95506675
O        8.35816179       7.07745929      11.49381018
O        3.83688953       2.96842656       2.55185227
Li       5.82563519       2.80986087      11.36349060
Li       0.98429140       0.17519057       3.48912860
Li       5.21938061       8.00015813       4.73496148
Li       1.07321066       5.28116942       2.48854159
Li       3.78439102       3.95514158      10.56736937
Li       8.23871936       1.43637719       5.23315539
P        1.59213099       2.89282756       9.03361664
P        9.05569864       4.55587768       5.07005317
O        1.26206289       0.88245363       1.64207936
O        3.45531269       6.02328078       9.38579137
O        2.17855017       1.46146977       9.33088381
O        3.99293624       0.57080607       3.74191431
O        0.08591674       2.73805831       8.77570115
O        8.44652070       3.51562965       6.02339355
O        0.58778191       6.33258929       8.40994494
O        2.42869477       3.62026567       7.83968799
Li       8.51863053       2.22568314       7.52315356
Li       7.18901626       6.37025124       3.39841226
Li       8.99398028       4.45940053       7.94217516
Li       8.23052742       3.33114955       0.47049206
Li       5.10380128       8.49090497       7.34910385
Li       0.27282263       8.32508689       2.09978977
P        2.63100353       7.89762107       2.92451864
P        9.30718611       6.00879350      12.06822540
O        0.68315580       8.13811769       6.66516428
O        4.27863633       4.99325839       1.18550330
O        2.52128714       6.33439927       2.81241495
O        6.44721927       4.47275036      11.85835877
O        2.07649749       8.50120206       1.60089296
O        9.07174525       4.54404927      11.52818221
O        1.43931135      10.04107170      11.41516425
O        4.09800948       8.20126949       3.04159204
Li       0.97287867       3.58462667      11.88694074
Li       2.23749656       5.76747659       5.03616093
Li       5.91224237       0.84844501       6.40665750
Li       1.11433363       8.13585368      10.89701737
Li       0.36319375       9.82559923       6.13451266
Li       2.60056541       9.92419739       9.48675073
P        4.24675379       7.15971160      10.11040896
P        0.46343595       7.81025128       8.11106172
O        1.00688252       6.37470238      11.48891173
O        1.85709688       3.79335608      10.22798027
O        5.78808920       6.55656564      10.11146669
O        3.39746817       6.36513555       6.23792489
O        4.16499332       8.48631326       9.31158178
O        1.29581987       8.63433065       8.98034900
O        1.96696093       3.49580466       4.56180963
O        3.50634407       7.25718121      11.58133832
Li       4.05973775       3.48854913       4.55677639
Li       1.76055967       2.44691824       6.20037591
Li       6.41886226       3.25643380       5.95800876
Li       7.68191153       7.54818007       6.52312705
Li       2.41778541       5.56148739       7.68328129
Li       4.94867609       9.69902843       2.71831546
P        7.47782798       3.47773845       3.20991140
P        5.53144503      10.29129285      12.06562362
O        4.16175438       1.63646378       6.04096134
O        8.87759396      10.32139272       4.18987215
O        9.41113300       1.43627711      11.63145752
N        8.06523123       4.80660413       3.88952982
O        6.37634253       1.19239939       0.37153917
O        6.50510478       4.27567304       2.20420931
O        8.55522475       2.57761730       2.44290382
Li       1.74368388       5.52292550      10.15343920
Li       7.56432978       0.73500149       1.93397901
Li       2.61007678       6.12409752       0.72737253
Li       7.32040598       5.19764565      10.52472908
Li       0.30044596       0.40791313      10.00547886
Li       5.49237592       1.60884656       3.12074810
P        6.39389990       2.93394892       8.89705311
P        3.57775454       0.53092338       5.27352820
O        6.36251872       8.99265886      12.03598772
O        8.67325405       0.25594820       7.21920693
O        4.77296515       3.07509256       9.23013016
O        9.04576199       5.87324874       5.84003281
N        7.14085708       4.34350451       8.57112977
O        1.98586084       0.58791612       5.40724959
O        5.80730148       6.64261490       7.19664572
O        6.55449720       2.15920397       7.57688999
Li       5.47323154       5.15291349       8.55965497
Li       8.28123816       8.83010397      10.97554112
Li       7.63748811       0.81574027      11.16440481
Li       3.12347662       1.04681419       2.13095434
Li       4.04541138       2.82806059       7.46481779
Li       7.30363038       8.39733081       1.59945678
P        7.67069872       9.28742811       4.03033155
P        5.93370804       5.20948221       0.95921936
O        4.83520616       4.45542546       6.22378727
O        6.65907004       2.69580391       4.23611158
O        6.58035601      10.04718746       3.25976724
O        9.28532590       6.11163919       1.49244018
N        8.23295442       8.11592702       3.18584922
O        6.09992457       6.64181636       1.46882726
O        4.40760992      10.28116575       0.98048393
O        7.00427184       8.54800921       5.24395896
Li       4.74095423       7.91892378       1.07446379
Li       8.81250655       2.95209754      10.56947851
Li       5.67021247       0.19054527       9.24746744
Li       6.76397306       7.77797898       9.02778011
Li       6.40212010       7.33618131      11.83299744
P        7.92066023       9.72333693       8.15154329
P        4.89258754       5.96399203       6.03478849
O        7.11701327       2.34730798      10.12364778
N        8.54721594       8.19531491       8.30936780
O        6.35048210       9.73519348       7.87907847
O        5.47592743       6.20322818       4.64876633
O        4.07657691       9.52394325       5.79137800
O        8.14901089      10.30384731       9.65840858
124
Lattice="9.63908 0.0 0.0 0.0 10.3723 0.0 0.0 0.0 12.0957" Properties=species:S:1:pos:R:3 material=LiPON model=NEP89 temperature_K=600 phase="NVT production" display_name="LiPON｜NEP89｜600 K｜NVT production計算" report_figures="23_LiPON_lithium_MSD; 24_LiPON_transport_comparison; 25_LiPON_temperature_RDF" source_frame_index=1529 relative_time_ps=152.9 pbc="T T T"
Li       2.48263699       7.79593368       5.55643700
Li       4.18177519       5.19766155       3.49848284
Li       0.48910043       2.74129124       2.19502056
Li       0.03597538       7.69111501       4.70436642
Li       3.07076572       9.32850110       0.26674852
Li       2.75915640       1.47582102      10.79613313
P        3.32265719       3.63903073       1.18640299
P        0.46817479       0.44071248       0.51581951
N        0.90072778       4.03302147       3.93667438
O        1.75512457       8.57486348       3.85756365
O        1.75714435       3.92127399       1.23370636
O        4.76109154       0.70819335      10.75030072
O        3.82413773       2.97463984      11.99898015
O        9.09671490       9.61544703       0.82467920
O        8.34026566       6.74671814      11.09675226
O        3.93546568       2.83939194       2.36472784
Li       5.59628664       2.58270824      11.11042435
Li       1.02698329      10.33273520       3.70175775
Li       4.89486685       8.11046073       4.79039817
Li       1.05733982       5.35398096       2.46218461
Li       3.88542729       4.44131732      10.27631523
Li       6.32804313       0.52477606       6.46306533
P        1.80164165       2.82007626       8.75020258
P        9.37136350       4.52673794       4.90014227
O        1.00475200       0.96347036       1.84185264
O        3.36445408       6.15239180       9.37936622
O        2.32013916       1.32776407       8.96218369
O        3.67630023       0.80211172       4.33687995
O        0.28814665       2.58738467       8.79233379
O        9.27652918       3.61728413       6.13224987
O        0.61899004       6.10376413       8.23621064
O        2.31213804       3.41061074       7.42230688
Li       8.60793438       2.01422908       6.93165327
Li       7.67292927       6.38923964       2.80553212
Li       9.48286179       4.43236033       8.01738609
Li       7.76273534       3.14234204       0.49146482
Li       5.28719125       8.34373374       7.36460167
Li       0.13332787       8.19247490       1.94558635
P        2.59820220       7.75621316       2.96389091
P        9.26436904       5.92285734      12.06245161
O        0.98773075       8.00271809       6.58252516
O        4.19493200       5.24287395       1.30768653
O        2.49186655       6.24969343       3.24751636
O        6.29441218       4.38879289       0.07527695
O        2.25054567       8.02322311       1.51399370
O        9.05915394       4.44829267      11.76724252
O        1.56278329      10.24277807      11.59328551
O        4.05106179       8.29452988       3.14805966
Li       0.91468114       3.04885905      11.81111567
Li       2.18832379       5.06429288       5.34184948
Li       4.32188477       1.14272544       8.69836258
Li       1.27151183       8.33082319      10.94204783
Li       0.50923801       9.81837792       6.15444476
Li       2.89166348       9.56791538       8.26187216
P        4.36128087       7.30786934       9.89273679
P        0.49598827       7.60963322       8.00280236
O        1.01599929       6.44377131      11.51069791
O        2.10048456       3.70741867       9.97592669
O        5.82121578       6.68753021       9.87189306
O        3.39907191       6.29878622       6.23376742
O        4.34439061       8.58831901       9.05727807
O        1.29343349       8.38731091       9.01247964
O        1.99880065       3.38351887       4.24372758
O        4.03456440       7.62981815      11.40906344
Li       3.95057962       2.70217979       4.33444238
Li       1.13512148       2.36814294       5.65209075
Li       6.88407924       3.67704821       5.91739760
Li       7.79444099       7.31400069       6.34731605
Li       2.53243114       5.26213266       7.62658554
Li       4.75975873       9.97856151       3.20676502
P        7.14665984       3.41615310       3.39913638
P        5.38086349       0.28889097      12.09138376
O        4.28947807       1.28625275       6.61226049
O        8.76928313       0.16828220       4.24637322
O        9.45717173       1.60056334      11.73073632
N        7.84832087       4.49097038       4.45276018
O        6.44203432       1.36439084       0.57033694
O        6.03463473       4.43149640       2.64658151
O        8.17206857       2.87277039       2.35044262
Li       1.72396029       5.61735732       9.99932208
Li       8.25808448       1.03261126       2.49594856
Li       2.56746579       6.32718480       0.66145925
Li       7.42427675       4.74018585      10.60216250
Li       0.75769399       0.16179282       9.99260227
Li       5.41090615       1.61917184       2.26328751
P        6.40715403       3.20809853       8.67297805
P        3.29350074       0.49664543       5.83496340
O        6.31551030       9.45616901      11.99814269
O        9.04228312       0.07889919       7.30818755
O        4.86140549       3.41070972       8.77513706
O        9.20430854       6.04888084       5.13180403
N        7.21944174       4.59709058       8.57315047
O        1.83490177       0.73360990       6.14797153
O        5.93320221       6.44388866       6.90776155
O        6.87026015       2.39130853       7.47874631
Li       5.64072775       5.55899196       8.47247267
Li       8.26714515       8.93875628      11.22879047
Li       7.74478656       0.98070410      10.71757125
Li       2.84037100       1.22024879       2.32306535
Li       4.29590685       3.16275282       7.25756908
Li       7.29222046       9.55949695       1.36303166
P        7.58734002       9.57879844       4.10480465
P        5.83688560       5.15299410       1.25344706
O        4.92101717       4.37952790       5.84558108
O        6.34315633       2.45719456       4.26469352
O        6.63803096      10.13995800       2.88673825
O        9.38450118       6.21025875       1.52021889
N        8.33081953       8.23916943       3.60426338
O        6.35501484       6.64072627       1.40675007
O        4.35689801       0.04453137       1.20915250
O        6.75864290       9.16895017       5.29238324
Li       5.24976149       8.17954582       1.63406313
Li       9.14004723       2.94209065      10.22973912
Li       5.86763711       9.46556174       9.63358029
Li       7.65969400       7.00679578       9.14020490
Li       6.34251915       7.05699154      11.63996051
P        8.18134196       9.54242908       8.20837684
P        4.87466992       5.92864227       5.86612100
O        6.94221793       2.59439483       9.96316234
N        8.60728950       7.98933818       8.09741730
O        6.71713171       9.53908822       7.93781127
O        5.50853379       6.29494627       4.46304164
O        3.70805611       9.38844003       6.07675268
O        8.38976133       9.84196866       9.74038796
124
Lattice="9.63908 0.0 0.0 0.0 10.3723 0.0 0.0 0.0 12.0957" Properties=species:S:1:pos:R:3 material=LiPON model=NEP89 temperature_K=600 phase="NVT production" display_name="LiPON｜NEP89｜600 K｜NVT production計算" report_figures="23_LiPON_lithium_MSD; 24_LiPON_transport_comparison; 25_LiPON_temperature_RDF" source_frame_index=1559 relative_time_ps=155.9 pbc="T T T"
Li       2.44253159       8.07573092       5.73922433
Li       4.62348903       6.05888373       2.91860270
Li       0.96230183       2.42792283       2.73038444
Li       0.05030107       7.92021298       4.90525691
Li       2.94919132       9.19657549       0.20323842
Li       3.07049379       1.21133718      10.82311610
P        3.45159424       3.57764462       1.10898916
P        0.49069517       0.47427993       0.34324264
N        0.81372427       3.94841583       4.36216832
O        1.72521802       8.43627483       4.06433988
O        1.96894279       4.03553530       1.22873380
O        4.97929811       0.51769652      10.80137913
O        3.61920721       2.69041942      11.89972422
O        8.93960899       9.96385866       0.70031900
O        8.34710307       6.75889098      10.98650485
O        3.94320786       2.72328484       2.36095600
Li       5.44131344       2.72338670      11.50110178
Li       1.42086235       0.06469351       3.81454042
Li       4.79772435       8.18537978       4.74832110
Li       0.97332153       5.05419452       2.72841697
Li       3.54943612       3.88834378      10.33928673
Li       6.56395582       0.74054088       5.92334863
P        1.84445767       2.83188617       8.62859548
P        9.08299558       4.59187873       5.13483242
O        1.07029106       0.84664292       1.77906535
O        3.17475946       6.09702508       9.46836714
O        2.99860289       1.83259175       8.85607396
O        3.72039204       0.41065078       3.94319756
O        0.58150679       1.96511559       8.42137195
O        9.00244193       3.59897463       6.22143566
O        0.64109394       6.47367861       8.21715911
O        2.25543677       3.51239850       7.29363838
Li       8.61778472       2.16881105       7.14937568
Li       7.17970041       6.31263091       4.05142842
Li       9.21444786       5.05590767       7.80598472
Li       8.39124662       3.38438782       0.72285281
Li       5.16492568       8.55485488       7.20981166
Li       0.23959146       8.60559733       2.02618830
P        2.61068876       7.80121645       3.01486768
P        9.35215261       5.96142595      11.96441002
O        0.76161998       8.40089104       6.61099277
O        4.42360416       4.87952831       0.94215548
O        2.54678596       6.29212864       3.18068637
O        6.70236781       4.24813602       0.03580911
O        2.02139889       8.26766791       1.64498714
O        9.35838767       4.51953199      11.40204278
O        1.47147572      10.12429708      11.54904449
O        4.15941188       8.13604850       2.95466897
Li       1.26352969       3.16773677      11.65827065
Li       2.33786198       5.33707908       4.87897149
Li       5.18505122       0.95909408       8.89396116
Li       1.23200606       8.24444741      10.82096495
Li       0.17252753      10.17119513       6.03001417
Li       2.62624282       9.83369685       7.64676733
P        4.00803396       7.23539031       9.99660546
P        0.37233638       7.96705408       8.03721112
O        1.10039554       6.55366981      11.65699889
O        1.68220986       3.77546310       9.83280341
O        5.49389999       6.81489199      10.21161331
O        3.39536557       6.43128109       6.17444369
O        3.97329590       8.44750706       9.01039949
O        1.00281962       9.05329215       9.03176417
O        1.90810862       3.39204765       4.26965553
O        3.50813215       7.67853149      11.38613884
Li       4.48367496       3.24270748       4.40946025
Li       1.25570271       2.41448001       5.99471726
Li       6.67257879       3.67368235       6.18625559
Li       7.60720863       7.54638832       6.58865966
Li       2.35716276       5.91888906       7.52630249
Li       4.91540833       9.77714654       2.86358380
P        7.39484821       3.30401009       3.39589486
P        5.45950152       0.10341209       0.08695585
O        4.51669770       1.45478167       6.07166576
O        8.85831605      10.28524334       4.33099377
O        0.08040218       1.74591958      11.68406102
N        7.79955052       4.58809356       4.16502053
O        6.44951949       1.24273382       0.49467981
O        6.35963043       4.06713859       2.45208583
O        8.34656757       2.60553094       2.52086835
Li       1.29813670       5.64451990       9.91885955
Li       7.83433316       0.84772681       1.82700600
Li       2.47000566       6.53435310       0.70112896
Li       7.60856732       4.70709751      10.58038283
Li       0.46929757       0.24731530       9.72301555
Li       5.64967705       1.80923160       2.30778851
P        6.48788221       3.33356361       8.90178212
P        3.62242151       0.42281079       5.46496557
O        6.10637433       9.01713343       0.01248062
O        8.31252154       0.37214552       7.42507705
O        5.06132999       3.66576383       9.34565911
O        9.37474326       6.03606311       5.46903123
N        7.27460976       4.73089628       8.71286677
O        2.07347016       0.66335499       5.72208469
O        5.88544789       6.74804910       7.01059252
O        6.61339655       2.47270494       7.57687689
Li       5.40518955       5.50361400       8.83770042
Li       8.29824977       8.71405394      11.39383659
Li       7.65094039       1.20944847      11.13914309
Li       3.09050608       1.01243478       2.21507529
Li       4.39586686       2.60300734       7.51176442
Li       7.56707913       8.54622651       1.54862884
P        7.80177248       9.20358839       3.95517006
P        6.00637036       5.04818445       1.11704585
O        4.90917171       4.38980352       6.29429473
O        6.83271068       2.31702441       4.45756858
O        6.91721641       9.94653167       2.95180809
O        8.93479613       5.99071181       1.26226585
N        8.37097917       7.94754704       3.31427118
O        6.23235130       6.51143492       1.51979690
O        4.27867177      10.26238448       1.04495984
O        7.00871081       8.70327621       5.15226589
Li       4.87034658       7.96736064       1.23759076
Li       9.08238090       2.78458314       9.90543042
Li       5.49195251       9.14045621      10.11803139
Li       7.33385326       6.87921901       9.21255736
Li       6.51697253       7.13277386      11.69478595
P        7.81963936       9.74499301       8.36474890
P        4.84360533       5.92710787       6.02755589
O        7.31872244       2.69995472       9.98518575
N        8.39172616       8.31028588       8.09791295
O        6.23973382       9.69802020       8.32482494
O        5.31796185       6.17652357       4.54695302
O        3.78232204       9.32313571       6.09452966
O        8.10585838      10.16787260       9.84997315
124
Lattice="9.63908 0.0 0.0 0.0 10.3723 0.0 0.0 0.0 12.0957" Properties=species:S:1:pos:R:3 material=LiPON model=NEP89 temperature_K=600 phase="NVT production" display_name="LiPON｜NEP89｜600 K｜NVT production計算" report_figures="23_LiPON_lithium_MSD; 24_LiPON_transport_comparison; 25_LiPON_temperature_RDF" source_frame_index=1589 relative_time_ps=158.9 pbc="T T T"
Li       2.82426566       8.05122299       6.42130290
Li       3.63168430       5.77356909       3.47606667
Li       1.21418306       3.15702514       2.88957706
Li       9.31078759       7.65453489       4.87451188
Li       3.00983368       9.39542930       0.12696173
Li       3.09461491       1.77342859      10.71349923
P        3.39180550       3.57917806       1.21202180
P        0.49626128       0.58064539       0.43256940
N        1.18193190       4.54625918       4.46484421
O        1.87181318       9.57873071       3.63812208
O        1.95655619       4.13699674       1.34969590
O        4.96680265       0.51938303      10.92711896
O        3.92073540       3.13760151      11.98365568
O        9.13887048       9.85551485       1.04515013
O        8.18661645       6.92347045      11.11152701
O        3.73644864       2.67935062       2.34151238
Li       5.70715548       2.46938759      11.50492524
Li       0.39496515       0.17031905       2.94891211
Li       5.11525435       8.05814944       4.87975143
Li       9.36077232       5.67487148       3.07899847
Li       3.78683882       4.21628984      10.43985300
Li       8.53178904       1.13288549       5.18494351
P        1.71124349       2.68072551       8.85294540
P        9.27577771       4.34715684       5.29848677
O        1.23547187       1.21277985       1.73876238
O        3.43043634       5.99355865       9.28472521
O        2.18689073       1.23588446       9.00417709
O        4.09057218       0.77400087       4.10429681
O        0.23395425       2.71983939       8.68105648
O        9.18140141       2.99556337       5.97580615
O        0.71670227       6.19793703       8.24212571
O        2.44865730       3.31609299       7.64192487
Li       8.59718724       1.74988235       8.12952128
Li       7.11816817       6.02171695       3.47493051
Li       9.02569223       4.64596042       8.36813017
Li       8.03885618       3.36527846       0.32100420
Li       5.41045372       8.68925004       6.99575100
Li       0.09120954       7.94602642       2.00957739
P        2.17531271       8.15982310       2.99866330
P        9.31755273       6.09315963      11.91376874
O        0.95997548       8.05243211       6.46418375
O        4.19380011       5.00763408       1.49079867
O        1.14294773       7.13963272       3.55445477
O        6.34312827       4.32452480       0.11123459
O        1.94128684       8.18056005       1.43617010
O        9.14728725       4.65859834      11.40448139
O        1.49518704      10.22945064      11.69844029
O        3.65513660       7.70224296       3.10423664
Li       1.10103591       3.34815712      11.85477316
Li       1.69606062       6.21728685       5.22327127
Li       6.55251831       0.61489134       6.80713919
Li       1.46815140       8.23219124      10.71147066
Li       1.31182428       9.73538645       5.37199660
Li       1.91734884      10.27365405       7.65360533
P        4.13474371       7.35926413       9.58977917
P        0.55216613       7.67456876       7.91226856
O        1.14497110       6.55578402      11.60050259
O        2.11365780       3.48986389      10.14688768
O        5.64514551       6.86785861       9.92785254
O        3.31579322       6.34645549       6.10476959
O        4.01020660       8.35571674       8.34568708
O        1.38556795       8.57366138       8.87747859
O        2.39039167       4.72151309       4.13416182
O        3.43813545       8.08896763      10.73883330
Li       3.95163315       3.64264830       4.42329562
Li       1.23030205       2.09878125       6.40688578
Li       6.22127693       3.12069466       5.98380876
Li       7.54538880       7.12954394       6.23148615
Li       2.42351438       5.44231994       7.46328923
Li       4.76631091       9.39631057       2.96634406
P        7.34625338       3.36707244       3.20102502
P        5.48113879       0.11938165       0.21156874
O        4.65256490       1.29126745       6.37404736
O        8.74515084      10.05546676       4.18633277
O        9.49580092       1.81280845      11.76989194
N        8.24031895       4.36530560       4.04934607
O        6.15472123       1.38125267       0.90568337
O        6.18659331       4.35188679       2.68213696
O        8.23743978       2.90090213       2.02891913
Li       1.64231710       5.65818809      10.05005991
Li       7.76929850       0.61368796       1.69047240
Li       2.11648445       6.23272453       1.19451202
Li       6.48295347       5.39203473      10.66259646
Li       0.99498067       0.20463643      10.00704700
Li       5.83557078       1.12541408       3.09536883
P        6.57468979       3.18155475       9.06588127
P        3.74977748       0.44611271       5.52797455
O        6.77718123       9.58474760      11.94447102
O        8.62094239       0.03540808       7.28500752
O        5.04478089       3.51031776       9.20745759
O        8.82798745       5.45862863       6.18444853
N        7.26595044       4.59123218       9.19905885
O        2.23670761       0.82562507       5.90055090
O        5.81726075       6.57818467       6.92456808
O        7.02286463       2.47960494       7.75351969
Li       5.18082602       5.37893501       8.80471360
Li       8.54685058       8.86200793      11.31798944
Li       7.76766169       0.71218464      10.96984286
Li       3.20555924       0.85480971       2.47546198
Li       4.15650682       3.03810869       7.45821204
Li       7.24186876       7.88211579       1.66403931
P        7.63984444       9.09899095       3.84744693
P        5.78440127       5.15345542       1.25977925
O        4.86141670       4.27043215       6.19107168
O        6.88284564       2.31361128       4.18415594
O        6.66776973       9.84220985       2.83752118
O        9.17456679       6.11808237       1.32059834
N        8.12259118       7.71479778       3.27958087
O        6.00050570       6.69015836       1.18699090
O        4.36121526      10.05452534       1.11398799
O        6.89000183       8.53387207       5.14297615
Li       4.59777197       8.06165764       1.26897844
Li       9.00198145       3.06871516      10.43816679
Li       4.69168888      10.04684733       9.19532553
Li       7.65153424       6.77049174       9.22225648
Li       6.59679836       7.95221318      10.97405271
P        8.23320890       9.35853369       8.36633317
P        4.79244599       5.81678553       5.96984688
O        7.20710714       2.38692814      10.20454340
N        8.64732348       7.88447221       7.97700341
O        6.61534143       9.50632309       8.32829675
O        5.36623636       6.11301859       4.48397609
O        3.96648762       9.36876885       5.83516807
O        8.80074222       9.83150834       9.70034674
124
Lattice="9.63908 0.0 0.0 0.0 10.3723 0.0 0.0 0.0 12.0957" Properties=species:S:1:pos:R:3 material=LiPON model=NEP89 temperature_K=600 phase="NVT production" display_name="LiPON｜NEP89｜600 K｜NVT production計算" report_figures="23_LiPON_lithium_MSD; 24_LiPON_transport_comparison; 25_LiPON_temperature_RDF" source_frame_index=1619 relative_time_ps=161.9 pbc="T T T"
Li       2.29186794       8.13025479       5.79271113
Li       4.38219490       5.87569400       3.07304049
Li       1.59743229       2.85575022       2.58219399
Li       0.11129616       7.52403808       4.93020941
Li       3.25593969       9.25489649       0.39887114
Li       3.27205587       1.40340737      11.16806480
P        3.69118452       3.60342146       0.95535217
P        0.85367599       0.47103020       0.62552207
N        0.75970781       3.82842333       4.10926004
O        1.49666336       8.18973014       3.88701190
O        2.15162159       4.08368448       0.92620536
O        4.98422007       0.59144814      10.92350024
O        4.12008110       3.12758834      11.63879760
O        9.54725634       9.66934842       0.83387783
O        8.38110418       7.07502740      11.60674495
O        3.86040402       2.66956884       2.15859378
Li       5.86967940       2.67245104      11.35077721
Li       1.09290510      10.31140924       3.47315434
Li       4.96109123       8.08647881       4.81055633
Li       0.97735764       5.03263194       2.22105593
Li       3.64991714       4.33917334      10.18235475
Li       8.52225608       1.24328011       5.74934251
P        1.70706568       2.76502996       8.99590482
P        9.17134333       4.24364154       5.05598500
O        1.53017047       1.01642037       1.91981135
O        3.41540271       6.28848422       9.35023081
O        2.45997590       1.44432503       9.15946134
O        3.46157471       0.22438490       3.92232426
O        0.18422241       2.47010893       9.11984360
O        9.00506414       3.25866163       6.20913018
O        0.08289886       6.56376884       8.70538195
O        2.23690819       3.41627598       7.62315122
Li       8.48162755       1.98459774       7.67694839
Li       7.30715315       6.32584104       3.95535557
Li       8.97684103       4.55789276       7.89261212
Li       8.63824233       2.99462153       0.74650675
Li       4.60729905       8.43914801       7.52505154
Li       0.13860114       8.31788134       2.09841424
P        2.59823637       7.69031222       2.93874375
P        9.38481207       6.05492435       0.05922170
O        0.71097639       8.24853594       6.83323713
O        4.50634509       5.02316760       1.36521153
O        2.51911379       6.17512026       2.87495178
O        6.07220038       5.17727677      11.48265230
O        2.27412781       8.22292166       1.54342733
O        9.11494790       4.48500770      11.96101263
O        2.11271955       0.03603357      11.82118147
O        4.08021672       7.97178757       3.14492296
Li       1.08203215       3.34284167      11.67105266
Li       2.06417148       5.71604768       4.66403207
Li       5.68763297       0.76927931       6.69758201
Li       1.63824974       8.24564346      10.95460619
Li       0.31205687       9.82492005       6.19752462
Li       2.35537916       9.79242838       8.30130915
P        4.11728737       7.53616864      10.01930704
P        0.23210799       7.97436206       8.23242266
O        1.14327408       6.43450989      11.46328447
O        1.97965689       3.86812864      10.12547141
O        5.67249908       7.24246653       9.84289333
O        3.25429062       6.37477722       5.70711536
O        3.97578593       8.86860754       9.27829574
O        0.86919738       8.83729118       9.32935728
O        1.89035596       3.30788328       4.39565595
O        3.75808083       7.69888844      11.47691803
Li       4.36102880       3.10530705       4.21907698
Li       1.17471664       2.41172201       6.10940801
Li       6.32259661       3.55377008       5.82616416
Li       7.11553050       7.30370467       6.56029741
Li       2.65941133       5.85650045       7.55330101
Li       4.98828584       9.59459658       3.25654424
P        7.48280129       3.34131356       3.11921458
P        5.62666561       0.04119477       0.12364698
O        3.99532382       1.45205584       6.13333698
O        8.81608697      10.36798380       4.59918205
O        0.10301633       1.63898353      11.98076603
N        7.84106292       4.39697889       4.17947372
O        6.73348284       1.08350009       0.62182367
O        6.95372770       4.04532596       1.63111986
O        8.70319916       2.50897500       2.69457448
Li       1.67474775       5.77708127       9.97029719
Li       8.13630381       0.34943879       1.68733987
Li       2.73956416       6.43493907       0.30625857
Li       8.06641473       4.39225913      10.30431281
Li       1.01234320       0.38921920       9.86190387
Li       5.26605365       1.39806921       2.39496591
P        6.48351403       3.39864992       8.70248267
P        3.12668737       0.41949053       5.44644301
O        6.30830941       9.03121753      12.05158058
O        8.62042686       0.23270093       7.59713162
O        4.91944436       3.61855165       8.81842624
O        9.47244127       5.64070456       5.61709383
N        7.16668277       4.77509453       8.45216466
O        1.57941338       0.69772401       5.58703103
O        5.32318342       6.49010040       7.12326420
O        6.71069736       2.48304517       7.45109590
Li       5.29041111       5.69813577       8.83862141
Li       8.10730247       8.83571100      11.44896931
Li       5.62602644       9.35508048       9.93150827
Li       3.21299597       0.63671625       2.19625915
Li       3.86890337       2.97956637       6.99280447
Li       7.55033874       7.93501646       1.70892803
P        7.71743026       9.39874579       4.05595049
P        6.01740470       5.16983117       0.87879089
O        4.60603934       4.28594531       6.06129144
O        6.35148290       2.51946402       3.70054711
O        6.94721763       9.86874404       2.83415689
O        9.58377948       6.45263293       1.58181534
N        8.31898213       8.06452245       3.54083435
O        6.28286024       6.55849300       1.46375145
O        4.63145964      10.28472031       1.31359690
O        6.68245731       9.04712458       5.16260748
Li       4.83343551       7.80544815       1.01242184
Li       8.45676674       1.42194586      10.36399818
Li       4.62202602       1.69138234       9.18072506
Li       7.48974230       6.56396329       8.96878145
Li       6.53041552       7.01970593      11.42878992
P        7.77623148       9.66747731       8.47514346
P        4.71664246       5.84890955       5.87962034
O        7.06767486       2.78818625      10.06241664
N        8.32430187       8.22681812       8.19685241
O        6.23177254       9.89470603       8.19556461
O        5.55127222       6.22377315       4.72051036
O        3.55820464       9.51329987       6.20560260
O        8.09191749      10.04301214       9.96089422
124
Lattice="9.63908 0.0 0.0 0.0 10.3723 0.0 0.0 0.0 12.0957" Properties=species:S:1:pos:R:3 material=LiPON model=NEP89 temperature_K=600 phase="NVT production" display_name="LiPON｜NEP89｜600 K｜NVT production計算" report_figures="23_LiPON_lithium_MSD; 24_LiPON_transport_comparison; 25_LiPON_temperature_RDF" source_frame_index=1649 relative_time_ps=164.9 pbc="T T T"
Li       2.74113331       8.24082362       5.65145152
Li       4.50868554       5.96646719       2.82983848
Li       1.09434548       2.59748089       2.88608093
Li       0.07008510       7.54201133       4.94850759
Li       3.07916756       9.30399787       0.41620254
Li       3.12407768       1.61847875      10.76781449
P        3.19583336       3.54897407       1.30284690
P        0.55028134       0.40408700       0.36779566
N        0.91451241       4.19110206       4.47804958
O        1.89306362       8.49966349       4.06127569
O        1.64418558       3.70144227       1.47912001
O        4.53116310       0.61003733      11.10831404
O        3.45526532       3.07652963      11.91761288
O        9.02361098       9.77065156       0.34880714
O        8.18719640       6.99262576      11.36580219
O        3.72004228       2.61632691       2.49543474
Li       5.38407619       2.79361287      11.48930577
Li       1.23864989      10.34067302       4.24454473
Li       5.14983845       8.14839711       4.99840799
Li       0.69780582       5.18121635       2.39533618
Li       3.79312660       4.33321251      10.42597068
Li       8.05350016       1.69609546       4.43724483
P        1.55352886       3.04468751       8.75019019
P        9.02105063       4.53575086       5.06431825
O        1.23397872       0.44272230       1.76928550
O        3.45811395       6.08495488       9.53897914
O        1.94277551       1.56001989       8.93599103
O        3.87774123       0.36385136       3.85407238
O        0.00211553       3.17924512       8.43239115
O        8.83184165       3.14216463       5.62467383
O        0.71007040       6.15929370       8.42493110
O        2.17880855       3.71656537       7.51638760
Li       8.61065233       2.04276245       7.22468921
Li       6.88899476       6.38902892       3.42747836
Li       8.68682801       4.84018321       8.01277585
Li       8.47532303       3.08022651       0.79146181
Li       5.12013669       8.67637088       7.55147867
Li       0.61962081       8.88174026       2.16194952
P        2.61673524       7.64902106       3.03284599
P        9.34863152       6.13082837       0.02201836
O        1.09501353       8.12274779       6.69535431
O        4.09656300       5.01252042       1.33316937
O        2.43140732       6.11574677       3.18066078
O        5.92892974       4.62131922      11.48761999
O        2.15973758       8.07241808       1.62941395
O        9.24499235       4.65534432      11.91664608
O        1.72160768      10.35000276      11.49978064
O        4.19323677       7.98292243       3.19079956
Li       1.14613943       3.40209585      11.84809852
Li       2.13586079       5.36917559       5.32716074
Li       6.03376468       0.30843672       6.46638923
Li       1.93309937       8.40974851      10.96587206
Li       0.49395239       9.80000831       6.22693015
Li       3.28141301       0.25273249       8.52403366
P        4.05421774       7.43127561       9.91178194
P        0.51631071       7.71785723       8.08409084
O        1.03503468       6.68026910      11.58526252
O        1.93607117       3.88381868      10.06566304
O        5.59383924       7.17620126       9.67947397
O        3.49055767       6.40439918       6.12823793
O        3.80454095       8.72139578       9.13673242
O        1.22315251       8.63675449       9.20704736
O        2.07733611       3.49792101       4.58344864
O        3.68521085       7.77308221      11.40283207
Li       4.59947188       2.93077174       4.27691272
Li       1.43280046       2.46898259       5.94818882
Li       6.48539379       3.37219044       6.00157376
Li       7.39922589       7.48267754       6.45283947
Li       2.59471973       5.65904500       7.83228897
Li       5.07353681       9.54193026       3.22988714
P        7.37749226       3.54142957       3.01678730
P        5.36385247       0.16758676       0.27716214
O        4.41701842       1.65941844       6.01346082
O        9.14198106       9.94961149       4.51130859
O        0.01264967       1.85707462      11.93708337
N        7.85297680       4.73397347       3.93853798
O        6.37655840       1.33993906       0.59116982
O        6.35076931       4.00929881       1.73172385
O        8.61446763       2.75932901       2.66460623
Li       1.63387638       5.67934382      10.08954564
Li       7.76701722       0.88305607       1.71906830
Li       2.48780988       6.53021974       0.32574179
Li       7.84094760       4.62754885      10.45900194
Li       1.20605124       0.05689092       9.70814284
Li       5.60945782       1.34969048       2.66050444
P        6.39653718       2.89462795       8.86047166
P        3.51707577       0.50618786       5.43035658
O        6.18947952       9.29471214      11.84200030
O        8.75009161       0.32488143       7.42609719
O        4.82988327       2.86267926       9.23506746
O        9.01335628       5.66774929       6.06550339
N        6.84431528       4.38434686       8.83778197
O        2.08909486       0.76974028       5.77367684
O        5.85798990       6.72621086       6.82101331
O        6.89831918       2.28989588       7.52984025
Li       5.29230054       5.56407107       8.57985134
Li       9.08706948       8.45098292      10.54012517
Li       5.34821993       9.57766413      10.11872168
Li       3.17548243       0.82679654       2.25722535
Li       4.04866048       3.04003872       7.45757272
Li       7.82636488       7.80864805       1.38572148
P        7.73881541       9.28378861       4.05842705
P        5.70554194       5.09017539       0.87196992
O        4.94359845       4.40474017       6.42866724
O        6.48315565       2.62633636       3.98561904
O        7.02532151      10.36965207       3.19321630
O        9.17630601       6.35418190       1.57815348
N        7.93746428       8.00581664       3.29634194
O        6.06664481       6.52421886       1.14112519
O        4.47971368      10.08436734       1.40355376
O        6.93418571       8.88172787       5.29987079
Li       5.02156633       8.12352789       1.03870931
Li       8.90615018       1.88480884       9.84866909
Li       7.37154546       0.82381871      11.11565003
Li       7.37971820       6.74011772       8.96242933
Li       6.28168508       6.93839816      11.30884491
P        8.04253672       9.70314410       8.34653239
P        4.90318110       5.83249051       5.95405653
O        7.17082817       2.39251119      10.11165532
N        8.61669254       8.16661584       8.27134644
O        6.51563938       9.78371920       8.11464073
O        5.43688566       6.00335560       4.49379642
O        4.13492818       9.62541636       6.20862421
O        8.58689400      10.09019729       9.73556275
124
Lattice="9.63908 0.0 0.0 0.0 10.3723 0.0 0.0 0.0 12.0957" Properties=species:S:1:pos:R:3 material=LiPON model=NEP89 temperature_K=600 phase="NVT production" display_name="LiPON｜NEP89｜600 K｜NVT production計算" report_figures="23_LiPON_lithium_MSD; 24_LiPON_transport_comparison; 25_LiPON_temperature_RDF" source_frame_index=1679 relative_time_ps=167.9 pbc="T T T"
Li       2.52788932       8.01285322       5.44088232
Li       4.76696766       6.40801788       2.97406862
Li       0.67221508       2.76784269       2.09993146
Li       0.03766533       7.52434339       4.92397443
Li       3.23005814       9.50502850      11.83449138
Li       3.15666833       1.54633055      10.71094416
P        3.37280634       3.44611651       1.02900624
P        0.57919586       0.49314433       0.45998226
N        1.11218455       3.74778763       4.27778487
O        1.50887838       8.48671688       3.84095021
O        1.93911452       3.80866832       1.02994071
O        4.77352425       0.10762737      10.97189628
O        3.79741146       2.81085114      11.74522246
O        9.19020040       9.68687017       0.64130119
O        8.15507990       6.91973954      11.22508103
O        3.89416811       2.78038365       2.29940722
Li       5.92774198       2.69965157      11.66047686
Li       1.20511760      10.26674458       3.41855972
Li       5.07249572       8.04967301       4.57510069
Li       1.07586925       5.11063223       2.84817422
Li       4.02546374       4.42128350      10.70616342
Li       8.06491420       1.17952941       4.09226897
P        1.52279793       3.15156947       8.89752842
P        9.32726856       4.05213268       4.92189974
O        1.27728452       1.07910940       1.70286278
O        3.56977857       6.30051437       9.23741848
O        2.12544382       1.71352517       9.20120632
O        3.51140605       0.56824739       4.28444516
O        9.62945080       3.20381560       8.74257894
O        9.03247347       2.67492287       5.53362417
O        0.52342955       6.49494194       8.49315884
O        2.26131234       3.55001451       7.62337411
Li       8.61551862       2.15435779       7.47740198
Li       7.17171704       5.97268498       3.41494218
Li       8.96113625       4.72412742       7.93937800
Li       8.31002147       2.93853335       0.63977380
Li       5.12506131       8.85805326       7.44463695
Li       9.60478913       8.32559153       2.30571083
P        2.52983839       7.91645915       2.76123357
P        9.12229987       6.21566265       0.18015682
O        0.95307257       8.22718232       6.70686209
O        4.15511454       4.93981490       1.15517917
O        2.53424789       6.42144513       2.78106198
O        5.79505509       5.12458214      11.60375117
O        2.10817949       8.32341633       1.32614224
O        8.95104423       4.65323071       0.12939247
O        1.66791918       0.03974961      11.43820833
O        3.97841603       8.33333444       2.95246653
Li       0.92534465       3.68191794      11.69328850
Li       1.55600010       5.10636154       6.97826221
Li       6.74337414       0.37403010       6.35177812
Li       1.26697533       8.34056088      11.20031240
Li       0.56628168      10.01986872       6.15157167
Li       2.27973496      10.22024907       8.66126518
P        4.15332826       7.73624756       9.78769422
P        0.35600378       7.95875480       8.09781420
O        0.93533312       6.43198929      11.73690812
O        1.97813633       4.24049306      10.00630104
O        5.73784961       7.55148578       9.92038713
O        3.13245949       6.41171741       6.27906115
O        3.87357060       8.91274040       8.81757305
O        1.21165128       8.67125375       9.15914992
O        2.40496717       3.48029481       4.42875097
O        3.74006125       7.74854690      11.30097602
Li       4.26856789       3.28267427       3.87083564
Li       1.26462919       2.20304946       6.44542256
Li       5.76564588       2.80782581       5.85926459
Li       7.16585578       7.31066459       6.84873176
Li       3.63639359       4.71029424       8.29575974
Li       4.98631795       9.80665409       2.96188233
P        7.28275028       3.39813158       3.03464306
P        5.64285523       0.00519966       0.11579729
O        4.82956925       1.18858664       6.36452512
O        8.82808839       9.89169482       4.59458182
O        9.55418933       1.76150633      11.97253787
N        8.15774134       4.46279951       3.81118356
O        6.69080914       1.15832597       0.29005888
O        6.54669953       4.08330709       1.73924196
O        8.15558871       2.23197481       2.53197716
Li       1.45560778       5.97543625       9.98678440
Li       8.00271710       0.46473307       1.79820285
Li       2.50512581       5.99934993       0.72919514
Li       7.82951122       4.74584861      10.46375246
Li       3.00173023       7.66859786       7.77060253
Li       5.53844195       1.92599398       2.10465207
P        6.38873832       3.40185024       8.83815228
P        3.62801157       0.34179488       5.80571799
O        6.36035588       9.04937769       0.24460820
O        8.87470339       0.26893065       7.48408049
O        4.86181045       3.68858763       9.08503779
O        9.44448278       5.30330734       5.86981739
N        7.09496427       4.86927206       8.83966519
O        2.30887531       0.61715031       6.56212005
O        5.67207136       6.28074510       7.05924146
O        6.68488574       2.57042482       7.63173384
Li       5.44877023       5.84490331       9.07939997
Li       8.30656236       8.80296465      11.39043777
Li       5.26181386       0.24679308       9.20613237
Li       3.20353116       0.83800169       1.88154122
Li       3.61371011       2.18010437       7.65415552
Li       7.38972035       8.21898397       1.74439592
P        7.65561097       8.98249446       4.20883499
P        5.66145485       5.33343746       0.94731304
O        4.47673061       4.20125882       6.10258905
O        6.11968248       2.88294568       3.98189989
O        6.96522458       9.62646149       3.01889539
O        8.86909718       6.79705183       1.54808739
N        8.13469331       7.57601022       3.64384118
O        5.91711801       6.76872458       1.52157089
O        4.64577104       0.00781733       1.27661161
O        6.66568790       8.74966929       5.38222972
Li       4.43843796       7.98770635       0.84071216
Li       0.63650333       0.85648745       9.89024541
Li       7.94211373       1.47098599      10.86644177
Li       7.34740958       7.25343677       9.05561106
Li       6.42588632       7.31562430      11.52196717
P        8.15912425       9.78940110       8.49477735
P        4.57869214       5.69956521       6.08852720
O        7.03674415       2.78356616      10.12159541
N        8.51517983       8.29223260       7.99544952
O        6.69605988       9.85455322       8.29579774
O        5.08488091       6.07592056       4.67052403
O        4.05043824       9.20241995       5.93300964
O        8.59549757      10.06172933       9.95679463
124
Lattice="9.63908 0.0 0.0 0.0 10.3723 0.0 0.0 0.0 12.0957" Properties=species:S:1:pos:R:3 material=LiPON model=NEP89 temperature_K=600 phase="NVT production" display_name="LiPON｜NEP89｜600 K｜NVT production計算" report_figures="23_LiPON_lithium_MSD; 24_LiPON_transport_comparison; 25_LiPON_temperature_RDF" source_frame_index=1709 relative_time_ps=170.9 pbc="T T T"
Li       2.39591321       8.22023895       5.73754940
Li       4.51414581       6.24974048       2.86750341
Li       0.68496282       2.66332257       2.20614190
Li       0.18262163       7.33597764       4.70542849
Li       3.06688584       9.00960798       0.35539915
Li       3.56382369       2.00163758      10.40516874
P        3.47605938       3.61310542       1.18854318
P        0.67009876       0.48063365       0.44460497
N        1.05518892       3.67319939       4.37118984
O        1.67418036       8.23901422       4.21939720
O        1.94165925       3.93062535       1.37990636
O        4.63501759       0.17386101      10.87875701
O        3.71582852       2.78790175      11.97902889
O        9.15020389       9.86070743       0.90390345
O        8.51262450       7.14057787      11.07535055
O        3.99849465       2.66190859       2.29288691
Li       6.06747892       3.03525715      11.97839863
Li       0.85091990       0.73140588       3.66392245
Li       4.84610237       8.45761379       4.70247542
Li       0.87669800       5.19980581       2.59559746
Li       3.81861612       4.55244068      10.62184241
Li       7.65697185       1.71577191       5.11536834
P        1.52252595       2.86592009       8.94083974
P        9.24222000       4.29993820       4.86775164
O        1.66238358       1.00788084       1.54402231
O        3.45907146       6.08247184       9.33004079
O        1.97720999       1.30899424       9.12593391
O        3.43764886       0.33175582       4.14182012
O        0.01290814       2.84642965       8.84581127
O        8.65693282       3.31341616       5.93455669
O        0.77009778       6.36520969       8.14804033
O        2.11052836       3.65840335       7.70700457
Li       8.44753056       1.90391602       7.66603160
Li       7.32370606       6.44639378       3.94805512
Li       0.20238047       4.76774330       7.41930575
Li       8.22380787       2.87356952      12.07389785
Li       4.65950481       8.12078304       7.56957184
Li       0.00614138       8.32795304       1.88405897
P        2.49561504       7.78408769       3.02899777
P        9.34790795       6.12372946      11.94708491
O        0.76964898       8.37076626       6.49663910
O        4.17342277       5.06203673       1.24137063
O        2.57985503       6.28578794       2.97755398
O        6.10938377       4.97914434      11.58902101
O        1.91416640       8.20281616       1.58093417
O        8.92575096       4.62021291      11.80807654
O        1.47247611      10.13367046      11.35527284
O        3.94652172       8.19393306       2.99549853
Li       0.97711284       3.37005678      11.92382108
Li       1.94487874       5.42426479       5.24609213
Li       6.08787758       0.39825156       6.72346769
Li       1.03506410       8.18181708      10.91149332
Li       0.19554976      10.26023237       5.94176701
Li       2.94916118       9.78175733      10.34514722
P        4.16694530       7.27330331      10.03074831
P        0.34153479       7.90735684       7.94028545
O        1.24516645       6.30547912      11.45228816
O        1.89231284       3.72009078      10.10687700
O        5.69423324       7.17586454       9.88758951
O        3.54156134       6.43870835       6.17139068
O        3.79126279       8.51194436       9.14548758
O        1.12729492       8.63530278       9.06569452
O        2.16385936       3.12831895       4.58182206
O        3.79135432       7.48233252      11.58378512
Li       4.84146016       3.01878106       4.05458719
Li       1.13828369       2.42337665       6.17929187
Li       6.49652676       3.56182253       5.99917597
Li       7.23173033       7.73578700       6.55210871
Li       2.71138624       5.51175286       7.64652621
Li       4.72536115       9.91165713       3.01640721
P        7.52943572       3.46187590       2.91520523
P        5.45496880       0.02555947       0.18135336
O        4.48758011       1.53595516       6.21103211
O        8.65455704       0.16938591       4.53495012
O        0.00832213       1.61391467      11.84859562
N        8.32482055       4.59941350       3.54641668
O        6.38999742       1.23943486       0.37017490
O        6.47370950       4.20871555       1.95248224
O        8.50602589       2.51375026       2.24578755
Li       1.56364809       5.73052377       9.70459467
Li       7.98781717       0.74681655       1.58676585
Li       2.62035084       6.32903325       0.76199851
Li       8.50001634       4.15165108      10.05801400
Li       2.27890330      10.30161932       8.02304722
Li       5.52823876       1.57293067       2.10887634
P        6.25117290       3.17192201       9.08273556
P        3.50154459       0.45489331       5.68922856
O        6.26334073       9.01682285       0.05103469
O        8.56680007       0.23356003       7.50239308
O        4.68218631       3.24224764       9.14285994
O        9.60653842       5.67514369       5.61976880
N        6.95078220       4.52926425       9.06204566
O        2.08172932       0.76368008       6.33418262
O        6.01348133       6.37624303       6.92639480
O        6.60092294       2.43589503       7.69002002
Li       5.31228497       5.42423419       8.48647184
Li       8.11057462       8.92821736      11.45091369
Li       5.94743869       9.40588097       9.99581063
Li       3.07462218       1.06845094       2.55840013
Li       4.15122153       3.24591671       7.13509505
Li       7.14370293       8.24927665       1.91233012
P        7.56704861       9.44297483       4.24900251
P        5.75174820       5.24765555       0.91742617
O        4.99381179       4.41082787       5.96483413
O        6.62478053       2.73748187       3.99470409
O        6.83414908      10.01049845       3.07292796
O        9.13791817       6.50543251       1.32225066
N        8.23468841       8.12613368       3.66551819
O        6.18739411       6.68027140       1.30349963
O        4.38522087      10.16093932       1.27825136
O        6.59805410       9.36214307       5.45713142
Li       4.70741553       8.03146753       1.01832092
Li       0.53663049       0.45362366       9.85896240
Li       8.00071680       1.03807303      11.05827890
Li       7.31262906       6.91368603       9.02476751
Li       6.66844560       6.86925327      11.31699114
P        7.82725214       9.66780239       8.44142206
P        4.92884314       5.97236556       5.81080858
O        6.94232496       2.49967896      10.27086092
N        8.44476980       8.15083058       8.21063359
O        6.24738409       9.47727677       8.09830340
O        5.49517349       6.52227908       4.49414449
O        3.87311813       9.40833661       6.26131026
O        8.22434434      10.02487012       9.94419166
124
Lattice="9.63908 0.0 0.0 0.0 10.3723 0.0 0.0 0.0 12.0957" Properties=species:S:1:pos:R:3 material=LiPON model=NEP89 temperature_K=600 phase="NVT production" display_name="LiPON｜NEP89｜600 K｜NVT production計算" report_figures="23_LiPON_lithium_MSD; 24_LiPON_transport_comparison; 25_LiPON_temperature_RDF" source_frame_index=1739 relative_time_ps=173.9 pbc="T T T"
Li       2.75866157       8.27340049       6.12264738
Li       4.85666206       6.03969997       2.94299235
Li       0.80357669       2.75329208       2.44742655
Li       0.35608893       7.84131737       5.11514081
Li       3.15179138       9.36064599       0.25929505
Li       3.95028790       1.49003790       8.50592366
P        3.49469164       3.48865004       1.11277507
P        0.77486220       0.26768836       0.41560230
N        1.07571012       3.94867941       4.07517618
O        1.86372253       8.50203674       4.20103977
O        2.02371651       3.82439772       1.10320800
O        4.90012416       0.51379084      11.09445152
O        3.89913155       2.92772631      11.88287389
O        9.51363305       9.42385135       0.62513527
O        8.28568732       6.64883146      11.39675059
O        3.76675640       2.60989137       2.33217526
Li       5.55612235       2.75625921      11.21775088
Li       1.10402307      10.23717175       3.84286409
Li       5.30905757       8.02299532       4.76999358
Li       1.50539205       5.18432329       2.36967335
Li       3.70422074       4.58591982      10.28481436
Li       7.92102884       1.36321852       4.15484300
P        1.36306980       2.75872135       8.74864902
P        9.26750104       4.45071774       4.76754622
O        1.29371891       0.85323597       1.78673966
O        3.39559754       6.19668346       9.36608551
O        1.89269290       1.29861118       8.66088690
O        4.07947379       0.79848792       4.09776584
O        9.44674945       2.92758689       8.80246158
O        8.72964603       3.55419124       5.92710816
O        0.13458936       6.10576240       8.78148063
O        1.91202445       3.67623979       7.60554397
Li       8.56641535       2.15588731       7.15996206
Li       7.71724532       6.34813860       2.54915420
Li       8.82276099       4.68701262       7.52346273
Li       8.38959847       2.86883067       0.47923203
Li       4.82071831       8.62942125       7.56765710
Li       0.39276916       8.11557751       2.41294255
P        2.76010456       7.85999099       3.06535368
P        9.40523563       5.93286913       0.07140436
O        0.85625515       8.01958538       7.10816736
O        4.13123643       5.08665173       1.27160180
O        2.86456992       6.35916003       3.34724175
O        5.66940885       4.93908366      11.38383217
O        2.14078303       8.21373650       1.67077781
O        9.26914117       4.42749041      11.76950424
O        1.98587442       0.00143856      11.57977948
O        4.15704184       8.36188555       3.17148132
Li       1.05012284       3.26102306      11.53387354
Li       2.29778681       5.68619881       5.02495790
Li       6.16025608       0.79563503       6.97745788
Li       1.17195061       8.24065335      11.40209252
Li       0.48175558      10.06071026       6.27221077
Li       3.03619039       1.53807632      11.05983187
P        3.91311822       7.64381354       9.86384176
P        0.09036114       7.64620887       8.43756653
O        1.06667925       6.52229146      11.60093015
O        2.13904943       3.45946910       9.96162501
O        5.56726500       7.30125828       9.91499350
O        3.35333520       6.63310581       6.08518663
O        3.48380824       8.73108840       8.87567798
O        0.66900505       8.47618181       9.62097916
O        2.15095743       3.30679131       4.35042379
O        3.43873078       7.92082282      11.29977417
Li       4.00380348       2.87121040       4.27658287
Li       1.95278040       2.32860142       5.93078098
Li       6.47514704       3.42214893       5.82948877
Li       7.26517269       7.14159340       6.61280809
Li       2.12249986       5.97463214       7.53378627
Li       4.89172448       9.91314875       3.29784563
P        7.44677642       3.44719737       2.90796892
P        5.62104842       0.16681892       0.28670012
O        4.08928058       1.71956820       6.49322899
O        9.01415858      10.01437203       4.68722758
O        9.58184738       1.46871277      11.73229792
N        8.10425844       4.68636684       3.75925710
O        6.75948594       1.24797048       0.52933897
O        6.52066131       3.87528650       1.61212166
O        8.50232307       2.42955114       2.47659415
Li       1.67643041       5.41775700       9.95397014
Li       7.93846840       0.56790826       1.91027489
Li       2.77852606       6.64520162       0.24505349
Li       8.21375278       4.19231266      10.24102355
Li       2.06641598       9.85187320       9.44450565
Li       5.45386115       1.69446642       2.88246919
P        6.26933328       3.16584256       8.82458293
P        3.50369826       0.53373264       5.54586269
O        6.50259351       9.26817773       0.14322163
O        8.70015898       0.20248554       7.54904735
O        4.77426329       3.41775627       9.14634016
O        9.54216260       5.84748379       5.31959459
N        6.91804080       4.67594800       8.86887348
O        1.93674283       0.54934171       5.42689413
O        5.51749805       6.41626070       7.19532230
O        6.61359705       2.55970319       7.41828564
Li       5.21857631       5.58671425       8.99626911
Li       8.45549201       8.78891216      11.20619631
Li       5.91230623       9.51218514      10.07397331
Li       3.11950869       0.98666448       2.38892746
Li       3.72175520       3.40797180       7.37797768
Li       7.62640403       8.35834390       1.32220209
P        7.75417033       9.23779160       4.20471905
P        5.69277876       5.20355254       0.77527447
O        4.57828504       4.34972755       6.23346895
O        6.48664032       2.69767435       3.88532771
O        6.92270862      10.15729621       3.19908071
O        9.48831366       6.19615810       1.63754664
N        8.27475353       8.04567925       3.40869075
O        6.14079007       6.54925456       1.31141671
O        4.52426523      10.36706102       1.42567018
O        6.98897890       8.64022249       5.34163552
Li       4.79410855       8.01157831       1.36992201
Li       9.34003846       0.83517812       9.05802797
Li       7.70967393       1.18264932      11.03986526
Li       7.46456647       6.75488298       9.62675727
Li       6.44697312       7.61708766      11.52509528
P        7.79966336       9.56964089       8.39134628
P        4.71476852       5.90485338       5.96525845
O        6.93235861       2.55334709      10.05199287
N        8.16277837       8.04070737       8.28791374
O        6.26713725       9.77761564       7.99991079
O        5.59397052       6.15133276       4.65315974
O        3.94852712       9.58805014       6.08988340
O        7.90635218      10.09336093       9.93086137
124
Lattice="9.63908 0.0 0.0 0.0 10.3723 0.0 0.0 0.0 12.0957" Properties=species:S:1:pos:R:3 material=LiPON model=NEP89 temperature_K=600 phase="NVT production" display_name="LiPON｜NEP89｜600 K｜NVT production計算" report_figures="23_LiPON_lithium_MSD; 24_LiPON_transport_comparison; 25_LiPON_temperature_RDF" source_frame_index=1769 relative_time_ps=176.9 pbc="T T T"
Li       2.59039755       7.96331685       6.05332432
Li       4.69439730       5.85320959       2.90587886
Li       0.54353001       2.46484476       1.89711334
Li       0.15309447       7.71384099       4.69251446
Li       2.97064149       9.09481355       0.43750826
Li       3.96508241       1.44474810       8.85156508
P        3.49099561       3.58318161       1.19488072
P        0.57958487       0.38001182       0.50814310
N        0.78732523       3.84350560       4.20703319
O        1.92717668       8.53498761       4.15725952
O        1.94192481       3.83516212       1.41128290
O        4.65578009       0.46720606      10.77689472
O        3.68172100       3.13067926      11.89127185
O        9.04884032       9.79949577       0.81359859
O        8.16031872       6.92552819      11.48290302
O        4.07310764       2.65845209       2.25789341
Li       5.52655448       2.88747667      11.24349522
Li       1.25001007       0.01839065       3.84897788
Li       5.16662159       8.15586498       4.63781874
Li       1.15246623       5.16261389       2.60345898
Li       3.44168034       4.37158815      10.28957384
Li       8.01968548       1.43468633       4.95691459
P        1.48666557       3.04678897       8.80585558
P        9.06305635       4.38530206       4.90492049
O        1.28974789       0.59654558       1.85382053
O        3.55812510       6.19671630       9.43541484
O        2.04891349       1.64763969       9.13894567
O        3.83393495       0.45335672       4.12522151
O        9.57185726       2.98558517       8.65416015
O        8.87938615       3.12670716       5.87204486
O        0.12242248       6.27866481       8.37603973
O        2.19984430       3.67875100       7.61592130
Li       8.39937584       1.90107043       7.71249818
Li       7.20909216       6.43027968       3.22560514
Li       9.05604618       4.29372463       7.42308692
Li       8.09325615       3.21398974       0.56092886
Li       4.91278643       8.45190392       7.70149587
Li       0.00972261       7.98956579       2.09279132
P        2.72040712       7.62426372       3.21150087
P        9.32975301       6.04897277       0.02945332
O        0.64870132       8.13165576       6.66029123
O        4.08775912       5.17689918       1.19400345
O        2.76173973       6.10299361       3.54863520
O        6.10224187       4.99739315      11.65356420
O        2.13875834       7.73600190       1.76341285
O        9.04558514       4.56223464      11.71218584
O        1.55585484      10.11815143      11.59676906
O        4.27893009       7.88649396       3.05122900
Li       1.11892140       3.58254415      11.79692797
Li       2.15426123       4.90530422       4.92359837
Li       6.20305840       0.35219704       6.55059416
Li       1.76435870       8.49486335      10.82838641
Li       0.22886950      10.00564055       6.02702114
Li       3.18411663       1.51543610      11.22722707
P        4.16535211       7.46878328      10.06664368
P        0.22094361       7.84134352       8.09329787
O        1.09932320       6.57400677      11.69325887
O        1.72852647       4.07016198       9.99807634
O        5.65609765       7.17480979      10.05314079
O        3.48277680       6.37051149       6.27557832
O        3.74474081       8.70839932       9.24673853
O        0.94224969       8.44821030       9.23064900
O        1.71064457       2.96140831       4.26659522
O        3.68486201       7.64318228      11.58076002
Li       4.52128566       2.58197583       4.55313394
Li       1.03128551       2.19200192       5.90583407
Li       6.60748757       3.64582717       5.98156941
Li       7.25382551       7.08586410       6.22260887
Li       2.44272452       5.88637503       7.88697284
Li       4.74183221       9.71423268       3.04441538
P        7.26372574       3.55268988       3.08410073
P        5.46081167       0.19368984       0.11367718
O        4.25895504       1.34899303       6.45708078
O        8.97281778      10.34197163       4.19952834
O        0.03088129       1.70605328      11.93752804
N        7.93227139       4.78112388       3.86302180
O        6.34845315       1.45837556       0.49588443
O        6.29238680       4.24683051       2.00116466
O        8.45257387       2.82936428       2.31102166
Li       1.48329796       5.98858271       9.92629395
Li       7.78926446       0.83213875       1.55844251
Li       2.71913235       6.46861827       0.67732044
Li       8.56211370       4.22458705       9.91813997
Li       2.39464467       9.63968598       8.43650200
Li       5.72211614       1.52344071       2.59388610
P        6.46703817       3.16170616       8.86780330
P        3.45980556       0.39438154       5.56674821
O        6.39793708       9.34975323      12.04359168
O        8.54758409       0.17773586       7.13904766
O        4.94795149       3.26987767       9.31596721
O        9.45849073       5.75240833       5.49683403
N        7.16279619       4.59005942       8.60543960
O        1.96328603       0.49793386       5.74247118
O        5.73049957       6.27431639       7.18932106
O        6.70777962       2.33931770       7.52433284
Li       5.63449184       5.39073072       8.90209508
Li       8.30434841       9.06768802      11.26356203
Li       5.81584211       9.77756671       9.91199928
Li       3.16141576       1.02952645       2.37104593
Li       4.22709559       3.02904875       7.39756395
Li       7.44859158       8.45912492       1.44910979
P        7.69897607       9.42939321       3.82798262
P        5.73870722       5.32438813       0.91910914
O        4.89706274       4.21597321       5.95228363
O        6.45882015       2.61906225       3.98951244
O        6.92854249      10.08937965       2.72638963
O        9.36534669       6.14885279       1.62292328
N        8.19595522       8.02197368       3.39024217
O        6.19444545       6.71059852       1.35023740
O        4.36706835      10.21149269       1.29249643
O        6.80474469       9.33126471       5.09653183
Li       4.73308838       7.92538101       1.18664535
Li       0.76900502       0.66749575      10.09811164
Li       8.02569565       1.37967894      11.05852273
Li       7.83246019       6.67664152       9.40345959
Li       6.36080170       7.13926415      11.65193478
P        7.90614404       9.71555661       8.29339173
P        4.85407355       5.75627699       6.06561839
O        7.21324547       2.55912614      10.10720611
N        8.32227612       8.21448763       8.18266470
O        6.27437665       9.78785078       8.25026442
O        5.62423414       6.40145803       4.79033814
O        3.81021256       9.25317055       6.13411949
O        8.39881021      10.25181129       9.62403629
124
Lattice="9.63908 0.0 0.0 0.0 10.3723 0.0 0.0 0.0 12.0957" Properties=species:S:1:pos:R:3 material=LiPON model=NEP89 temperature_K=600 phase="NVT production" display_name="LiPON｜NEP89｜600 K｜NVT production計算" report_figures="23_LiPON_lithium_MSD; 24_LiPON_transport_comparison; 25_LiPON_temperature_RDF" source_frame_index=1799 relative_time_ps=179.9 pbc="T T T"
Li       2.50848969       7.90568769       6.02009396
Li       4.75057056       5.70448912       2.96531700
Li       0.56217055       2.72601183       2.21376704
Li       0.12019140       7.38448929       4.69269525
Li       3.15061344       9.40666698       0.37094609
Li       4.85428109       1.33549816       8.48642106
P        3.50427683       3.38802704       1.30019741
P        0.71862742       0.65713424       0.58361639
N        0.72436711       4.16091917       4.16629899
O        1.72159922       8.42138676       3.97134232
O        2.04007927       3.59598101       1.08522333
O        5.05928789       0.71552983      10.89674916
O        3.83346359       2.61764824      12.09267802
O        9.16492378       9.99499055       0.85996100
O        8.29720401       7.07817226      11.18427922
O        3.91661347       2.72805963       2.55102504
Li       5.69977625       2.47651588      11.62482806
Li       1.09405769      10.33537132       4.18962846
Li       5.05986748       8.07245825       4.77476154
Li       0.38771048       5.52045045       2.80894964
Li       3.92152623       4.21574818      10.58990902
Li       8.45577814       1.63401315       4.55866546
P        1.63012640       2.86418727       8.75760593
P        8.90347541       4.40849030       4.96765607
O        1.21430914       0.87886063       2.01326577
O        3.59664361       5.85351445       9.17192185
O        2.13359744       1.42318326       8.88730995
O        3.97593490       0.59000613       4.13647940
O        0.09608041       2.95174477       8.65438839
O        8.72933017       3.16880441       5.85739986
O        0.62072919       6.39771740       8.45813431
O        2.12216703       3.51818854       7.50643701
Li       8.75092731       1.92837937       7.28542092
Li       7.09455611       6.51445596       3.29005464
Li       8.96685267       4.83326020       7.68339010
Li       7.98684364       3.13964611       0.80587940
Li       5.00594810       8.67269247       7.60901453
Li       0.29966597       8.42862728       1.78000899
P        2.67909625       7.64788793       2.99647118
P        9.28580640       6.25246298       0.00182633
O        0.56851261       8.05910386       6.63393490
O        4.04306715       4.89074969       0.95389503
O        2.45395864       6.19983320       3.30591564
O        6.00728431       4.66679871      11.56486190
O        2.49810149       7.93112208       1.46460364
O        8.82996664       4.71202653      12.09354972
O        1.71320060       0.07223203      11.64332029
O        4.15969943       8.12154664       3.29951589
Li       0.60033953       3.75773873      11.43498104
Li       1.94103852       5.25363283       5.07368077
Li       6.39484684       0.39082694       6.52159033
Li       1.67723450       7.86948471      10.81593648
Li       0.88636399       0.04348562       6.91839645
Li       3.05507381       1.30368649      10.66852076
P        4.18243380       7.23171986       9.71189498
P        0.22328392       7.84542215       8.11836029
O        1.09825119       6.21864257      11.54024934
O        1.92137585       3.77998989      10.12962751
O        5.73600726       7.05450692       9.68561854
O        3.22342652       6.26015459       6.14122240
O        3.74854345       8.47039909       8.88495606
O        1.02603650       8.89988112       8.99762852
O        1.56923556       3.21350056       4.01480391
O        3.73934539       7.61994571      11.21789852
Li       4.48893973       2.71320703       4.60237386
Li       1.73801487       2.56857524       5.93216029
Li       6.45282177       3.03831827       6.04344524
Li       7.32886737       7.62730025       6.74169108
Li       2.35327177       5.25140335       7.56489489
Li       4.84288836       9.76383271       3.02216760
P        7.18310934       3.61558582       3.20467143
P        5.61607047       0.16945766       0.12513113
O        4.61996796       1.36371891       6.43757024
O        8.94291762      10.17740443       4.39869025
O        0.08903154       1.86517867      11.92262531
N        7.89489400       4.87173697       3.82388501
O        6.48984346       1.23855310       0.80522068
O        6.33190935       4.16831504       1.86644151
O        8.22749858       2.66374440       2.59460403
Li       1.67517157       5.64509481       9.83710702
Li       7.80925701       0.71711606       1.81537373
Li       2.76408796       6.51814477       0.36733025
Li       7.63612146       4.62451561      10.67234699
Li       2.80481138       9.99675153       8.83580612
Li       5.70142829       1.59726216       2.67618531
P        6.44906301       3.20626415       9.01255906
P        3.64274065       0.41098871       5.69961980
O        6.36235446       9.21909061      11.94490414
O        8.57303150       0.07184370       7.20372128
O        4.83916882       3.21660513       9.10149563
O        9.28706641       5.60610112       5.71445700
N        6.95839911       4.63531124       8.71831264
O        2.20538918       0.72208922       5.89998905
O        5.66506073       6.60582542       7.03628677
O        6.83643719       2.32684057       7.82116778
Li       5.29085559       5.40673057       8.73500835
Li       8.19264345       9.27341457      11.19825278
Li       5.63811906       9.12280412      10.13822726
Li       3.07517404       1.04726221       2.46125463
Li       3.79715083       3.16138011       7.42644681
Li       7.00026040       8.49950164       1.49746589
P        7.61693891       9.33977831       4.11241082
P        5.64220042       5.26162462       0.85046487
O        4.70851712       4.27537096       6.25372957
O        6.38923275       2.77989499       4.19691304
O        6.70346137      10.16740524       3.05792810
O        9.41382214       6.76324644       1.44973030
N        8.12764762       8.03517041       3.45111171
O        5.86604684       6.70268310       1.13876942
O        4.46663209      10.04905867       1.10124518
O        6.72317642       9.00208895       5.36267190
Li       4.72155266       8.15023521       0.45259499
Li       0.52934339      10.13840517      10.12152785
Li       8.86922739       1.90574865      10.20012464
Li       7.61570871       6.65359537       9.15475301
Li       6.39377734       7.06443656      11.38286255
P        7.87516264       9.67506629       8.35032876
P        4.72610629       5.81306490       6.04893022
O        7.16450323       2.78068481      10.32151223
N        8.28870158       8.09985817       8.29081696
O        6.32020238       9.66349698       8.32272335
O        5.40915445       6.24096886       4.69430942
O        3.92543461       9.20899653       6.06598138
O        8.21898200      10.31170008       9.75653976
124
Lattice="9.63908 0.0 0.0 0.0 10.3723 0.0 0.0 0.0 12.0957" Properties=species:S:1:pos:R:3 material=LiPON model=NEP89 temperature_K=600 phase="NVT production" display_name="LiPON｜NEP89｜600 K｜NVT production計算" report_figures="23_LiPON_lithium_MSD; 24_LiPON_transport_comparison; 25_LiPON_temperature_RDF" source_frame_index=1829 relative_time_ps=182.9 pbc="T T T"
Li       2.36239418       8.13408631       5.73266602
Li       4.53372319       5.78355247       3.08149483
Li       0.36784502       2.87471173       2.53025415
Li       0.04391776       7.54821446       4.44591062
Li       2.82280486       9.47049904       0.74046664
Li       4.70034452       1.42776605       9.28271253
P        3.29242085       3.45538272       0.99613887
P        0.46758128       0.40327323       0.74520972
N        0.92703554       4.37981841       4.11124066
O        1.88782284       8.27893721       3.94392366
O        1.82078310       3.68219729       1.30451622
O        4.72960505       0.03953894      10.84430355
O        3.56889685       2.95516476      11.63075635
O        9.02211540       9.61179680       0.77514439
O        8.14374403       6.86988112      11.02317014
O        3.85193195       2.55584667       2.02880035
Li       5.43107041       2.83029435      11.19860293
Li       1.41633308      10.12813447       3.68380263
Li       5.03575508       8.26100369       4.92694602
Li       1.42781800       5.16560841       2.35490202
Li       3.65065298       4.29439143      10.13165204
Li       8.02893182       1.47816229       5.18636601
P        1.81990414       2.47151053       8.86466517
P        9.13050416       4.52354266       4.88816967
O        1.05489701       0.43061746       2.16529274
O        3.39848700       6.12162387       9.73814136
O        2.73151390       1.24680601       9.19796286
O        4.21827299       0.70336304       4.19613933
O        0.39433388       1.99277597       8.80538244
O        9.19225845       3.25925957       5.80846944
O        0.73051785       6.50448261       8.14153391
O        2.22578841       3.09199231       7.48240252
Li       8.71791508       2.04810374       7.54492502
Li       7.21833937       6.60723884       3.32140860
Li       9.28161764       4.61103175       8.34483237
Li       8.06102759       3.25693265       0.50587686
Li       5.20146355       8.46331482       7.28352948
Li       0.15836546       8.42298292       2.04290549
P        2.85247695       7.57369244       3.04042161
P        9.18647627       6.20448203      11.99101158
O        0.73589108       8.35732976       6.48369893
O        4.05492392       4.97933553       1.13276857
O        2.66849136       6.08345629       3.34818963
O        6.11174551       4.31630542      11.98037916
O        2.24674070       7.92603118       1.59582744
O        8.88951872       4.76797639      11.87797770
O        1.50669885       0.01062473      11.75924513
O        4.26215555       8.08177069       2.93265399
Li       0.88607454       3.55437411      11.77445315
Li       2.24601479       5.25454696       5.38638563
Li       6.19905191       0.63426662       7.10919402
Li       1.62633434       8.29233556      10.96296037
Li       0.66773526      10.16423020       6.43865228
Li       2.85387576       1.33640481      11.10417995
P        4.10851596       7.42973783      10.07750176
P        0.41748883       7.95655936       7.93549658
O        0.98073670       6.49042655      11.39091157
O        1.85946364       3.84549333       9.65825492
O        5.59532205       6.95806527      10.29866627
O        3.53069843       6.43195491       5.94575369
O        4.05150648       8.42852122       8.89270062
O        1.20840486       8.74469782       9.04199109
O        1.89800079       3.50023766       4.23181844
O        3.51798154       8.02255160      11.40454937
Li       3.69382881       3.19790528       4.42758576
Li       1.24193091       2.37031737       6.00880503
Li       5.58849529       2.73423319       5.85812635
Li       7.69140322       7.26000104       6.47776322
Li       3.16696410       6.55645588       7.86356397
Li       4.80441871       9.76436706       2.83555584
P        7.17556844       3.50299348       3.28978970
P        5.39010421       0.10690690       0.07614123
O        4.39482420       1.33315494       6.66608044
O        8.79505233       0.19982905       4.21612360
O        9.37378245       1.70301579       0.24735891
N        8.05722672       4.77863940       3.77921559
O        6.30996671       1.32355436       0.22809158
O        5.94447920       4.29156514       2.57091957
O        7.94199439       2.66632493       2.25944610
Li       1.45133872       5.57914345       9.73289635
Li       7.61323650       0.60827559       1.42189112
Li       2.62477888       6.62877769       0.39607943
Li       7.41469692       4.77860814      10.70301672
Li       2.70989399       9.73003527       8.78407767
Li       5.34706454       1.57890246       3.04487230
P        6.50075011       3.30972818       8.77923051
P        3.67322449       0.48852323       5.58995692
O        6.31790630       9.19920144       0.16637578
O        8.46957816       0.26465490       7.29322109
O        4.89796554       3.46507890       9.02890687
O        9.07746831       5.84129140       5.72112549
N        7.20700746       4.75193185       8.90269108
O        2.14637777       0.80368415       5.58679863
O        5.68440080       6.69426636       7.16677669
O        6.79525949       2.64764227       7.41304481
Li       5.34962509       5.51980270       9.00961983
Li       8.26146706       8.83164374      11.24232115
Li       5.66611998       9.17061149       9.84730751
Li       2.95744465       0.91438983       2.49302760
Li       3.87162829       3.01913370       7.24985536
Li       7.46228946       8.48737384       1.73922985
P        7.58667454       9.53482413       3.97743498
P        5.68194212       5.06302522       1.14362475
O        5.12452185       4.46932043       6.18719855
O        6.44217005       2.59197889       4.31737555
O        6.72558205      10.05656637       2.78944145
O        9.12418589       6.59349444       1.41825989
N        8.21577900       8.19635522       3.55266438
O        6.07857272       6.52227939       1.35552477
O        4.29489674       0.13298980       1.07782924
O        6.72957626       9.29316006       5.26445689
Li       4.64186080       8.26253487       0.93291281
Li       0.68310244       0.15748503       9.88311459
Li       7.96124232       1.14530050      10.98733785
Li       7.49385287       6.93222469       9.06347234
Li       6.64074071       7.20783795      11.95369672
P        7.90943018       9.57007933       8.34158282
P        5.03315813       6.00189926       5.98087038
O        6.93827435       2.45088293       9.85916500
N        8.46663247       8.06089872       8.06727200
O        6.34847315       9.48467332       8.18938145
O        5.69475300       6.41422487       4.66769707
O        3.90308705       9.32257725       5.87092193
O        8.34596230      10.05261549       9.70814244
124
Lattice="9.63908 0.0 0.0 0.0 10.3723 0.0 0.0 0.0 12.0957" Properties=species:S:1:pos:R:3 material=LiPON model=NEP89 temperature_K=600 phase="NVT production" display_name="LiPON｜NEP89｜600 K｜NVT production計算" report_figures="23_LiPON_lithium_MSD; 24_LiPON_transport_comparison; 25_LiPON_temperature_RDF" source_frame_index=1859 relative_time_ps=185.9 pbc="T T T"
Li       2.52425137       7.96714172       5.53759519
Li       4.48768922       6.04056325       3.20110566
Li       0.78619381       2.62722233       2.61796970
Li       0.12650913       7.29479174       4.72509599
Li       3.00007930       9.45965791       0.26060070
Li       4.27630709       1.05443131       9.07212165
P        3.48152746       3.60781111       1.19507095
P        0.57022236       0.60829422       0.49496131
N        0.98820345       3.85225885       4.32216733
O        1.68678958       8.69588517       4.04652894
O        1.98459159       3.97804374       1.30297570
O        4.84231290       0.71331526      10.98948934
O        3.90367306       2.98033307      11.98221621
O        9.13993803       9.91696416       0.73757935
O        8.20263139       6.79904075      11.08824436
O        3.92221255       2.84186022       2.42470072
Li       5.68437430       2.71889909      11.30374946
Li       1.24901936       0.06054334       3.66417054
Li       5.07294743       8.30282653       4.79176105
Li       9.22127319       5.86211463       2.81001226
Li       3.75310139       4.25095732      10.51451476
Li       7.91399674       1.42891002       4.96493182
P        1.64618144       2.69770661       8.86850768
P        9.16556259       4.20824718       4.88320084
O        1.32884460       0.97574538       1.87772794
O        3.45130067       6.08284680       9.66982565
O        2.49999769       1.45620311       9.21764021
O        3.76577791       0.62435019       4.20250459
O        0.21163928       2.12591058       8.64902314
O        8.77820327       2.96334281       5.65841977
O        0.50196981       6.16861447       8.41911672
O        2.12652877       3.49832318       7.59403195
Li       8.66249727       2.22387730       7.30449791
Li       7.20956646       6.37667764       3.19014716
Li       8.73028928       5.06096363       7.70585590
Li       8.30266832       3.12926707       0.68564083
Li       5.17115887       8.41997148       7.35146322
Li       9.47177330       8.69474235       2.11090644
P        2.50346536       7.76226061       2.97213407
P        9.23386483       6.20986850       0.01092906
O        0.84005417       8.20816758       6.62392040
O        4.19292504       5.16014136       1.33497969
O        2.36530045       6.23511324       3.33961579
O        5.90339763       4.95379209      11.53099687
O        1.95722185       8.04534648       1.57712956
O        9.07899412       4.68500517       0.17074431
O        1.55844651       0.04937188      11.61887232
O        3.98936677       8.26443867       3.01582972
Li       1.00545767       3.37821642      11.94536209
Li       2.14791351       5.14440275       5.13421873
Li       6.36731111       0.81895675       6.69103913
Li       1.67036547       8.73717724      10.79516294
Li       0.56623087       9.85828615       5.73696275
Li       3.10069176       1.40297422      11.12589845
P        3.98849815       7.49934794       9.87860620
P        0.27698945       7.77313124       8.00714446
O        1.04138810       6.69483566      11.81582285
O        1.83300106       3.64193019      10.15022451
O        5.45997044       7.40642775      10.03698273
O        3.48664050       6.25147531       6.16184288
O        3.74549866       8.25059578       8.56326623
O        1.01412599       8.61304168       9.10234151
O        2.04352195       3.07948501       4.42995988
O        3.42450318       8.11697770      11.16940319
Li       4.40781569       2.85901790       4.07429586
Li       1.22275437       2.16880196       6.09340769
Li       6.30081901       3.40666839       5.76599712
Li       7.18198742       7.20260974       6.57079603
Li       2.50062990       5.51067117       7.99742129
Li       4.84451419       9.93862358       2.99318013
P        7.33334714       3.45743113       3.10227092
P        5.52689909       0.21998225       0.22562407
O        4.56760744       1.33565605       6.49260394
O        8.85543010      10.17621880       4.25823478
O        0.01367629       1.80832181      11.91535202
N        8.04602976       4.66359888       3.84749644
O        6.43275254       1.44124301       0.69874074
O        6.52076059       4.15613599       1.89994794
O        8.35443681       2.61432394       2.35714970
Li       1.31434414       5.60267363      10.33120296
Li       7.79984669       0.65973899       2.10518874
Li       2.70333658       6.51234132       0.47825852
Li       8.07389913       4.54858634      10.56222832
Li       2.38192870       9.68108253       8.09908130
Li       5.55142586       1.69220132       2.40503766
P        6.43108147       3.25913304       8.84300702
P        3.64042384       0.32696699       5.70953942
O        6.25191197       9.23319368       0.05776265
O        8.58612443       0.20345635       7.09240033
O        4.84899215       3.59438232       9.07753081
O        9.14166562       5.49156483       5.78075746
N        6.99258676       4.74347456       8.97438040
O        2.18924532       0.38122471       6.23229735
O        5.79824476       5.98098049       7.14350412
O        6.68321290       2.69608700       7.44651554
Li       5.33560746       5.47439855       9.20069824
Li       8.47198621       9.07971199      11.07892825
Li       5.80628750       9.26622288       9.97921104
Li       3.13105221       1.11171094       2.27621468
Li       4.15125149       3.25465124       7.30064945
Li       7.24398179       8.57258818       1.24080351
P        7.77013511       9.13207666       4.03838835
P        5.67427129       5.33820064       0.93164771
O        4.58207731       4.18013542       5.60912499
O        6.48101306       2.48736212       3.95772470
O        6.83910683       9.76121332       2.95301751
O        8.88913393       6.84839635       1.39358353
N        8.41686609       7.73671271       3.54390504
O        6.10745083       6.71291314       1.51496655
O        4.38478651      10.33341505       1.25819248
O        7.07468733       8.73248824       5.26566195
Li       4.90354429       8.12499727       1.31268198
Li       0.77907431       0.28688194       9.74531482
Li       8.43303044       1.54500979      10.50753729
Li       7.74594963       6.58588338       9.26367820
Li       6.39018394       6.98369750      11.46363255
P        8.00951378       9.71341040       8.30193402
P        4.84373012       5.64009562       5.94100985
O        7.03064110       2.62887327      10.04402242
N        8.29867883       8.11976767       8.11250150
O        6.42061133       9.85533341       8.32594065
O        5.50023449       6.29896737       4.67982483
O        4.14072762       9.31866380       5.96714268
O        8.47053794      10.18036444       9.78510581
124
Lattice="9.63908 0.0 0.0 0.0 10.3723 0.0 0.0 0.0 12.0957" Properties=species:S:1:pos:R:3 material=LiPON model=NEP89 temperature_K=600 phase="NVT production" display_name="LiPON｜NEP89｜600 K｜NVT production計算" report_figures="23_LiPON_lithium_MSD; 24_LiPON_transport_comparison; 25_LiPON_temperature_RDF" source_frame_index=1889 relative_time_ps=188.9 pbc="T T T"
Li       2.27832847       8.17639998       5.85378115
Li       4.43678314       6.17940621       3.02304831
Li       0.88464201       2.68959914       2.42093455
Li       0.00681168       7.95511071       4.97051444
Li       2.94477229       8.94943565       0.48455063
Li       4.86995622       1.44874652       9.10537700
P        3.36384571       3.75473320       1.23528005
P        0.63616027       0.37179049       0.45819699
N        1.10563082       3.81013054       4.17625858
O        1.75366567       8.74625774       3.90944856
O        1.86927808       3.95317356       1.18754423
O        4.96140841       0.55723479      10.76102568
O        3.90616856       3.01970587      12.05665989
O        9.21445958       9.67291334       0.81953706
O        8.20110982       6.82205529      11.34819700
O        3.78497424       2.87972303       2.35765048
Li       5.57267765       3.01172006      11.54999564
Li       0.91765428      10.30923168       3.49303686
Li       5.07935917       8.14572799       4.65340630
Li       0.62028947       5.06322079       2.66573138
Li       3.76495498       4.39118658      10.29795443
Li       8.22654198       1.52991500       4.97706219
P        1.56216478       2.81511313       8.89594257
P        9.31233120       4.22450216       4.82050931
O        1.32357768       0.88667231       1.83259794
O        3.31900351       6.08601632       9.55139199
O        2.43315344       1.49587542       9.17386665
O        4.03972619       0.61412260       3.99119045
O        0.06802171       2.38943704       8.84266922
O        8.92524440       3.13549132       5.78688005
O        0.65324743       6.44950954       8.49317114
O        1.92001908       3.54045179       7.55623859
Li       8.54887725       2.26353594       7.61376288
Li       7.54128574       6.26225662       3.80231311
Li       8.67273583       5.09315808       7.34150466
Li       8.19486933       2.89628158       0.56274492
Li       5.04965251       8.14956594       7.60672483
Li       0.01708573       8.21795246       1.90033099
P        2.57027866       7.72703178       2.99528008
P        9.25477036       6.11590030       0.04698074
O        0.62085090       8.15124301       6.55042234
O        4.13152409       5.22142628       1.22653400
O        2.53889331       6.30762230       3.48717454
O        6.16390140       5.06526544      11.76476578
O        2.00889855       7.75521029       1.50589928
O        9.09149054       4.58766811      11.98509425
O        1.65213673      10.23281874      11.48643415
O        4.07596106       8.07199333       2.93860069
Li       0.82471414       3.25376200      11.81503960
Li       2.03066694       5.45645962       5.34053543
Li       6.06421674      10.34851488       6.55637296
Li       1.64515699       8.23235250      10.66607044
Li       0.45977378      10.27372791       6.39932137
Li       2.81367729       1.27836365      11.08548777
P        3.99908395       7.33278121      10.01039581
P        0.32862305       7.91677956       8.09101225
O        0.98003145       6.45714003      11.42433876
O        1.80733142       3.78081466      10.01829476
O        5.49485109       7.24915657       9.75227883
O        3.27396686       6.31667323       6.33215149
O        3.71127550       8.67589360       9.28112095
O        1.18570225       8.84770183       9.06230509
O        2.33435557       3.40999411       4.44419034
O        3.72027331       7.61809236      11.55695302
Li       4.01037594       3.55602151       4.39934012
Li       1.61091590       2.47680285       5.81073512
Li       6.05622202       2.99057082       6.01334151
Li       6.89147463       7.64133194       6.28224190
Li       2.25938111       5.77639698       7.86020293
Li       4.82738804       9.85990792       2.81139899
P        7.40188897       3.35727878       3.07646640
P        5.52391730       0.18566123       0.04725963
O        4.37593724       1.35957965       6.34195663
O        8.82216620      10.36031742       4.18962234
O        9.58915551       1.57799677      11.84186790
N        8.20059659       4.52123837       3.69351546
O        6.37866837       1.35903374       0.41599291
O        6.22728302       4.09759607       2.20416318
O        8.37406933       2.59172804       2.23246546
Li       1.54227553       5.60968101       9.96092280
Li       7.87181844       0.64803148       1.46285753
Li       2.50832646       6.13729945       0.49850145
Li       7.81999510       4.62293198      10.77601708
Li       2.40772160      10.04406816       8.62314626
Li       5.67523251       1.12329025       3.30993105
P        6.52143381       3.31864219       9.07933712
P        3.57549515       0.34213875       5.45047130
O        6.35325293       9.19378064      11.89248609
O        8.55903932       0.15643224       7.30343255
O        5.07200498       3.46964472       9.36974054
O        0.04259080       5.46889087       5.62239009
N        7.23183256       4.69975540       9.02531753
O        2.13207724       0.54523084       5.68980253
O        5.72979807       6.41294865       7.08706736
O        6.75662061       2.54455054       7.80244361
Li       5.23451467       5.64744537       8.82376471
Li       8.04263002       8.89587166      11.09137705
Li       5.70461477       9.24513811       9.95982220
Li       3.06550835       1.29987329       2.01627615
Li       3.77806464       3.04488872       7.20719914
Li       7.49817573       8.28659759       1.30061853
P        7.58759233       9.44990787       3.89630779
P        5.79689019       5.27880043       1.16259733
O        4.54223881       4.33150788       5.78181595
O        6.67549626       2.47315462       4.18515468
O        6.75305990      10.14787234       2.79554777
O        9.15220962       6.44564328       1.51355737
N        8.24558511       8.06434465       3.41887302
O        6.16937744       6.76011092       1.57705079
O        4.39072322      10.23411947       1.10184583
O        6.75727288       9.01611458       5.14076951
Li       4.82065898       7.99255596       1.14506741
Li       0.45318343       0.21719997       9.92816559
Li       7.92741184       1.21749992      10.98166023
Li       7.57543354       6.63174902       9.00172234
Li       6.20841362       7.05320705      11.55204688
P        7.88755249       9.60007362       8.33602580
P        4.71089989       5.87372900       5.98225237
O        7.13405100       2.66445099      10.32781268
N        8.41893666       8.06205832       8.25528819
O        6.32589736       9.55044208       8.19971715
O        5.36567303       6.29687168       4.62423233
O        4.22715063       9.32717241       5.85926007
O        8.23954785      10.13792605       9.77289727
124
Lattice="9.63908 0.0 0.0 0.0 10.3723 0.0 0.0 0.0 12.0957" Properties=species:S:1:pos:R:3 material=LiPON model=NEP89 temperature_K=600 phase="NVT production" display_name="LiPON｜NEP89｜600 K｜NVT production計算" report_figures="23_LiPON_lithium_MSD; 24_LiPON_transport_comparison; 25_LiPON_temperature_RDF" source_frame_index=1919 relative_time_ps=191.9 pbc="T T T"
Li       2.60175726       8.14764376       5.94897676
Li       4.80587439       5.87799675       3.02165640
Li       0.54986173       2.97454160       2.13580345
Li       9.53775962       7.30344476       4.91848772
Li       2.93250799       9.28403128       0.56598911
Li       3.58712611       0.41328606       8.52626430
P        3.28381013       3.78916248       1.24574070
P        0.45159800       0.40689290       0.48882048
N        0.81270293       3.95889077       4.28419328
O        1.85617200       8.69296193       4.25449198
O        1.76921988       4.10154010       1.23038789
O        4.57594307       0.55359429      10.87421604
O        3.61596991       3.07659426      12.06254097
O        8.84970505       9.79162873       0.70177528
O        8.43045593       7.12378042      11.33966012
O        3.45210922       2.83840962       2.48664557
Li       5.36884199       2.62019793      11.28239612
Li       1.89266085       0.26241411       3.62110228
Li       5.06766719       8.33934426       4.80866164
Li       1.25747503       5.42251218       2.44998771
Li       3.69607873       4.33925874      10.63075868
Li       8.44708597       1.55234660       4.64622955
P        1.63127317       2.75946187       8.94218886
P        8.92554541       4.37838676       4.77095864
O        1.07471689       0.49682886       1.89902704
O        3.46811154       6.10648238       9.63629163
O        2.07039032       1.29220251       9.21642222
O        3.64933927       0.75307499       4.33028828
O        0.07883449       2.83904723       8.79810163
O        8.59420140       3.08850118       5.64269044
O        0.64444454       6.13707439       8.39490013
O        2.38132203       3.36902586       7.73717472
Li       8.46137456       1.75707981       7.20540917
Li       7.18736486       6.44496014       3.17663312
Li       0.01228320       4.47311195       7.43567623
Li       7.79543286       2.69645361      12.07464222
Li       5.03674543       8.41507012       7.61087489
Li       0.38280991       8.80163342       2.79301368
P        2.64662193       7.76831568       3.19135871
P        9.34660732       6.02446963      12.01012463
O        0.95422703       7.65363459       6.59581407
O        3.94958709       5.33086929       1.30373269
O        2.64587566       6.26860404       3.43628923
O        5.80325322       5.02588227      11.53565749
O        2.05304240       8.16779635       1.73507143
O        8.85693571       4.64389564      11.58605151
O        1.56131264      10.08287118      11.64105455
O        4.16343416       8.23269493       3.11517890
Li       0.78442776       3.38903228      11.51383480
Li       1.93270713       5.53564969       4.93321656
Li       6.09854303      10.33906747       6.29845809
Li       1.20973158       8.09692596      10.95062691
Li       0.27267639       9.82118004       5.56402962
Li       2.87149632       1.28310749      11.09581486
P        4.15883419       7.39016557      10.01352570
P        0.43321386       7.60449658       7.97047997
O        1.15688152       6.35021602      11.48252046
O        2.00113087       3.64091719      10.17875636
O        5.68850301       7.26959125       9.90460251
O        3.39215064       6.14951228       6.28514876
O        3.77580595       8.69517489       9.11649498
O        1.23269523       8.57962297       8.87948905
O        2.00394651       3.57682750       4.63762880
O        3.68099929       7.58909607      11.45782143
Li       3.86244623       3.80139534       4.43178943
Li       1.34799258       2.40844196       6.10055631
Li       6.56616615       2.98390405       5.80476107
Li       7.41518087       7.04443122       6.63692042
Li       2.44889486       5.83176491       7.91984402
Li       4.60847569       9.90024098       3.09204982
P        7.32980425       3.60152755       2.88430817
P        5.32246805       0.19315564       0.18020131
O        4.31320075       1.35028806       6.87812376
O        8.96523805      10.23084486       3.96124555
O        0.02751069       1.74255240      11.98377114
N        7.93888839       4.76422746       3.62112594
O        6.37828362       1.33100979       0.46933286
O        6.43587943       4.18532475       1.66967276
O        8.31788446       2.59389462       2.17480515
Li       1.61793743       5.61766942       9.99501017
Li       7.59821676       0.76293358       1.86579122
Li       2.55445281       6.82012789       0.50422377
Li       8.74761157       4.21022182       9.72791280
Li       2.62001981       9.86184213      10.06784805
Li       5.06226175       1.69049074       3.26230217
P        6.67748515       3.29710461       8.90782497
P        3.40800563       0.54807813       5.83088116
O        6.03962808       9.22396692       0.02929577
O        8.90825668       0.10032453       7.20567741
O        5.19789633       3.54174826       9.10630503
O        9.03721714       5.59418617       5.69015378
N        7.38824097       4.69758876       8.69719401
O        1.91273136       0.56560348       6.25968259
O        5.63260367       6.50621072       7.25371634
O        6.76671609       2.44678618       7.63535708
Li       5.42446054       5.53237117       9.31310447
Li       8.27487096       8.86808013      11.31423137
Li       5.73742006      10.04447909       9.70078175
Li       2.77158502       1.14571595       1.71758449
Li       4.31039691       3.17011317       7.56301125
Li       7.09315662       8.68114531       1.65488811
P        7.68798694       9.28707055       3.92274131
P        5.67956513       5.34116593       0.85146167
O        4.99527028       4.27258048       6.14519872
O        6.40480469       2.92289325       3.87069417
O        6.61050121       9.99635362       3.02547727
O        9.32532348       6.18413254       1.48843286
N        8.28231682       7.91774626       3.36957671
O        6.11819185       6.67093278       1.43211412
O        4.21112486       0.24248920       1.30648249
O        7.09574912       8.89332156       5.29749035
Li       4.76096079       7.93319063       1.08866126
Li       1.12306994       0.17317541       7.85138728
Li       8.95697132       1.46433282      10.26181874
Li       7.66634415       6.47131944       9.43502996
Li       6.58888695       7.27178847      11.55605256
P        8.09429153       9.51416505       8.20304267
P        4.92453749       5.79081585       6.13548389
O        7.19884452       2.52458262      10.18509453
N        8.47388854       8.00455693       8.04308324
O        6.61466203       9.58600773       8.03241692
O        5.58252169       6.26557838       4.82544880
O        4.14474331       9.46714620       6.11813830
O        8.37014700       9.94694522       9.77314285
124
Lattice="9.63908 0.0 0.0 0.0 10.3723 0.0 0.0 0.0 12.0957" Properties=species:S:1:pos:R:3 material=LiPON model=NEP89 temperature_K=600 phase="NVT production" display_name="LiPON｜NEP89｜600 K｜NVT production計算" report_figures="23_LiPON_lithium_MSD; 24_LiPON_transport_comparison; 25_LiPON_temperature_RDF" source_frame_index=1949 relative_time_ps=194.9 pbc="T T T"
Li       2.30628323       8.11160417       5.34674482
Li       4.32135530       5.83212105       3.26157841
Li       0.92469081       3.00302227       2.26207801
Li       0.25307870       7.33372425       4.31578191
Li       2.93568958       9.40149988       0.30995369
Li       3.64612084       0.51986242       8.65955538
P        3.32228470       3.63185066       1.13243757
P        0.69578483       0.55981872       0.46452556
N        1.02714644       3.86440186       4.38078969
O        1.60601650       8.73186838       3.63624811
O        1.82986149       4.24856799       1.22992943
O        4.73665332       0.59125713      11.00295357
O        3.70323038       2.97425652      11.85378494
O        9.19754759       9.88967809       0.92498607
O        8.40171654       7.17828721      11.19062571
O        3.73313347       2.75484586       2.26310764
Li       5.67913580       2.72428587      11.44915019
Li       0.76332209      10.29356174       3.19125417
Li       4.85578200       8.12498131       5.07746609
Li       0.91004879       5.13491209       2.62084623
Li       3.92926873       4.54126759      10.34938975
Li       7.73914537       1.51166440       5.01081907
P        1.55698036       2.93097891       8.88024716
P        9.09262544       4.30856417       4.88135308
O        1.45356252       0.76960093       1.71563893
O        3.51796779       6.23177834       9.28535209
O        2.09401433       1.48252732       9.03103451
O        4.14448770       0.75594467       4.27712824
O        9.62713698       2.82715903       8.63471970
O        8.62745144       3.18791010       5.81189664
O        0.36283840       6.27746130       8.53760866
O        2.30527174       3.74314105       7.76715523
Li       8.41406033       1.84956345       7.52014658
Li       7.02143875       6.47112427       3.44211947
Li       9.15373479       4.60049099       7.92214022
Li       8.03470349       2.78104622       0.42528925
Li       5.37641256       8.05440032       8.03092708
Li       0.35328200       8.46751809       1.90062450
P        2.57926046       7.81266338       2.88172038
P        9.33494462       6.24872998      12.07777849
O        0.97163455       7.82057958       6.56860700
O        4.27940898       5.00514051       1.42089421
O        2.23179351       6.36975063       3.43568157
O        5.77250299       4.88296217      11.49960911
O        2.21388840       8.03264324       1.41802215
O        8.88509672       4.77581181      11.72683804
O        1.56930034      10.21724046      11.42666450
O        4.07919620       7.99759257       3.26250602
Li       0.81817894       3.54672731      11.63003051
Li       1.96920007       5.42545881       5.15981578
Li       5.93553118      10.11779453       6.70555648
Li       1.33283395       8.50376590      11.05570758
Li       0.30054244       9.65370130       6.08349841
Li       2.76367753       1.47383795      10.99354023
P        4.11390525       7.63378268       9.95060045
P        0.40038949       7.70739913       8.07806200
O        1.18935567       6.49210999      11.65324575
O        1.77741122       3.80172568      10.13022188
O        5.66180619       7.48864666       9.89225873
O        3.49068853       6.42833386       6.12188026
O        3.78814311       8.91212313       9.15903995
O        1.08965551       8.72416502       8.96801957
O        2.02781250       3.04611761       4.63243105
O        3.58081311       7.79594764      11.38391732
Li       4.16936404       2.82613522       4.41475409
Li       1.96749795       2.28343530       6.26211893
Li       6.57561202       3.60498617       5.89045923
Li       7.66069910       7.39135699       6.24635516
Li       2.76172097       5.56494242       7.82373741
Li       4.80739330       9.71913473       3.10623796
P        7.45569753       3.52375629       2.95276360
P        5.24443110       0.16737062       0.29164567
O        3.81595733       1.31435839       6.80158801
O        8.67668928      10.35263899       4.33424045
O        9.63865321       1.72148552      11.88596821
N        8.06192094       4.73299480       3.73146320
O        6.25719790       1.27652049       0.67635910
O        6.62588917       3.90771619       1.54554448
O        8.61147224       2.59772155       2.53504096
Li       1.69934199       5.52417540       9.91966872
Li       7.93223739       0.58675585       1.68823726
Li       2.68682816       6.33954468       0.56400765
Li       7.38949367       4.53607476      10.93126619
Li       0.76036605       0.03540569       9.40208901
Li       5.36356818       1.68620225       2.63181802
P        6.49061493       3.33205780       8.84981637
P        3.49463551       0.28174306       5.73879891
O        6.02587607       9.21808483       0.03919625
O        8.74210515       0.16934315       7.41968721
O        5.02515741       3.58808022       9.06526089
O        9.57823939       5.61650674       5.48592672
N        7.27957181       4.71582946       8.99493635
O        1.98125150       0.09841218       5.62045686
O        5.79404497       6.23749223       7.12826941
O        6.59424882       2.62484584       7.50951341
Li       5.51111933       5.61831564       8.90705981
Li       7.92090552       9.35949778      11.57254881
Li       5.58105470       9.54780454      10.14693067
Li       3.09058412       0.72933599       2.79775200
Li       4.13295382       3.07361002       7.26880731
Li       7.66439783       7.92728477       1.79600056
P        7.51594450       9.33078796       4.09031023
P        5.81670994       5.20975379       0.95008613
O        4.71229203       4.24691741       5.88406300
O        6.37578685       2.75756225       3.78729466
O        6.80501434       9.84437184       2.80438123
O        9.20127938       6.56735398       1.46019021
N        8.08483303       7.96450356       3.66448222
O        6.28894880       6.54737137       1.54381127
O        4.23197021      10.29160227       1.38800511
O        6.56121635       9.15090355       5.29964361
Li       4.92874004       8.00617674       1.55302071
Li       2.95764277       8.36851884       7.39791921
Li       8.86749206       1.76670206      10.13005640
Li       7.67331401       6.71391877       9.52876228
Li       6.18088224       7.28416835      11.71809567
P        8.14877828       9.53057408       8.53107432
P        4.93717630       5.78730450       5.87111085
O        6.87991900       2.47409299      10.09224452
N        8.47537795       8.02049158       8.22009322
O        6.59928891       9.66733448       8.50459785
O        5.48844853       6.28395090       4.50154677
O        4.13728500       9.32393827       6.17867894
O        8.70410362      10.01200279       9.90431444
124
Lattice="9.63908 0.0 0.0 0.0 10.3723 0.0 0.0 0.0 12.0957" Properties=species:S:1:pos:R:3 material=LiPON model=NEP89 temperature_K=600 phase="NVT production" display_name="LiPON｜NEP89｜600 K｜NVT production計算" report_figures="23_LiPON_lithium_MSD; 24_LiPON_transport_comparison; 25_LiPON_temperature_RDF" source_frame_index=1979 relative_time_ps=197.9 pbc="T T T"
Li       2.65105560       8.12516567       5.99640597
Li       4.52467227       5.50021399       3.21050311
Li       0.74373986       2.12968298       2.90938198
Li       9.61700900       7.56995015       4.90183892
Li       3.12677376       9.54431503       0.34706875
Li       3.93297136       0.54087878       8.38236256
P        3.42320477       3.47819716       1.07902863
P        0.58900632       0.39201931       0.43599320
N        0.77646575       3.93020723       4.12266733
O        1.81417014       8.26868359       4.18687604
O        1.91568291       3.91159786       1.04481692
O        4.84899750       0.39599722      11.00484163
O        3.78264865       2.92615380      11.77762711
O        9.26816784       9.74236835       1.04049800
O        8.25243909       6.65339609      11.39791971
O        3.76356504       2.73433450       2.41842834
Li       5.33016695       2.36540543      11.12364624
Li       1.04258746      10.10103563       3.42932364
Li       5.22097479       8.00113458       4.70072534
Li       0.88672660       5.09341361       2.54483113
Li       4.08810320       4.50515202      10.45864197
Li       7.69007091       1.44001511       5.09150033
P        1.71732322       3.00992939       8.80919451
P        8.96910662       4.37301622       4.96196332
O        1.52612981       0.86229433       1.67474024
O        3.50973358       6.40916575       9.30587931
O        2.24475160       1.51463107       8.97975853
O        3.50231719       0.51888994       4.16846687
O        0.22292365       2.70214241       8.60657072
O        8.79380290       3.16613393       5.82905038
O        0.55879389       6.49717848       8.51443290
O        2.26262945       3.66105000       7.49278916
Li       8.58621170       2.01228604       7.31802972
Li       7.23776547       6.46529019       3.00964566
Li       8.94963462       4.54287172       8.13383475
Li       8.31337336       2.80325237       0.54184191
Li       5.09331085       8.12365525       7.73508392
Li       0.35895874       8.06616432       1.83287344
P        2.64338294       7.60006570       3.03635715
P        9.37086108       6.00486872       0.16525063
O        0.75586553       7.93930124       6.52689429
O        4.15523128       5.01947242       1.25331964
O        2.43729198       6.07671962       3.27444328
O        5.85585484       5.20865263      11.40270533
O        2.06430533       8.20556301       1.69585739
O        9.15897729       4.45343772      12.04490122
O        1.55607121      10.18771926      11.42539255
O        4.18003909       7.94920705       3.03895224
Li       1.07633052       3.45135212      11.58811588
Li       1.98026725       5.36233455       5.28245847
Li       5.77076887      10.03397617       6.35403596
Li       1.51537090       8.17254891      10.87162493
Li       0.14324265      10.17702571       5.95873672
Li       3.13746351       0.87446839      11.01800964
P        4.17184999       7.68026933       9.92523632
P        0.35890242       7.88461690       7.97204124
O        1.16536521       6.50609657      11.73497736
O        2.01514648       3.97708946       9.98881587
O        5.72227690       7.48118910       9.81355857
O        3.55862141       6.52791905       6.04069554
O        3.95059645       8.87769878       9.03378358
O        1.12561822       8.95272116       8.76935074
O        1.61157074       3.02369306       4.31938768
O        3.69401258       7.91168250      11.44760951
Li       4.18790576       2.63984884       4.43128587
Li       1.06015851       2.62615129       6.42604526
Li       6.41428526       3.79875817       5.86283823
Li       7.46419417       7.30792159       6.35533974
Li       3.11201520       5.49348209       7.58115636
Li       4.68857344       9.82735618       3.25394853
P        7.22800418       3.44490922       3.09997649
P        5.60287195       0.05723474       0.24922492
O        4.35695584       1.47242109       6.36739782
O        8.93893692      10.33685077       4.27928833
O        9.43694471       1.65113401      11.92504626
N        7.74825023       4.66313492       3.96763538
O        6.46987090       1.34928957       0.56610154
O        6.54733391       4.15225932       1.70767698
O        8.40093904       2.68630401       2.57586331
Li       1.65879465       5.78248329       9.74176034
Li       7.71138080       0.54522278       1.84812495
Li       2.91953116       6.52629215       0.27489686
Li       7.75695319       4.52820078      10.70985290
Li       0.31531877       0.94596935      10.04541775
Li       5.48184272       1.67016221       2.29223369
P        6.38436522       3.25658273       8.91491075
P        3.53394505       0.46760144       5.72693187
O        6.57526778       9.18067081      12.06078885
O        8.55576383       0.29630927       7.44699979
O        4.86025945       3.40202497       9.12240992
O        9.37960476       5.67961209       5.71352945
N        7.09560268       4.69786744       8.75331230
O        2.02512294       0.57609669       6.18713303
O        5.96233634       6.22179529       7.11641921
O        6.62933431       2.63343277       7.55284528
Li       5.42563738       5.82416860       8.91730097
Li       8.29212068       8.93529716      11.31422225
Li       5.82842714       9.69118684       9.99794424
Li       3.12302262       0.92227016       2.32585959
Li       4.19549745       2.98525600       7.36419887
Li       7.21702189       8.42823038       1.67594850
P        7.69308563       9.26776090       4.03702435
P        5.74389086       5.22047626       0.85208083
O        4.73156410       4.26821030       5.94272701
O        6.25136371       2.66653995       3.94699210
O        6.66620642       9.90062682       3.07768425
O        9.24672551       6.28556622       1.65357360
N        8.26184574       7.98252398       3.34841266
O        6.03011988       6.64782428       1.35638223
O        4.54891903      10.25603858       1.41450756
O        6.85119908       8.83668908       5.37476026
Li       4.94210114       8.18446527       1.41907132
Li       1.39035480       0.38300562       7.95986649
Li       7.55812067       0.98229380      11.09928588
Li       7.52433547       6.86212481       9.42003339
Li       6.38175399       7.25451566      11.53919780
P        7.86864580       9.73748870       8.35321098
P        4.98452517       5.87281356       5.86667109
O        7.09295690       2.66412710      10.30076433
N        8.38197800       8.26103975       8.27992077
O        6.30585736       9.87415739       8.26776270
O        5.69561116       6.16771988       4.60297075
O        3.99540354       9.35897804       6.14827900
O        8.11926499      10.10351652       9.85323087
124
Lattice="9.63908 0.0 0.0 0.0 10.3723 0.0 0.0 0.0 12.0957" Properties=species:S:1:pos:R:3 material=LiPON model=NEP89 temperature_K=600 phase="NVT production" display_name="LiPON｜NEP89｜600 K｜NVT production計算" report_figures="23_LiPON_lithium_MSD; 24_LiPON_transport_comparison; 25_LiPON_temperature_RDF" source_frame_index=2009 relative_time_ps=200.9 pbc="T T T"
Li       2.53398424       8.12099755       5.92750131
Li       4.54958020       6.40565600       2.99887321
Li       0.49092352       2.87247877       2.14002485
Li       0.09727414       7.76376633       4.80249055
Li       2.74400738       9.24789046       0.71498548
Li       4.55660387       1.15396223       8.97854832
P        3.43836473       3.68751522       1.18564881
P        0.53173575       0.67842708       0.61077454
N        0.73040904       3.92139269       4.09791312
O        1.79875840       8.60141460       4.05644027
O        1.94563359       4.10453181       1.15514183
O        4.82063568       0.39262343      10.71594332
O        3.93208406       3.10226511      12.02314197
O        9.00066540       9.92951632       0.88090883
O        8.31393189       7.12398643      11.28629100
O        3.82646707       2.86614898       2.43885865
Li       5.50601617       2.21523622      11.55630100
Li       1.19190807      10.33275507       3.84978983
Li       4.96581570       8.23031225       4.59159591
Li       0.87270744       5.23908121       2.26737577
Li       4.08529254       4.32275244      10.44325287
Li       8.79584759       1.65534969       4.90481613
P        1.70645642       3.02987225       9.04715831
P        9.11657216       4.36812973       5.10592558
O        1.30597799       1.03420846       1.83848205
O        3.39188723       6.16448634       9.44808637
O        2.53040001       1.75936521       9.43014677
O        3.78888764       0.50398802       3.96907575
O        0.17364550       2.57535189       8.91285951
O        9.05923961       3.20786410       6.08562195
O        0.47165780       6.35802464       8.27098582
O        2.07140724       3.59335546       7.52963676
Li       8.68786264       1.90103082       7.71943414
Li       7.51301673       6.26918535       3.56386638
Li       9.60507835       4.56209157       7.81682987
Li       8.09969430       3.07872949       0.53425140
Li       4.48945416       8.05738369       7.53509806
Li       9.54264999       8.51860940       2.03172200
P        2.52912035       7.87110376       2.87194453
P        9.20114619       6.12258117      12.07899427
O        0.79924713       8.26860845       6.59311095
O        4.16989839       5.29194133       1.35205329
O        2.54823121       6.31681650       3.09303826
O        6.18279946       5.13208021      11.63148661
O        1.70954992       8.08248184       1.62240518
O        8.92176437       4.68808715      11.60601695
O        1.50856053      10.26681578      11.79551730
O        4.05987918       8.18297624       2.87465452
Li       1.11510870       3.48780187      11.64583922
Li       2.27649855       5.26667889       5.06516910
Li       5.68593940       0.02247842       6.41266484
Li       1.12416696       8.07344936      10.85095051
Li       0.40253418      10.00956790       6.11915257
Li       3.13049352       1.21990566      11.32406011
P        4.08393267       7.38908452      10.08126842
P        0.34183340       7.89758668       8.01369381
O        0.96610516       6.55980818      11.61605255
O        1.95356371       4.04884345      10.18935139
O        5.59624311       7.02218971       9.89978907
O        3.68130498       6.55258153       6.07515252
O        3.88486576       8.76179403       9.35786336
O        1.12200423       8.61870855       9.06567826
O        1.91477299       3.34334878       4.17482795
O        3.59647523       7.61148832      11.50957380
Li       4.47216702       3.37330582       3.86904410
Li       1.75579275       2.54173139       5.88052382
Li       6.18909187       2.79414343       5.95339988
Li       7.58413035       7.25026717       6.63004202
Li       2.37148750       5.46291004       7.82198420
Li       4.95943051       9.81229331       2.79755090
P        7.29985031       3.49105004       3.25953801
P        5.36725093       0.07842857       0.09399566
O        4.22299229       1.49202331       6.17976120
O        8.73327528      10.25436130       4.59305874
O        9.38105433       1.84352243      11.97924988
N        7.85146485       4.62712048       4.17120624
O        6.52773349       1.05375697       0.41161175
O        6.54841470       3.97988735       1.86427701
O        8.46767930       2.53938760       2.73259408
Li       1.58439807       5.98593758       9.95857579
Li       8.22233747       0.72847079       2.02478718
Li       2.50814811       6.46829160       0.57903170
Li       8.47228953       3.73192480      10.26831796
Li       0.55678117       0.65481035       9.92440958
Li       5.52025989       1.83177108       2.22973502
P        6.49432377       2.90230575       8.80082440
P        3.44770356       0.31465032       5.42431616
O        6.06351805       9.03617189       0.09587799
O        8.72612301       0.05829648       7.38118052
O        4.94198207       3.22957061       8.86696592
O        9.34864031       5.85088337       5.52289201
N        7.27464506       4.24860294       8.72478023
O        1.92110398       0.57638557       5.65342376
O        5.79630763       6.24206321       7.13230850
O        6.90727003       2.09913494       7.53275927
Li       5.58007910       5.17782437       8.69387067
Li       8.18119207       9.05998830      11.56488484
Li       5.82626424       9.01213520       9.73281620
Li       3.02298378       0.74424653       2.42202260
Li       3.91561540       3.30301608       7.18625063
Li       7.18761430       8.54070990       1.59535443
P        7.56844484       9.42349215       4.05947127
P        5.85048602       5.29789430       1.04835619
O        4.87645373       4.36147986       5.71019018
O        6.21272247       2.55270660       3.93807921
O        6.78225434       9.96749685       2.89073502
O        9.03155708       6.32045705       1.50378935
N        8.22041791       8.16755818       3.35120636
O        6.23296726       6.65061929       1.68595690
O        4.24429919       0.04961189       1.09422190
O        6.73255167       8.94811140       5.23495856
Li       4.89215550       7.72560493       1.06496091
Li       2.45797796       9.93890680       9.04115251
Li       7.86090222       0.99317583      11.09031279
Li       7.54939490       6.74424268       9.34677013
Li       6.41589859       6.93615351      11.37780008
P        7.91325670       9.52947672       8.31700306
P        5.04427748       5.84895232       5.84285261
O        6.89950420       2.22731093      10.14374834
N        8.38353773       8.04673336       8.19837105
O        6.34962053       9.69370608       8.15832751
O        5.75521847       6.42041707       4.56030351
O        3.97831915       9.34728413       5.90160019
O        8.20988544       9.93569247       9.77682881
124
Lattice="9.63908 0.0 0.0 0.0 10.3723 0.0 0.0 0.0 12.0957" Properties=species:S:1:pos:R:3 material=LiPON model=NEP89 temperature_K=600 phase="NVT production" display_name="LiPON｜NEP89｜600 K｜NVT production計算" report_figures="23_LiPON_lithium_MSD; 24_LiPON_transport_comparison; 25_LiPON_temperature_RDF" source_frame_index=2039 relative_time_ps=203.9 pbc="T T T"
Li       2.52003564       8.15366024       6.00393671
Li       4.58412626       5.94012414       3.19051144
Li       1.08054845       2.50864672       3.01055283
Li       9.60333008       7.54995730       5.09451059
Li       2.89732993       9.20070341       0.47097886
Li       5.12119095       0.97642250       8.62356614
P        3.47841798       3.47771705       1.01374445
P        0.66594313       0.37744490       0.41576402
N        0.98149401       3.98887877       4.30439335
O        1.80435174       8.21391359       4.17803785
O        1.91425641       3.69429658       1.03069890
O        5.24061644       0.38982250      10.90542529
O        3.83192541       2.78188010      11.81403392
O        9.25432973       9.66601951       0.65511434
O        8.31715763       7.10853074      11.26519368
O        4.06300753       2.62506881       2.14465634
Li       5.73277529       2.68883310      11.82819531
Li       1.27329287       9.95855515       3.76302534
Li       4.97181506       8.29471205       4.77716638
Li       0.97401755       5.05541110       2.32022266
Li       3.76625138       4.28595072      10.59344127
Li       8.37645668       1.51853848       5.26934705
P        1.43757352       3.01105500       8.94349152
P        9.20475621       4.44262434       5.00494070
O        1.42124996       0.79551850       1.81073557
O        3.19868101       6.25502636       9.60383269
O        1.92497723       1.55076588       9.28975601
O        4.08128166       0.77285314       4.07880172
O        9.55210784       3.04257983       9.05122228
O        9.02355383       3.14245734       5.85788632
O        0.33773872       6.27865043       8.47251547
O        1.99552216       3.46336771       7.64506471
Li       8.72479656       2.18568028       7.59087855
Li       7.37226727       6.22529443       2.83324862
Li       8.91642293       4.81070978       7.75950647
Li       8.55842246       3.00308525       0.73328282
Li       4.08127311       8.12293253       7.52887024
Li       9.57747075       8.21129405       2.04226870
P        2.54053554       7.71446653       2.92662592
P        9.24450483       6.03916417      11.99571640
O        0.84559564       8.06590036       6.70870478
O        4.15006529       5.06022261       0.96224845
O        2.57115229       6.21899973       2.93125413
O        6.18735187       4.73313573      11.62589314
O        1.82894808       8.07048282       1.54607364
O        8.91135396       4.50664719      11.92274275
O        1.73404400      10.15637091      11.50267577
O        4.07457240       8.16563533       2.95456095
Li       0.93969702       3.33756007      11.47620627
Li       2.06821896       5.56192327       4.72174638
Li       6.08659424      10.05044057       6.34794656
Li       1.01439841       8.13279416      11.09100526
Li       0.33438913      10.15605150       6.20679071
Li       3.21292511       1.25426652      11.02347174
P        3.98448023       7.47257973      10.15388740
P        0.26934512       7.83317590       8.14308508
O        1.03186729       6.26420983      11.44524596
O        1.92918297       3.96896349      10.08457513
O        5.55328493       7.22920080      10.01277565
O        3.15699341       6.34877131       6.02775775
O        3.80875944       8.78372486       9.31949853
O        1.04908308       8.51231947       9.23843887
O        2.09877927       3.19728165       4.19662775
O        3.78416589       7.65571157      11.68818456
Li       4.05393151       3.23645911       4.07251572
Li       1.53950204       2.70960305       5.94562165
Li       6.13744655       3.10530977       5.81980604
Li       7.04773297       7.81628263       6.76898019
Li       1.80232045       5.61983159       7.35377337
Li       4.87616985       9.77771790       3.00846489
P        7.43805925       3.49839693       3.21501326
P        5.69537776       0.08646848       0.24294196
O        3.80276254       1.54729970       6.59961935
O        9.05628823      10.06329780       4.10184490
O        0.12905230       1.64055099      11.75294466
N        8.09083428       4.74547850       3.93407419
O        6.54330797       1.18966964       0.81781617
O        6.48176643       3.99987545       1.98991634
O        8.53709322       2.57363158       2.55991806
Li       1.29219149       5.77156974       9.84450445
Li       8.12455681       0.59965786       1.72671159
Li       2.35547957       6.14726324       0.81954699
Li       8.29589912       4.00360079      10.37768957
Li       0.85865699       0.07152642       9.89742494
Li       5.88038715       1.37316934       2.69630097
P        6.30188128       3.34238363       8.89921202
P        3.42698732       0.51990087       5.50556651
O        6.31310680       9.10040253       0.17840996
O        8.49457596       0.44998725       7.33412386
O        4.78241810       3.61989233       8.99762151
O        9.41595600       5.71924344       5.81360778
N        7.12194660       4.67743416       8.80576896
O        1.85835407       0.48659415       5.40164531
O        5.43979219       6.70638300       7.19943666
O        6.50771211       2.46706300       7.60982877
Li       5.32428087       5.68010549       8.70558350
Li       8.07795791       9.11491934      11.50800753
Li       5.71973151       9.27200689       9.76280725
Li       3.10016835       1.07846109       2.36696491
Li       3.97374603       3.56555795       7.45377785
Li       7.23860703       8.26572639       1.65729622
P        7.81620337       9.24712726       3.90945222
P        5.76337542       5.11538816       0.94998034
O        4.78975287       4.44676806       5.95471388
O        6.55759900       2.56892985       4.08709726
O        6.83455552       9.96413911       2.85297373
O        9.24999428       6.44760740       1.39613950
N        8.27198796       7.84497477       3.42089708
O        6.13132155       6.56144108       1.44725599
O        4.33125642       0.03936785       1.03854239
O        6.98254576       8.86724468       5.13809124
Li       4.68223403       7.58567762       1.14767425
Li       2.97079624       0.25892234       7.93343529
Li       8.63913892       1.70100674      10.36752423
Li       7.50627259       6.80979398       9.38134757
Li       6.48671704       6.76328362      11.49298252
P        7.93070336       9.80001836       8.40258850
P        4.62757763       6.02690668       6.06104019
O        6.92896797       2.58629746      10.16931110
N        8.41345484       8.33525771       8.19241222
O        6.37278961       9.76109712       8.26536461
O        5.38267491       6.53466530       4.74670009
O        4.19672366       9.54852360       6.02309194
O        8.42513638      10.24432519       9.80194525
124
Lattice="9.63908 0.0 0.0 0.0 10.3723 0.0 0.0 0.0 12.0957" Properties=species:S:1:pos:R:3 material=LiPON model=NEP89 temperature_K=600 phase="NVT production" display_name="LiPON｜NEP89｜600 K｜NVT production計算" report_figures="23_LiPON_lithium_MSD; 24_LiPON_transport_comparison; 25_LiPON_temperature_RDF" source_frame_index=2069 relative_time_ps=206.9 pbc="T T T"
Li       2.37635214       8.00296203       5.70872079
Li       4.43475671       6.59688610       2.75782635
Li       0.87591005       3.04545907       2.64910472
Li       9.62982557       7.28588995       4.39477631
Li       2.89810848       8.91998645       0.13098426
Li       3.56045630       0.51183374       8.67304848
P        3.26748569       3.61087361       1.17892376
P        0.45285425       0.51825280       0.44680643
N        0.94061333       3.99499059       4.47502027
O        2.00472028       9.49813925       3.53208959
O        1.86832933       4.09186597       1.43523859
O        4.93133095       0.62947241      11.05381262
O        3.43308651       3.21036306      11.76799444
O        9.21312153       9.79304727       1.16221656
O        8.14031264       6.73178712      11.41010178
O        3.58449995       2.49390087       2.07909205
Li       5.51248801       2.70938065      11.26474528
Li       0.31093921      10.28288791       3.20709222
Li       4.95399295       8.15082928       4.82120786
Li       0.91214714       5.28416203       2.62000875
Li       3.78342558       4.35561233      10.28109938
Li       7.47099586       1.56851499       4.46746690
P        1.56740507       3.08578763       8.64095347
P        9.05247798       4.12066925       4.98245944
O        1.18194375       1.24697999       1.61533084
O        3.80901343       6.10642278       9.31425965
O        1.92595965       1.51872109       9.01901781
O        4.13818563       0.67558182       4.70955505
O        9.60973197       3.16634669       8.94210853
O        8.76038515       2.69470097       5.38502837
O        0.84521675       6.10772689       8.19980363
O        1.88435547       3.50915839       7.23484821
Li       8.68150592       2.08578455       7.37489292
Li       7.11891276       6.31130828       3.71476082
Li       8.97234022       4.73696593       7.96275338
Li       8.65820473       2.66154723       0.64347521
Li       5.70384336       8.46123728       7.09221606
Li       0.60207123       8.34963841       0.86991701
P        2.41293913       8.14975435       3.08408829
P        9.28228654       5.99785696       0.13530201
O        0.53081944       7.64226812       6.16864180
O        4.15732927       4.92026602       1.52470644
O        1.81149410       7.06797468       4.01157904
O        5.79580177       4.88178190      11.62525518
O        2.04729498       7.86744139       1.66151934
O        9.16105543       4.51744517      12.02025170
O        1.52804670      10.35735690      11.56527015
O        3.96865991       8.27297930       3.08749230
Li       1.21843412       3.88068250      11.44638919
Li       2.08087221       5.02168150       5.70644140
Li       6.20389995       0.93555511       7.32317621
Li       0.95321482       9.21971984       9.97171229
Li       0.28899873       9.59259299       5.85872463
Li       2.84561730       1.51174652      10.98035069
P        4.23073058       7.43158115      10.16235643
P        0.52936943       7.51096503       7.69141908
O        1.07858958       6.28546935      11.68926648
O        2.11685202       4.06494397       9.62573924
O        5.72339467       7.75452774       9.83076170
O        3.42468311       6.44745068       6.54414753
O        3.58297167       8.79769317       9.60206608
O        1.39136937       8.61630053       8.24804551
O        2.02028144       3.19745870       4.31874998
O        4.01777533       7.33893048      11.68601117
Li       3.86477584       3.31503813       4.36916029
Li       1.28031450       2.21774282       5.83518395
Li       6.29460739       3.13566219       5.73062762
Li       7.54005669       6.83129462       6.41881650
Li       2.59515032       5.38031884       7.98484113
Li       4.61779434      10.21908493       2.96674557
P        7.36353438       3.48327243       2.98164519
P        5.48686320       0.15982513       0.26162889
O        4.35425692       0.88197648       7.17076175
O        8.78075572      10.25521625       4.49773116
O        9.23422162       1.51160160      11.73951242
N        8.01866849       4.62645217       3.88807190
O        6.22454618       1.17508401       1.04596158
O        6.85765075       4.37198265       1.71543768
O        8.36840779       2.50490379       2.43354644
Li       1.82757247       6.24695341       9.96510838
Li       7.75368909       0.73619496       2.09459424
Li       2.68449034       6.51599813       0.42731954
Li       7.78812709       4.52166813      10.66953403
Li       1.29289215       0.38940246       7.77942990
Li       5.28283505       1.97571957       2.38566854
P        6.60007341       3.40030442       8.80521781
P        3.57177521       0.11874319       6.06837297
O        6.49856108       9.18591224       0.04496539
O        9.06220536       0.03676974       7.22459264
O        5.10098424       3.52461383       9.02173893
O        8.83613147       5.16038246       6.07424478
N        7.24066596       4.84570370       8.77805696
O        2.07197409       0.33422351       6.06565625
O        5.82451370       6.50117909       7.00597496
O        6.82499385       2.66944254       7.47928417
Li       5.53590737       5.65152467       8.87384066
Li       8.34665347       9.01448728      11.56679491
Li       5.88652165       9.67397284      10.05527508
Li       2.76089150       0.75230887       2.20966594
Li       4.03379601       3.05610650       7.39330457
Li       7.60126700       8.45070156       1.40757559
P        7.56789253       9.28081770       4.19049543
P        5.70569638       5.24720498       1.02885344
O        4.81438275       4.38847892       6.14322344
O        6.12510008       2.95502810       3.74811835
O        6.46905946      10.00690350       3.38407858
O        9.34839721       6.51493553       1.65520818
N        8.14081330       8.07749350       3.39901461
O        5.99901695       6.67380422       1.53703670
O        4.18968008      10.02435930       1.18825784
O        6.82838729       8.68318520       5.43453992
Li       4.87842702       8.23171907       1.18073271
Li       3.48225853       7.91561683       7.77518864
Li       8.57262900       1.75844139      10.07240003
Li       7.73978265       6.90388154       9.24843393
Li       6.25721166       7.20866171      11.74020409
P        8.31603056       9.48051676       8.22196136
P        4.75482219       5.91453924       6.04621708
O        7.14766482       2.70343307      10.10990529
N        8.62357360       7.90611793       8.11076850
O        6.76871987       9.72660458       8.12852752
O        5.20499821       6.25597657       4.64811451
O        3.90911432       8.98814715       6.27289037
O        8.67619263       9.86642381       9.70178639
124
Lattice="9.63908 0.0 0.0 0.0 10.3723 0.0 0.0 0.0 12.0957" Properties=species:S:1:pos:R:3 material=LiPON model=NEP89 temperature_K=600 phase="NVT production" display_name="LiPON｜NEP89｜600 K｜NVT production計算" report_figures="23_LiPON_lithium_MSD; 24_LiPON_transport_comparison; 25_LiPON_temperature_RDF" source_frame_index=2099 relative_time_ps=209.9 pbc="T T T"
Li       2.54934287       7.95248626       5.22056798
Li       3.38891843       5.47808866       3.75985529
Li       0.92236649       2.88626240       2.98032026
Li       0.11526863       6.77744361       4.84260072
Li       3.09592589       9.30518814       0.27509816
Li       4.05720986       0.54605462       8.90156249
P        3.24282806       3.60764352       1.42853554
P        0.60869628       0.46236865       0.49185430
N        0.85135295       4.38465172       4.42937970
O        1.99260773       9.19654745       3.35806710
O        1.69762038       4.05722925       1.59575793
O        4.63924461       0.65930337      11.01603552
O        3.58915938       3.03504397       0.03173136
O        9.15440919       9.74444679       0.96278156
O        8.16313681       7.48770992      11.05294009
O        3.59124396       2.55485633       2.57012123
Li       5.41199520       2.81424841      11.48747956
Li       0.34108594       9.96667468       2.78264441
Li       5.16137220       8.19093697       5.13726925
Li       0.96813298       5.78119491       2.17431571
Li       3.84610125       4.22500612      10.67193294
Li       8.27248813       1.39398204       4.49624888
P        1.65583376       2.73264490       9.05715348
P        8.99099161       4.28387370       4.92834208
O        1.17027940       0.94203781       1.85185621
O        3.74399883       6.33023549       9.18691447
O        2.38378804       1.42189973       9.36784822
O        3.87239087       0.70569007       4.48386255
O        0.13500226       2.67420214       8.71667365
O        8.82006686       2.84947521       5.43232048
O        0.60241320       6.16797311       8.19586303
O        2.28489223       3.33523587       7.70710324
Li       8.90375617       2.07267556       7.19237885
Li       6.86372601       6.10301604       3.55572954
Li       9.00624019       4.77893158       9.24626973
Li       7.70645844       2.44400540       0.29651480
Li       5.34884018       8.58388988       7.24900102
Li       0.84517020       8.23625975       0.59481256
P        2.67038110       7.91502707       2.88766209
P        9.22123052       6.60414957      11.66885287
O        0.69625713       7.80221468       6.29501407
O        4.17401097       4.88868497       1.87334140
O        2.09198857       6.74796048       3.67641946
O        5.34609637       5.13217822      11.70856584
O        2.60821609       7.55380443       1.40139810
O        8.82381590       5.08147727      11.42388501
O        1.61080324      10.04026355      11.66515853
O        4.17671964       7.91362111       3.36640334
Li       0.48585464       3.50416964      11.95653158
Li       1.53116834       5.27605299       6.47679728
Li       6.43050154       0.72473679       6.80231246
Li       1.62366171       8.79193155      10.28368586
Li       0.51897323       9.68613374       5.98302157
Li       2.97362104       1.39207097      11.21849999
P        4.29995747       7.65140974       9.66570901
P        0.27764696       7.60371025       7.75862505
O        0.98475774       6.89643443      11.13701983
O        1.69016133       3.89990223      10.16574954
O        5.76926019       7.42244240       9.97416339
O        3.23148855       5.95665064       6.18226131
O        4.22347214       8.89565013       8.75618424
O        1.41103766       8.48909051       8.45869409
O        2.12594883       4.24176365       4.49424378
O        3.43266435       8.08144637      10.86596903
Li       3.96754112       2.86360493       4.48091116
Li       1.53850600       2.31423253       5.25398001
Li       6.69827278       3.30859965       6.11703412
Li       7.68945378       6.74869115       6.71961792
Li       3.11759849       4.81711142       8.13047757
Li       4.76204955       9.80986104       3.11967855
P        7.52452652       3.50974453       2.92507285
P        5.29784374       0.25406198       0.28301088
O        4.25840380       1.04046242       6.99792240
O        8.90156632       9.90552773       4.26099922
O        0.00048400       1.60940229      11.75156456
N        8.20137752       4.73431856       3.64776534
O        6.24753735       1.42981151       0.73476227
O        6.71064779       4.16969360       1.50421893
O        8.58760665       2.66292306       2.20667869
Li       1.46742494       5.88017081       9.78383096
Li       7.35596752       0.04453005       1.59716320
Li       2.88322413       6.46030018      11.62467530
Li       7.07401018       4.77729499      10.91156834
Li       1.28325854       0.06834301       7.85158127
Li       5.49864888       1.85121719       2.50464626
P        6.60267191       3.36946159       9.01634261
P        3.48642886       0.18496858       5.80556743
O        6.21118136       9.41499446       0.06246670
O        8.82544458       0.08942412       7.25495847
O        5.01052577       3.38287823       9.22317394
O        8.71102840       5.33701654       6.04609076
N        7.04542722       4.84102133       8.62388892
O        1.95179687       0.40512099       6.02049396
O        5.59695457       6.68677352       7.16264987
O        6.92708000       2.48315331       7.83143603
Li       5.52080711       5.51749382       8.88206207
Li       8.12817235       9.20947926      11.53082778
Li       5.91924403       9.90992082       9.91441738
Li       2.90608402       0.87827231       2.57932927
Li       3.99505937       2.85306095       7.66309922
Li       7.80706570       7.45237326       2.11503291
P        7.60166966       9.07367529       4.31722461
P        5.61590388       5.30035099       1.10425754
O        5.00779324       4.16828582       6.33655739
O        6.39582544       2.82023747       3.68648751
O        6.62623114       9.46096653       3.15488457
O        9.23432251       6.65065192       1.13143942
N        7.92828474       7.58060267       4.05723339
O        6.13369669       6.68828777       1.51216569
O        4.27809884      10.27346975       1.35410640
O        6.79069986       9.00182954       5.61198657
Li       5.31955606       8.43505257       1.66604617
Li       3.14461836       7.81082634       7.43209982
Li       8.73391588       1.57367346       9.83904061
Li       7.29441797       7.10863704       9.14640587
Li       6.60073254       7.33640759      11.66833667
P        8.17222857       9.62703779       8.33430128
P        4.76725279       5.76429188       6.15219748
O        7.26049817       2.92648405      10.31875742
N        8.47061704       8.03664074       7.99856198
O        6.65358335       9.83596431       8.19824934
O        5.35455013       6.10194198       4.82970889
O        3.77981679       9.09381791       6.12741926
O        8.56360649      10.05935126       9.72954893
124
Lattice="9.63908 0.0 0.0 0.0 10.3723 0.0 0.0 0.0 12.0957" Properties=species:S:1:pos:R:3 material=LiPON model=NEP89 temperature_K=600 phase="NVT production" display_name="LiPON｜NEP89｜600 K｜NVT production計算" report_figures="23_LiPON_lithium_MSD; 24_LiPON_transport_comparison; 25_LiPON_temperature_RDF" source_frame_index=2129 relative_time_ps=212.9 pbc="T T T"
Li       2.75240923       8.10603805       5.73119142
Li       4.74475612       5.92531443       3.31011915
Li       0.32003539       2.90431344       2.11427133
Li       0.45400413       7.74855690       5.06257945
Li       3.12469320       9.40137209      11.93110994
Li       5.87016231       0.93878245       9.21878829
P        3.27496144       3.65436153       0.94578007
P        0.52265180       0.34530307       0.59983371
N        0.97652387       3.96513248       4.09751157
O        2.00128192       8.53751219       3.99177392
O        1.74787302       3.70022645       1.09753382
O        4.74795218       0.32694651      10.67921523
O        3.77573658       2.83198005      11.84817789
O        9.27762993       9.44500275       0.77565543
O        8.17067727       6.99610216      11.30593690
O        3.84694388       2.98239738       2.28052917
Li       5.58486850       2.86680770      11.61969616
Li       1.48050991      10.29436546       3.84910019
Li       5.32813355       8.25278352       4.82494052
Li       1.38387322       5.31484727       2.59244785
Li       3.70136857       4.08417363      10.39756592
Li       8.04243896       1.49436902       5.03894962
P        1.58438121       2.78593320       8.78971702
P        9.21475748       4.14608288       4.99085426
O        1.10226305       0.85070473       1.98036500
O        3.04943449       6.06172236       9.65326373
O        2.60037239       1.50608733       8.84854292
O        3.71790474       0.60719771       4.10767041
O        0.16040860       2.05933827       8.93341913
O        9.16454995       2.84108032       5.81558194
O        0.37164796       6.51320599       8.64570777
O        1.84055447       3.55761606       7.49659889
Li       8.82629878       1.98169456       7.39414187
Li       7.54181116       6.20417543       3.08323571
Li       8.97155286       5.36645286       7.35479195
Li       8.05203448       3.48034831       0.38959288
Li       4.51620020       8.20433519       7.34400539
Li       0.49876987       8.32630796       2.34478795
P        2.99348276       7.70213587       3.11750874
P        9.29361307       6.13619081      12.02839280
O        0.75664074       8.02593582       6.59424381
O        3.96997460       5.17371152       0.96782075
O        2.90925314       6.19620932       3.27134727
O        6.20858025       4.51251742      12.06828076
O        2.44096629       8.08126990       1.66673798
O        9.12934529       4.68985221      11.42498571
O        1.57678762       0.08818164      11.56991491
O        4.42594637       8.20264946       3.10332921
Li       0.68878951       3.07547906      11.32358354
Li       2.04613595       5.26126647       5.32609314
Li       6.35251951       0.27660110       6.62909970
Li       1.07574324       8.32678891      10.81278298
Li       0.44413806      10.25092502       6.09456356
Li       3.35069472       1.46216334      10.79109944
P        3.99770907       7.21474940      10.05452240
P        0.25150132       7.93186117       8.06798270
O        1.05303065       6.59667978      11.51824204
O        1.85285811       3.61931945      10.01559911
O        5.44140253       6.97813040      10.20449696
O        3.26919778       6.45385731       6.23822494
O        3.81875505       8.33233483       8.99265364
O        1.12706970       8.96043354       9.01096120
O        2.19537055       3.39770370       4.13215483
O        3.54577070       7.64676286      11.48492280
Li       3.86289737       2.70808355       4.06651264
Li       1.72843838       2.56200816       5.68053470
Li       5.98800999       2.95486436       5.87050709
Li       7.20662758       7.08529800       5.89196600
Li       1.99163214       5.68896713       7.88186702
Li       4.91208038       9.88912572       2.95757887
P        7.26483907       3.48440889       3.27804541
P        5.44211677       0.12746996      11.99886132
O        4.65449576       1.57759034       6.22074559
O        9.11980674      10.25281335       4.32784715
O        9.20044793       1.48086141       0.08252593
N        7.84662962       4.61301391       4.27232137
O        6.18212778       1.44486620       0.44385465
O        5.92375958       4.25588485       2.62035262
O        8.08331000       2.98815892       2.09176134
Li       1.27485512       5.27513566      10.14296217
Li       7.78110475       1.04759094       1.47132722
Li       2.61523615       6.70580672       0.57264954
Li       7.43114418       5.16287330      10.81083003
Li       0.71048451       0.22010248       9.91334662
Li       5.39313834       2.06628103       1.91214237
P        6.46655445       3.40998822       8.85590708
P        3.65594033       0.47966360       5.65600115
O        6.17103239       9.18052688       0.01527973
O        8.26628453       0.32317439       7.27700066
O        4.91574503       3.61442335       9.03165292
O        9.54947410       5.45737434       5.58842295
N        7.25176955       4.76833605       8.83175271
O        2.22442480       0.77448796       6.21479379
O        5.63783399       6.58912114       7.18085922
O        6.86085724       2.51721889       7.67188908
Li       4.93009861       5.52695777       8.59834396
Li       8.23756155       8.95407035      11.40218972
Li       5.65519335       8.89403652      10.09546359
Li       2.92408731       1.12885951       2.18305685
Li       3.65187354       2.83872616       7.48214081
Li       7.14037198       8.52514543       1.77202806
P        7.88278538       9.39714245       3.96796324
P        5.61559724       5.13503452       1.19407548
O        4.64484977       4.33297825       6.15528572
O        6.62849361       2.48927119       4.19062415
O        7.05804435      10.04481794       2.84407592
O        9.07692925       6.15970215       1.48057680
N        8.33371611       7.96376050       3.45508865
O        6.03753905       6.61499091       1.37546263
O        4.29452793       0.14482310       1.09044322
O        6.86960106       9.04472437       5.12815799
Li       4.81738786       8.05808148       0.89015874
Li       2.98595698      10.03708439       8.23271611
Li       8.38707851       1.76229852      10.43966040
Li       7.55020014       6.74921759       9.37517786
Li       6.57440896       7.33861367      11.86066956
P        7.87588992       9.66162298       8.35946197
P        4.72283677       5.87182765       6.04069464
O        6.83076029       2.66902223      10.15354248
N        8.36023689       8.19503731       8.12260007
O        6.28643512       9.68484297       8.43609287
O        5.57188153       6.27219615       4.79069823
O        3.92948727       9.36166634       6.04794865
O        8.37047123      10.12211882       9.78721839
124
Lattice="9.63908 0.0 0.0 0.0 10.3723 0.0 0.0 0.0 12.0957" Properties=species:S:1:pos:R:3 material=LiPON model=NEP89 temperature_K=600 phase="NVT production" display_name="LiPON｜NEP89｜600 K｜NVT production計算" report_figures="23_LiPON_lithium_MSD; 24_LiPON_transport_comparison; 25_LiPON_temperature_RDF" source_frame_index=2159 relative_time_ps=215.9 pbc="T T T"
Li       2.90324811       7.97039715       5.63057776
Li       4.46229887       6.13233596       3.43220506
Li       0.75514820       2.58924833       2.61761132
Li       0.50120829       7.10165158       4.98088438
Li       3.01999962       9.16555290       0.34082599
Li       4.48786884       1.64559477       8.81960222
P        3.29649045       3.57091232       1.43135990
P        0.63237306       0.53711390       0.68102864
N        0.80605950       3.77203730       4.19569011
O        1.57980353       8.72027670       3.88224543
O        1.85358406       4.02480647       1.50917427
O        4.69281591       0.72523034      10.72168826
O        3.62558204       3.05035666       0.01612772
O        8.88167324      10.15356444       0.77851640
O        8.25722544       7.24046538      11.28851899
O        3.77201695       2.54821596       2.47936216
Li       5.53473510       3.01318020      11.37635067
Li       1.00626788       0.00137154       3.84713426
Li       5.13063107       8.32830730       4.42737845
Li       0.62054612       5.28587779       3.02598369
Li       3.76854926       4.37500413      10.66571566
Li       7.71154751       1.38913114       4.55731184
P        1.59855079       2.73525465       8.89594084
P        8.98612160       4.34595115       4.92949871
O        1.21898639       0.77023368       2.07368943
O        3.59039282       6.03022589       9.50853948
O        2.42758789       1.40084138       9.19968708
O        3.90738839       0.37459361       3.99048475
O        0.17072430       2.46095993       8.61128501
O        8.36142148       3.18566932       5.71630367
O        0.59459821       6.19415892       8.45125747
O        2.10285484       3.44425220       7.57145469
Li       8.61100141       1.98027115       7.09474607
Li       7.11656366       6.42689906       3.40161228
Li       9.19005855       4.54356655       8.22902866
Li       8.32041594       2.88972454       0.00452624
Li       5.18199099       8.30469497       7.43628903
Li       0.13651119       8.33139110       2.06886968
P        2.35793926       7.77025826       2.99746804
P        9.10220957       6.20091572       0.03644275
O        0.52643415       8.02858405       6.51991978
O        4.08937510       5.00021678       1.73350437
O        2.26467510       6.33955235       3.39149079
O        5.48431149       4.89779708      11.65115064
O        1.81217127       7.88982196       1.45692259
O        8.63439071       4.76082385      11.89663818
O        1.63507585      10.15024535      11.72609098
O        3.89617405       8.17103535       3.06002841
Li       1.23680351       3.27966658      11.84779580
Li       2.07020691       5.32665789       5.24376954
Li       6.16477977      10.35458247       6.58254604
Li       1.72409017       7.92443401      11.09054788
Li       0.23401741       9.78844951       5.94154685
Li       2.49564604       1.43774913      10.95079502
P        4.22830184       7.31833111      10.00136533
P        0.38107144       7.67493077       8.03024597
O        0.84767793       6.34774047      11.34290246
O        2.06724604       3.65864866      10.07814989
O        5.77597689       7.13190047      10.04931724
O        3.38643426       6.13829090       6.22035960
O        4.03297119       8.61554243       9.13629084
O        1.28060462       8.50928900       9.06839629
O        2.06594188       3.52235068       4.47020184
O        3.73300377       7.72739816      11.37626259
Li       4.20269311       2.92280460       4.05452317
Li       1.33253000       2.29730291       6.20402490
Li       6.50983239       3.08433135       6.01100051
Li       7.66687788       7.45329349       6.38544009
Li       2.57993921       5.70878084       7.88169866
Li       4.85483589       9.68955000       2.64641309
P        7.34802888       3.63081543       2.88932529
P        5.39462301       0.28758025       0.02012053
O        4.54821603       1.41528089       6.19692423
O        8.80819112      10.34227265       4.35508976
O        0.33538928       1.92700704      12.05683336
N        8.02299900       4.82282622       3.74340328
O        6.12970116       1.56478798       0.64493989
O        6.42812890       4.18337557       1.67760044
O        8.39555193       2.65635072       2.36610646
Li       1.60440403       5.34590761       9.98981641
Li       7.66918998       0.79355559       1.77272158
Li       1.89307615       5.94970663       0.87775995
Li       7.12973323       4.88339265      10.82043027
Li       0.84395626      10.25383462       9.89733097
Li       5.50272254       1.43330930       2.55320868
P        6.65140827       3.36993665       8.86616774
P        3.66431692       0.30177048       5.53732765
O        6.36939893       9.38513028      11.91812466
O        8.72851851       0.14653127       7.23222072
O        5.10355984       3.49489077       9.13919621
O        0.05534941       5.40836641       5.81394403
N        7.24396618       4.75413581       8.78198771
O        2.14500477       0.55247006       5.71786101
O        5.70519168       6.32545278       7.14252714
O        6.97554842       2.23756859       7.81465735
Li       5.53369943       5.43772644       8.81069615
Li       8.16326122       9.40801505      11.30683077
Li       5.89862722       9.35653580      10.10129682
Li       3.17126971       0.97080477       2.25034701
Li       4.12278147       3.25880414       7.25215793
Li       7.31485517       8.67489953       1.52782245
P        7.61111988       9.40464081       3.89488441
P        5.52130553       5.33389735       0.99002718
O        4.88404792       4.23351266       5.89272638
O        6.38386898       2.82827149       3.86959121
O        6.59061015       9.99338868       2.98297436
O        9.37557975       6.54993585       1.49285023
N        8.11514165       8.12445782       3.16684790
O        5.95918717       6.74370088       1.39963618
O        4.32142426      10.21440837       1.08396227
O        6.85996587       8.81824784       5.10051808
Li       4.52876175       7.95191124       1.29949075
Li       2.91195613       9.76502496       8.41365326
Li       8.62863776       1.86335004      10.00660566
Li       8.20009579       6.66044706       9.56843691
Li       6.38776173       7.56834794      11.75847894
P        8.21811010       9.62519201       8.30283126
P        4.89187927       5.71617787       5.95379786
O        7.19771961       2.86483137      10.25594081
N        8.39896431       8.05281250       8.22320487
O        6.64346300       9.61149352       8.24927867
O        5.61205345       6.42051652       4.80549617
O        4.04091511       9.22787949       6.05343631
O        8.68098715      10.08688071       9.67943115
124
Lattice="9.63908 0.0 0.0 0.0 10.3723 0.0 0.0 0.0 12.0957" Properties=species:S:1:pos:R:3 material=LiPON model=NEP89 temperature_K=600 phase="NVT production" display_name="LiPON｜NEP89｜600 K｜NVT production計算" report_figures="23_LiPON_lithium_MSD; 24_LiPON_transport_comparison; 25_LiPON_temperature_RDF" source_frame_index=2189 relative_time_ps=218.9 pbc="T T T"
Li       2.27076003       8.24211937       5.63778783
Li       4.47522023       5.75316340       3.21338081
Li       1.05349119       2.57637005       2.79748996
Li       9.61918099       7.36707057       4.51107973
Li       3.24777286       9.36468680       0.38602673
Li       4.40048482       1.23430438       8.75825457
P        3.38826982       3.48691075       1.12659926
P        0.68461462       0.31258575       0.44489209
N        0.88193234       4.16958999       4.19519288
O        1.73196167       8.55258044       3.82201086
O        1.90657659       3.70842255       1.08509805
O        5.05696394       0.44024697      10.91176309
O        3.98143631       2.90992424      11.93380080
O        9.25655374       9.55331463       0.68924168
O        8.17944017       6.86970263      11.19476666
O        3.67865498       2.57711455       2.34804388
Li       6.01319557       2.63414235      11.56831157
Li       1.17799534      10.29225218       3.95759708
Li       5.08315663       8.23810155       4.91194098
Li       1.04288186       5.09173715       2.34375512
Li       3.78460985       4.15436172      10.44770073
Li       7.89010832       1.68912296       4.14653465
P        1.71350504       2.86906980       9.00226807
P        8.86798577       4.43458512       4.73506401
O        1.22714753       0.67742289       1.90165500
O        3.38262084       6.00529528       9.67722776
O        2.43062302       1.54959602       9.28746179
O        4.03468041       0.47109892       4.18772052
O        0.16611505       2.83332114       9.03459123
O        8.53431273       3.15309956       5.64193466
O        0.43743662       6.33800998       8.29479747
O        2.24606364       3.48364670       7.60782550
Li       8.48293659       2.11505207       7.64797364
Li       7.32549169       6.64940436       3.72636319
Li       8.91538450       4.86099274       7.63259726
Li       8.30601930       2.92319437       0.66406284
Li       4.64974730       8.07571372       7.53484890
Li       0.47338023       8.25881148       1.86051125
P        2.78295095       7.79491067       2.93182115
P        9.21637166       6.05811019       0.05815350
O        0.59158656       8.13556309       6.60439135
O        4.14018210       4.94795730       1.43611512
O        2.52131544       6.29346502       3.25290389
O        5.66405710       5.16233322      11.50558065
O        2.33813922       8.16749758       1.54234274
O        9.16828659       4.57119103      11.77480038
O        1.75766694      10.16327267      11.52036687
O        4.24927020       8.16398920       3.08783862
Li       0.78810793       3.17942641      11.72306760
Li       1.85514284       5.46359780       5.15169304
Li       6.13738156       0.87786024       6.57703751
Li       1.75369973       8.27600921      10.89811890
Li       0.27983341       9.95949782       6.16133394
Li       3.20434695       1.34447779      11.05678258
P        4.05173376       7.43788274      10.04766111
P        0.16160645       7.83620354       8.08887756
O        1.07561790       6.58958149      11.74438129
O        1.99997606       3.87624290      10.12472744
O        5.54381556       7.17170207       9.71633039
O        3.58810647       6.56700655       6.19287592
O        3.39872222       8.60383964       9.21614752
O        1.04472212       8.59093749       9.12950913
O        1.97163398       3.45722740       4.36565516
O        4.02911699       7.68754265      11.59036851
Li       4.40032487       3.16974500       4.18846304
Li       1.19907651       2.32393670       5.71386075
Li       6.42966119       3.70515644       5.92712502
Li       7.53242612       7.67252091       6.63615135
Li       2.82912651       5.59177828       7.48471713
Li       4.96185129       9.88612589       2.97730926
P        7.32397985       3.53546321       2.93193726
P        5.68944392       0.07296153       0.15796044
O        4.14813337       1.40290843       6.47868141
O        8.96175767       0.15515167       4.50111096
O        9.54469503       1.55418941      12.00332471
N        8.03591756       4.85549552       3.42164494
O        6.67817949       1.24975333       0.51225892
O        6.43782253       4.10772535       1.72897193
O        8.35914665       2.50688423       2.40916031
Li       1.43858658       6.16319141       9.97889630
Li       7.99961833       0.70296386       1.51405986
Li       2.87384712       6.44971777       0.58966100
Li       8.76749779       4.23427487      10.06205114
Li       0.81396872       0.20043373       9.78780081
Li       5.59535353       1.54920727       2.43462179
P        6.30549348       3.05088966       8.94011190
P        3.50347408       0.27750278       5.66335604
O        6.55098180       9.03063139       0.23157331
O        8.42806618       0.17471201       7.35017198
O        4.79554408       3.15560247       9.18538200
O        8.91103064       5.65977714       5.59764772
N        6.95154448       4.48437378       8.85639590
O        1.90401562       0.50288644       5.64045496
O        5.82569471       6.61535217       7.11533866
O        6.43560640       2.41186375       7.58360690
Li       5.32857069       5.33810351       9.05780799
Li       8.17840378       8.97798049      11.45594136
Li       5.49223687       9.38760155       9.74326519
Li       3.04543095       0.87588291       2.54008666
Li       3.95422519       3.05018619       7.05931355
Li       7.52708795       8.51878604       1.70674528
P        7.82524460       9.52185703       4.14502923
P        5.70707630       5.27251880       0.91668700
O        4.85926628       4.46038413       6.10467564
O        6.40034848       2.93793423       3.92430494
O        6.95996134      10.15665925       2.91553341
O        8.89412983       6.38596380       1.51938283
N        8.38414951       8.22117674       3.48738402
O        6.13545104       6.69231474       1.44314973
O        4.56837542      10.34214837       1.28750570
O        6.98284560       9.05589527       5.28802740
Li       4.99234996       8.04349532       1.38147655
Li       2.38264053       9.37885432       7.93619706
Li       7.99681151       1.15489154      10.95724560
Li       7.69897654       6.55072204       9.48078525
Li       6.32372743       7.07750466      11.40305970
P        7.61720836       9.75864557       8.43878626
P        5.00086589       5.96465917       5.99615271
O        6.99460266       2.37529350      10.12618164
N        8.24530895       8.23757200       8.36143036
O        6.08960267       9.79385812       8.17786003
O        5.58502033       6.40045795       4.65083372
O        3.86174114       9.18342219       6.10386100
O        8.06977313      10.07692233       9.83445948
124
Lattice="9.63908 0.0 0.0 0.0 10.3723 0.0 0.0 0.0 12.0957" Properties=species:S:1:pos:R:3 material=LiPON model=NEP89 temperature_K=600 phase="NVT production" display_name="LiPON｜NEP89｜600 K｜NVT production計算" report_figures="23_LiPON_lithium_MSD; 24_LiPON_transport_comparison; 25_LiPON_temperature_RDF" source_frame_index=2219 relative_time_ps=221.9 pbc="T T T"
Li       2.52740251       8.17846730       5.57952175
Li       4.64060619       6.24993431       3.22681568
Li       0.81629396       2.83536451       2.31349162
Li       0.23735877       7.87787660       4.68408391
Li       3.00543422       9.15133556       0.24515876
Li       4.40118926       1.53661495       9.46620081
P        3.17804029       3.52171459       1.28761084
P        0.43501447       0.61662210       0.51124401
N        0.88060618       3.69202097       4.36534187
O        1.80324726       8.53961005       3.87943652
O        1.67884633       3.95804217       1.28923858
O        4.82486418       0.16077294      10.64047678
O        3.50735354       2.68948281       0.03285225
O        8.94481219       9.97063871       0.74214527
O        8.11366443       6.71161588      11.11707667
O        3.60154705       2.74789251       2.57067596
Li       5.21589519       2.64331137      11.45986344
Li       1.41855542       0.15476581       3.73708493
Li       4.78534881       8.20504824       4.73246490
Li       1.01671651       5.52579412       2.14718391
Li       3.42453119       3.98937952      10.73006495
Li       8.28589526       2.02306722       6.86169341
P        1.87102386       2.71732492       8.60274963
P        9.24697098       4.59017621       4.89292766
O        1.30233516       1.02386163       1.81322402
O        3.29434409       5.91050463       9.22751768
O        2.58794129       1.44530704       9.17552489
O        3.84160516       0.39053590       3.77354335
O        0.36328071       2.55037306       8.04393330
O        8.49443204       4.05302621       6.17862281
O        0.47695278       6.23009733       8.38344609
O        2.71248942       3.65058226       7.64972551
Li       9.37348662       2.60024430       9.74215289
Li       7.77362413       6.73119274       2.82392710
Li       8.84525420       4.49178291       8.02975637
Li       8.11763122       3.12392690       0.33558180
Li       4.72705629       8.27413425       7.40937239
Li       0.31769919       8.34646189       1.79960580
P        2.59249513       7.75669153       2.79373150
P        9.21857182       6.05523506      11.97010185
O        0.83387085       8.08147815       6.64676338
O        4.06857007       4.92368443       1.21128311
O        2.46126273       6.22197680       3.11698296
O        6.02446789       4.43729909      11.95429722
O        2.09156420       7.99759381       1.28364786
O        9.16561680       4.45804632      11.75759505
O        1.40326805      10.14848972      11.64135788
O        4.14028707       8.11533192       2.87839878
Li       1.00092723       3.25040894      11.70382134
Li       2.29510265       5.86183907       4.89053973
Li       6.11306385       0.50009043       6.99860334
Li       1.12246207       8.29028796      10.91228692
Li       0.27971705       9.91849063       6.24735413
Li       2.77839865       0.91158262      10.84690828
P        4.02807771       7.10070674       9.84628562
P        0.33117623       7.76699803       8.11867406
O        0.99802762       6.47711334      11.39433074
O        1.72612569       3.61231152       9.91867551
O        5.56636189       6.99833982       9.73752694
O        3.42098525       6.49635499       6.14878874
O        3.78544445       8.43887345       9.17945045
O        1.24826506       8.71042945       8.91420552
O        2.15207592       3.67289541       4.59303967
O        3.72416226       7.20252709      11.40903080
Li       3.92766238       3.70902115       4.21509643
Li       1.02518303       2.02049380       6.04398631
Li       6.63320945       3.59232841       6.14686215
Li       7.22822148       7.93691117       6.59262561
Li       2.36060813       5.64607647       7.54631960
Li       4.83680055       9.59357804       2.76792903
P        7.49138964       3.62854844       3.16955946
P        5.45433835      10.29453911       0.00629463
O        4.32451653       1.60123466       5.78161796
O        8.95410465       0.04901764       4.62744969
O        9.50325763       1.79997326      11.82046432
N        8.19502916       4.94934788       3.65872188
O        6.35305657       1.05778664       0.29719335
O        6.21620062       4.16007938       2.38518546
O        8.47229543       2.64193750       2.39683353
Li       1.49768323       5.48421783       9.83190713
Li       8.15489175       0.91803974       2.06158791
Li       2.59085403       6.43428488       0.47739123
Li       7.40883599       4.87218713      10.64959441
Li       0.88519743      10.20062509       9.67043979
Li       5.56329342       1.22381518       3.89488477
P        6.48115441       3.18023033       9.00578396
P        3.48302236       0.47379833       5.24912366
O        6.35145779       9.04909266       0.10753735
O        8.69594054       0.08069600       7.50696935
O        5.01417351       3.33977048       9.54021083
O        0.23148079       5.94886665       5.12754142
N        7.14732176       4.59598283       8.86628711
O        1.96498538       0.44266645       5.53356621
O        5.61637284       6.67048624       7.18717157
O        6.39714462       2.29340070       7.65166713
Li       5.26568262       5.23185412       8.29292960
Li       8.23784363       8.71894569      11.36557497
Li       5.64829157       9.02129719       9.91469560
Li       3.05861233       0.84729142       2.13640713
Li       4.35746356       2.89474221       7.00992316
Li       7.26909841       9.03364093       1.77952095
P        7.57454643       9.64584407       4.28123350
P        5.64986865       5.08120681       1.11970766
O        4.86675650       4.53872076       5.99267037
O        6.77557159       2.83734825       4.29478768
O        6.87814730      10.31312279       3.07199025
O        9.04227701       6.50926640       1.36435811
N        7.96660544       8.15740462       3.88705346
O        6.15124466       6.55586764       1.29724800
O        4.25692094      10.13310737       1.04411816
O        6.68201170       9.41477024       5.51141018
Li       4.65266592       7.77354945       1.02799315
Li       2.89302999       9.84368740       8.23499476
Li       7.97274236       1.05270839      10.98932270
Li       7.52635638       6.72571097       9.56566113
Li       6.44391590       7.12274678      11.76190458
P        7.97654590       9.54302927       8.52621764
P        4.92065011       6.07234156       5.94364714
O        7.35642929       2.45977483      10.00563576
N        8.45172900       8.03519890       8.29522153
O        6.49236119       9.64504908       8.23434229
O        5.65787022       6.62652617       4.66856097
O        3.84707473       9.41432368       6.00101324
O        8.34859990       9.70408645       9.98250993
124
Lattice="9.63908 0.0 0.0 0.0 10.3723 0.0 0.0 0.0 12.0957" Properties=species:S:1:pos:R:3 material=LiPON model=NEP89 temperature_K=600 phase="NVT production" display_name="LiPON｜NEP89｜600 K｜NVT production計算" report_figures="23_LiPON_lithium_MSD; 24_LiPON_transport_comparison; 25_LiPON_temperature_RDF" source_frame_index=2249 relative_time_ps=224.9 pbc="T T T"
Li       2.52172280       8.03056174       6.09608280
Li       4.34704406       5.62182602       3.31953358
Li       0.61822963       2.06084662       3.03160792
Li       0.15681807       7.64588939       4.65771247
Li       3.02547199       9.61914167       0.44020423
Li       4.52656014       0.98750316       8.38467067
P        3.27670263       3.58718625       1.28373614
P        0.64024892       0.42412697       0.43393931
N        0.73566153       3.87273767       4.26621537
O        1.94984574       8.55021611       4.05111761
O        1.76977971       3.90926554       1.20384353
O        4.88719708       0.44360437      10.98950793
O        3.88082003       2.83923725       0.04817577
O        9.23010567       9.64078080       0.49312667
O        8.12893079       6.92304927      11.01765399
O        3.60850968       2.82787049       2.55160619
Li       5.49070689       2.56929944      11.74921922
Li       1.21213602      10.21594715       3.66892743
Li       5.46280085       7.83207309       4.84026711
Li       1.28387556       4.90007165       2.58901034
Li       3.74673842       4.18875316      10.70274109
Li       8.47317343       2.25350169       7.14738070
P        1.63100578       2.79727299       8.66480316
P        9.07622491       4.36081487       4.95466347
O        1.31575271       0.75479350       1.79074505
O        3.47054009       6.14477939       9.43077770
O        2.35689076       1.40616640       8.62449561
O        4.23518308       0.25667627       4.19602485
O        0.12425248       2.75061387       8.82849500
O        8.43040598       3.42893293       6.00445755
O        0.80729234       6.53278810       8.05499214
O        2.08389345       3.77998079       7.46468392
Li       8.78229162       2.66728008      10.29741796
Li       7.14406362       6.43370958       3.26907531
Li       9.14249721       4.84832713       7.91823764
Li       8.60034808       3.35201418       0.94384559
Li       5.09426284       8.49090793       7.46818103
Li       0.21528527       8.16698617       1.74259875
P        2.70975424       7.71840152       3.01785546
P        9.13078635       6.09263785      11.86797044
O        0.56379802       8.58950261       6.46131081
O        3.97087157       5.12477121       1.33035827
O        2.45979226       6.24471215       3.21403001
O        5.88281073       4.77571491      11.73908365
O        2.29585209       8.21049236       1.58488131
O        8.84758752       4.55529424      11.44859204
O        1.78543548       0.01035450      11.45969815
O        4.23640495       7.86863443       3.10073388
Li       1.05104841       3.72476185      11.55359815
Li       2.02611447       5.65015802       5.12069564
Li       6.81582584       0.18066741       6.40502715
Li       1.52729861       8.33452810      10.91264190
Li       0.27470923       0.13017440       5.88090248
Li       3.04180401       1.51953016      10.96941650
P        4.07909043       7.51368136       9.82445744
P        0.37600806       7.97332597       7.83097025
O        0.95844403       6.38046155      11.52452271
O        2.08303635       3.51628839      10.03284249
O        5.60126705       7.28386174       9.99808520
O        3.40138897       6.34842688       6.14575862
O        3.83728874       8.65637997       8.86011943
O        1.09693134       8.76383535       8.93375411
O        2.03218810       3.88446441       4.19927647
O        3.42229262       7.91451044      11.26717770
Li       4.21363198       2.53266166       4.45350674
Li       2.05703520       2.70500246       5.84323923
Li       6.22228587       3.16318581       6.12316457
Li       7.53789295       7.43230940       6.59415573
Li       2.39972945       5.67656892       7.57298552
Li       5.19425708       9.46025997       3.13834185
P        7.24668255       3.36506830       3.22704880
P        5.60199753       0.02390788       0.23380947
O        4.00115472       1.70875593       6.18361639
O        8.95261098      10.25931640       4.40817580
O        0.03262648       1.72586465      11.89158196
N        7.87502677       4.63309393       3.94939919
O        6.51445259       1.23292057       0.55442884
O        6.62442119       4.02118110       1.81742930
O        8.37888346       2.40141310       2.75744814
Li       1.72882116       5.53751869       9.97006566
Li       8.18078309       0.79505344       1.51791342
Li       2.48989352       6.55569421       0.50375881
Li       7.29462092       4.97411973      10.73100018
Li       0.86880713       0.56466500       9.68973576
Li       5.60148907       1.25551988       2.32864207
P        6.33185808       3.26520992       8.91983845
P        3.41226801       0.46613882       5.45571422
O        6.45193167       9.04929356       0.05602753
O        8.55584641       0.22451214       7.26996296
O        4.85763898       3.74745544       9.21380504
O        9.55803111       5.70503723       5.51573775
N        7.15406600       4.52942803       8.71245878
O        1.95632684       0.75433558       5.13239130
O        5.67613729       6.54129763       7.10555375
O        6.43940569       2.22805692       7.76392965
Li       5.27600792       5.72019708       9.03188513
Li       8.32274279       8.60540391      11.30278611
Li       5.80434930       9.34588939      10.14743912
Li       3.12351917       0.90077822       2.45681305
Li       3.77863631       3.13937558       7.68835291
Li       7.31308391       8.35373571       1.46212528
P        7.75501208       9.29709162       4.04902978
P        5.75551646       5.22716042       1.07771522
O        4.91551525       4.23152260       6.19396712
O        6.12683854       2.72422486       3.93813805
O        6.87500484      10.10255760       3.06245880
O        8.94497527       6.37360718       1.31036381
N        8.26940368       7.95482556       3.35255977
O        6.21623481       6.55856331       1.57981470
O        4.57565891      10.22355227       1.39642429
O        6.87670823       9.00744720       5.28085654
Li       4.66392671       7.68707362       1.25168954
Li       2.49261602       9.81748907       8.19453004
Li       7.72160233       0.98179187      10.77975911
Li       7.26433713       6.80899568       9.04189273
Li       6.25706794       7.26335835      11.65063271
P        8.05232399       9.55633762       8.36855136
P        4.81914730       5.77839357       6.05521464
O        6.90200821       2.54723341      10.18578299
N        8.42481842       8.10608701       7.98536449
O        6.46535955       9.55373754       8.10906031
O        5.50120362       6.11144326       4.69795068
O        3.50502814       9.55500094       6.45114245
O        8.32777032       9.78594136       9.90185472
124
Lattice="9.63908 0.0 0.0 0.0 10.3723 0.0 0.0 0.0 12.0957" Properties=species:S:1:pos:R:3 material=LiPON model=NEP89 temperature_K=600 phase="NVT production" display_name="LiPON｜NEP89｜600 K｜NVT production計算" report_figures="23_LiPON_lithium_MSD; 24_LiPON_transport_comparison; 25_LiPON_temperature_RDF" source_frame_index=2279 relative_time_ps=227.9 pbc="T T T"
Li       2.46138596       8.33520300       5.83367318
Li       4.91529639       6.45677665       3.07842615
Li       0.99596944       2.33325779       3.28219474
Li       9.60083747       7.30356507       4.87038473
Li       2.95431092       9.32501776       0.27170792
Li       5.87333347       0.31391399       6.51008426
P        2.91844064       3.55929790       1.28034166
P        0.64249920       0.51617396       0.38112796
N        1.08426785       4.16280826       4.46506585
O        2.02863047       8.51727431       4.08027601
O        1.46096210       3.92912392       1.38111296
O        4.63409470       0.55230658      10.87607005
O        3.09146237       2.69832225      12.08245914
O        9.08540700       9.84755076       0.57760671
O        7.92116165       6.54439157      11.20972652
O        3.55963294       2.84419074       2.48081334
Li       4.92253756       2.74591135      11.32293979
Li       1.20919045      10.05546992       3.34594578
Li       5.15837892       8.33519300       4.87855433
Li       1.01820492       5.18591255       2.78920552
Li       3.78178495       4.44278483      10.34800128
Li       8.54665224       2.12326641       7.58439543
P        1.57833289       3.08152344       8.68732001
P        9.21973721       4.32551298       5.06173030
O        1.23462629       0.92756776       1.80639350
O        3.55351695       6.14173919       9.13772463
O        1.93330300       1.56730788       8.71650408
O        3.69887155       0.66318011       3.91527230
O        0.03010576       3.26123270       8.81121749
O        8.90427601       3.13715405       5.93665197
O        0.65606046       6.40767971       8.32702568
O        2.09320068       3.85073715       7.46653299
Li       8.67929033       2.95180696      10.32011959
Li       7.56184835       6.12168677       3.16358083
Li       8.98221221       4.85694821       8.26456501
Li       9.54265415       3.22813412       1.05465552
Li       4.76085457       8.46451469       7.29532080
Li       0.25955659       8.25368259       1.75715023
P        2.79774399       7.79670985       2.96973555
P        9.03074281       5.83666000      12.04052135
O        0.79815867       8.06137552       6.58955526
O        3.86352257       4.90735705       1.06174310
O        2.76104048       6.26905948       3.23128008
O        5.67209959       4.40767488      11.74584196
O        2.10416542       8.03765689       1.61375673
O        8.77169481       4.29655688      11.90100177
O        1.74093708      10.32166054      11.50993608
O        4.33633938       8.11465895       3.09047356
Li       1.23966833       3.83404955      11.53292011
Li       2.27672070       5.55513663       5.15513562
Li       7.96160040       1.20888704       5.10467885
Li       1.39871604       8.67535087      10.84748011
Li       0.60533097      10.08363933       5.93252695
Li       3.06681871       1.43031855      10.69573302
P        3.98557292       7.50682534       9.79230985
P        0.44382043       7.83706702       8.03527979
O        0.69884747       6.26640436      11.43003388
O        2.13643268       3.83977743       9.95570823
O        5.51295877       7.31809417      10.17456965
O        3.58437038       6.74038618       6.13642809
O        3.92937959       8.75196708       8.83990867
O        1.02150343       8.82379130       8.93220683
O        2.07478925       3.35278769       4.67667459
O        3.16497287       7.74721852      11.12696499
Li       3.88121584       3.66002850       4.26138367
Li       1.27447517       2.38863973       6.40984255
Li       6.57771037       3.51598994       5.76653091
Li       7.77510518       6.91010830       6.60775338
Li       2.41640985       5.79791119       7.61455125
Li       4.91880191       9.88280712       3.00203533
P        7.42337547       3.33454523       3.15221916
P        5.32736423       0.17881140       0.07430950
O        4.63091535       1.57871109       6.02085602
O        9.18851807      10.25550292       4.23891205
O        9.62242417       1.88501196      11.85080487
N        7.93881474       4.60013813       4.05226540
O        6.15633858       1.40820027       0.59098298
O        6.18725972       4.21279775       2.21646100
O        8.35984033       2.61577294       2.17187715
Li       1.72642017       5.95420007       9.87101391
Li       7.93663886       0.59721857       1.63762778
Li       2.31842686       6.47508862       0.49660467
Li       7.35693963       2.97997634       0.51528423
Li       0.55719138       0.65957482       9.84350021
Li       5.45758761       1.87521299       2.56238837
P        6.31351456       2.90516743       9.08222053
P        3.62569249       0.57174235       5.47239124
O        6.44474757       9.39553695      12.02298144
O        8.80904950       0.42598311       7.57779430
O        4.79535198       3.21116563       9.23028768
O        9.25715862       5.67591696       5.67606992
N        6.98316423       4.35740227       9.02718640
O        2.16042342       0.74316899       5.86248547
O        5.86593847       6.38504761       7.24603894
O        6.59595911       2.22000835       7.73108341
Li       5.18632152       5.02777248       8.44432140
Li       7.77382405       8.55086707      11.25586638
Li       5.64568833       9.47124597       9.50966711
Li       3.11113916       1.03596535       1.97387787
Li       4.14036642       3.03367216       7.25514896
Li       7.81977447       8.49707609       1.51795932
P        7.88087556       9.39105698       4.16499086
P        5.50274565       5.00499672       1.06213086
O        4.79563876       4.41796601       6.20717377
O        6.59970786       2.40807864       4.03444705
O        7.11358969       9.83092355       2.85530240
O        8.90634334       6.29869909       1.43146507
N        8.13437713       7.90929289       3.91424382
O        5.82005809       6.48548937       1.24904306
O        4.28041205      10.06112870       1.16495923
O        7.07824861       9.59879031       5.40172438
Li       5.10771402       7.72449820      12.08081001
Li       2.50946250      10.06381132       8.50567299
Li       7.87233237       0.51402522      11.35070607
Li       7.14302563       7.09050445       9.11119100
Li       6.84675388       5.28660759      10.70223955
P        8.07085125       9.68066768       8.29371223
P        4.94918236       5.99353680       6.08260075
O        7.09276026       2.22328699      10.23935057
N        8.44388075       8.11562109       8.04168124
O        6.47949354       9.77914057       8.01000606
O        5.78205435       6.48914827       4.86271813
O        4.13444042       9.49603984       5.85392511
O        8.31323697       9.82978967       9.84949607
124
Lattice="9.63908 0.0 0.0 0.0 10.3723 0.0 0.0 0.0 12.0957" Properties=species:S:1:pos:R:3 material=LiPON model=NEP89 temperature_K=600 phase="NVT production" display_name="LiPON｜NEP89｜600 K｜NVT production計算" report_figures="23_LiPON_lithium_MSD; 24_LiPON_transport_comparison; 25_LiPON_temperature_RDF" source_frame_index=2309 relative_time_ps=230.9 pbc="T T T"
Li       2.67855269       8.01082129       5.94832664
Li       4.40470411       6.59467063       2.82315773
Li       0.66707165       3.00955990       2.42226555
Li       0.61993885       7.19323931       5.11960528
Li       3.04527387       9.33988558       0.62001572
Li       5.72709906       0.30116271       6.49514611
P        3.36113266       3.50031629       1.19769667
P        0.68469316       0.70433555       0.35866731
N        1.03274826       4.04970189       4.08819858
O        1.53575091       8.43175868       4.19437786
O        1.89199254       3.97181221       1.35755375
O        4.86951132       0.83614530      10.71301266
O        3.90856288       3.11131094      11.96245595
O        9.30164497       9.92026511       0.56413378
O        8.31169119       6.85637320      11.45665104
O        3.74050253       2.43133159       2.38000291
Li       2.98037990       1.52338464      10.94512855
Li       1.25819007       0.15259022       3.73944212
Li       4.94214302       8.43250577       4.95670575
Li       1.06919470       5.39348536       2.54421990
Li       3.65405431       4.32570543      10.41498124
Li       8.42309048       2.13607599       7.50049807
P        1.79268767       3.13480326       8.76627776
P        9.26229349       4.27574176       4.91936073
O        1.22569339       1.15385054       1.71565311
O        3.25869131       6.30276601       9.30842089
O        2.48452959       1.77459878       9.13619348
O        3.03329506       0.43406477       4.15511377
O        0.24891487       2.96810547       8.48275138
O        9.15113883       2.95738616       5.62802236
O        0.38394105       6.29501217       8.67526853
O        2.27041693       3.71171651       7.32794797
Li       9.01808402       2.98288680      10.16490781
Li       7.00705002       6.34993327       3.64347535
Li       9.39565567       4.74985370       7.80839383
Li       8.35352279       3.07041871       0.37219048
Li       4.72427334       8.40757384       7.49636718
Li       0.09192993       8.63105217       2.63655641
P        2.46632836       7.88697315       3.05128947
P        9.28633617       6.11051627       0.29030003
O        0.78861496       7.93053084       6.85343984
O        4.10114716       4.95590647       1.37702940
O        2.51908878       6.33655702       3.18530715
O        6.07297413       4.59587596      11.88091834
O        1.90959332       8.23319241       1.70004257
O        9.07672362       4.62708345       0.11001338
O        1.93292694       0.19043418      11.58308783
O        3.92685445       8.32508628       3.19512330
Li       1.09919717       3.84496739      11.69130474
Li       2.14753371       5.24404291       4.94128559
Li       8.00349107       1.22782295       5.26535776
Li       1.29646623       8.06390272      11.26224302
Li       0.49692325       9.74022716       6.42407157
Li       2.26558648       9.34935824       8.11478008
P        4.02049483       7.41567189      10.04165417
P        0.19612108       7.77462857       8.33307688
O        1.11048517       6.31254621      11.98340575
O        1.94527014       4.15157980       9.90525962
O        5.54536914       7.00821521      10.12385003
O        3.31848634       6.29730761       6.06124250
O        3.89998579       8.62278491       9.07603212
O        0.97219108       8.63590158       9.34671758
O        2.05171101       3.33804921       4.20296487
O        3.42639549       7.66173261      11.45700482
Li       4.40875747       2.74579788       4.35953051
Li       0.94999596       2.37585100       6.81565840
Li       6.50730192       3.62242188       5.71995220
Li       7.81976159       7.15879553       6.62911387
Li       2.66138728       5.60391221       7.79610856
Li       5.09480635       9.09779918       2.29253102
P        7.35224539       3.20492054       3.24039069
P        5.47332341       0.24710732      12.04402468
O        4.17275970       1.50119985       5.99840125
O        8.85190978       9.90643501       3.80830484
O        0.03733791       1.83298691      11.54249996
N        7.88265617       4.48607871       4.09057890
O        6.58073140       1.33768867       0.40420923
O        6.07852835       3.71338911       2.33905776
O        8.43813099       2.52540583       2.35479768
Li       1.40970957       5.83474408      10.05308123
Li       8.06055203       0.61820118       1.78318572
Li       2.74321915       6.61018783       0.64927908
Li       5.75995919       2.75437998      11.43450907
Li       0.84093079       0.30120634       9.97088881
Li       5.53184943       1.80688761       2.07730763
P        6.56049843       3.60031805       8.67894893
P        3.24400153       0.35514738       5.60151567
O        6.21316135       9.31312541      11.71182102
O        8.71226339       0.16389247       7.42507867
O        5.00407772       3.84401715       8.71099067
O        9.28667967       5.55254875       5.87139102
N        7.34704353       5.00178710       8.70766791
O        1.90661341       0.56207197       6.45113057
O        5.58881083       6.48664338       7.04238226
O        6.71334061       2.81863763       7.37931356
Li       5.13415323       5.65681203       8.62371637
Li       8.10207062       9.12845261      11.41005743
Li       5.32802397       9.75935512       9.51818552
Li       2.99844911       0.74923264       1.97881934
Li       4.09303383       3.08388507       7.12247888
Li       7.40275703       7.74190280       1.33402134
P        7.60618609       9.05313619       4.05963035
P        5.78173702       4.92606983       1.23074009
O        4.75719456       4.30985852       5.71056101
O        6.76505751       2.17266062       4.19805134
O        7.04896796       9.10548306       2.62400009
O        9.09816238       6.53844887       1.77941297
N        8.07360395       7.64436136       4.56288625
O        5.96270500       6.44226603       1.53692497
O        4.51059753       0.00164860       1.16939762
O        6.55641451       9.63916695       5.01886308
Li       5.35350873       7.29589181      11.97218377
Li       4.79129209       1.65767908       8.97424240
Li       8.03367725       1.22762167      10.86298086
Li       7.39537543       7.20556334       9.53713151
Li       7.34352205       5.21619113      10.76791765
P        7.94000114       9.69351273       8.39508516
P        4.76040427       5.86816375       5.79422564
O        7.08934599       2.78489098       9.85536655
N        8.24122200       8.09308471       8.15221779
O        6.45247004       9.90857658       8.04672784
O        5.43521308       6.63105450       4.60199049
O        3.89192445       9.46417247       6.16295948
O        8.39592164      10.10020334       9.80273607
124
Lattice="9.63908 0.0 0.0 0.0 10.3723 0.0 0.0 0.0 12.0957" Properties=species:S:1:pos:R:3 material=LiPON model=NEP89 temperature_K=600 phase="NVT production" display_name="LiPON｜NEP89｜600 K｜NVT production計算" report_figures="23_LiPON_lithium_MSD; 24_LiPON_transport_comparison; 25_LiPON_temperature_RDF" source_frame_index=2339 relative_time_ps=233.9 pbc="T T T"
Li       2.04922293       7.69538071       5.72732130
Li       4.79509785       6.47055556       2.94937833
Li       0.43509658       3.15496842       2.33456312
Li       9.61463610       7.36678740       4.81517410
Li       2.64778592       9.34138079       0.88099140
Li       6.08862344       0.85759749       6.66444352
P        3.35697043       3.48578421       1.09070568
P        0.49453694       0.58396672       0.44312691
N        0.78959012       3.87155107       4.01921683
O        1.63094990       8.69152323       4.24337037
O        1.89344574       3.83176795       1.29544723
O        4.47992502       0.46045209      10.76482775
O        3.66138240       3.04931420      11.70809432
O        9.05120262       9.98177902       1.06908383
O        8.12232507       7.29530759      11.50830780
O        3.93370676       2.50943791       2.11357921
Li       2.63269685       1.43734986      11.13797833
Li       0.89470072      10.22051670       3.31450184
Li       4.69046554       8.45756011       5.01879871
Li       1.17362818       5.46262343       2.06572800
Li       3.42579613       4.33679223      10.44993854
Li       8.88666347       2.02110213       7.40274917
P        1.63788598       3.10870728       8.91962428
P        9.07025916       4.47284194       4.81942907
O        1.37063416       0.90057360       1.66722656
O        3.53801337       6.01916550       9.10195446
O        2.12739261       1.63980593       9.35244332
O        3.88379890       1.07736021       4.74240733
O        0.13739865       2.93742031       8.55706548
O        8.97869537       3.34911775       5.91415118
O        0.59086682       6.35510254       8.21385669
O        2.23492814       3.53901754       7.56158924
Li       9.16108235       1.86290457       9.87523060
Li       7.75231993       6.26276329       2.92840851
Li       9.13755019       4.81707034       7.95761234
Li       7.99052912       3.41743285       0.25428230
Li       5.30639628       8.75374848       7.52199638
Li       0.72162768       8.49287970      10.77653092
P        2.48951599       7.90940751       3.16500191
P        9.21166464       6.29338368      12.07578078
O        0.40200269       8.11710910       6.52623009
O        4.09770250       5.02816669       1.00775422
O        2.56901246       6.38163053       3.40615046
O        6.31144545       4.33556585      11.90011758
O        1.73088285       8.24805417       1.88538270
O        8.92269324       4.87595114      11.40238521
O        1.53580984      10.06839614      11.62084859
O        4.00978219       8.58852088       3.17067634
Li       0.80030172       3.52918119      11.82616889
Li       2.22813411       4.60594014       5.37500742
Li       8.29381638       1.80221872       4.35664285
Li       3.13148969       9.54269070      10.08248046
Li       0.29503079       9.97254462       5.82846892
Li       3.10989668       7.83195567       7.75532777
P        4.27356777       7.10210294       9.89837601
P        0.36618608       7.81772668       7.96240456
O        0.91729404       6.95288121      11.66034999
O        1.72681322       3.95952843      10.20861755
O        5.74493309       6.69803330      10.08802700
O        3.19217358       6.36620398       6.43739983
O        4.37064130       8.39508288       8.98372136
O        1.45560947       8.50223153       8.89685471
O        1.76039612       3.04663904       4.16817707
O        3.64336415       7.55199777      11.21484097
Li       4.55427588       3.33309147       4.15950481
Li       1.07947031       2.52278218       6.00332180
Li       6.68335743       3.83360584       5.85145609
Li       6.98838640       6.51778224       4.98903977
Li       2.54159954       5.40534252       7.84689025
Li       5.56738387       8.74640222       1.90114088
P        7.28947001       3.55159945       3.13485570
P        5.27643937       0.12978005       0.02901274
O        4.39677138       1.06486043       7.28924332
O        8.60627228       0.04589104       4.51615717
O        9.48152922       1.80487779      11.72428863
N        7.81772186       4.75671979       3.90249372
O        6.09845458       1.38850356       0.33664477
O        6.02993751       4.15252429       2.25605147
O        8.26080195       2.66769944       2.23318577
Li       1.30701711       5.94909540       9.95313406
Li       7.66614302       0.91236649       1.63712954
Li       2.55449045       6.57639395       0.19875880
Li       5.41276357       2.79050565      11.19160204
Li       1.20868797       0.14892420       8.65613449
Li       5.32487725       1.01100054       3.35778958
P        6.66091645       2.99389443       8.90155930
P        3.42188942       0.46739964       6.16612817
O        6.18496633       9.27055976      11.84545166
O        9.18953144       0.26407206       7.70366260
O        5.07731263       3.13965187       9.19735169
O        9.47919477       5.66341582       5.71679179
N        7.04812309       4.50582358       8.85612926
O        1.96824567       0.94479469       6.43295579
O        5.71719777       6.50879837       7.10952747
O        6.92568030       2.41773437       7.52781548
Li       5.27219330       5.17942160       8.65778491
Li       8.39335399       9.08016157      11.78953389
Li       5.72974074       9.33187408       9.86253723
Li       2.70613294       1.64126938       3.01786837
Li       4.12528199       2.83265611       7.07094104
Li       9.51707277       8.15795380       2.03778959
P        7.43551428       9.43407762       4.22523969
P        5.72387434       5.07794564       1.07199111
O        4.67437324       4.41399829       6.07983046
O        6.53223973       2.70960288       4.28019226
O        6.77858199       9.78551572       2.91980968
O        9.18027443       6.29951830       1.48267260
N        7.91888472       7.99727109       4.10666082
O        6.02328988       6.52463656       1.53619857
O        4.26069781      10.05246202       1.12584172
O        6.35580002       9.45537191       5.39589380
Li       6.32120695       7.36974796      11.78518851
Li       4.15674632       1.49809480       9.17513833
Li       7.51081522       0.85425634      11.23420083
Li       7.34702090       6.65494772       8.39543596
Li       7.00215672       5.35898207      10.48397249
P        8.22174069       9.82328499       8.53608480
P        4.69192956       5.97601403       6.10670330
O        7.27167543       2.31945454      10.12885337
N        8.55887162       8.16577823       8.51515905
O        6.78403926       9.78131090       8.16914986
O        5.16891800       6.54120642       4.70959382
O        3.65379344       9.25076964       6.34175662
O        8.48485040      10.23473459      10.00396222
124
Lattice="9.63908 0.0 0.0 0.0 10.3723 0.0 0.0 0.0 12.0957" Properties=species:S:1:pos:R:3 material=LiPON model=NEP89 temperature_K=600 phase="NVT production" display_name="LiPON｜NEP89｜600 K｜NVT production計算" report_figures="23_LiPON_lithium_MSD; 24_LiPON_transport_comparison; 25_LiPON_temperature_RDF" source_frame_index=2369 relative_time_ps=236.9 pbc="T T T"
Li       2.66046908       8.08386081       5.29218377
Li       4.55048586       6.65378097       2.98424334
Li       0.26344757       2.73960833       1.78375036
Li       0.25210253       7.13705430       4.66952709
Li       2.59233910       9.14595564       0.47968766
Li       5.89848766       0.64034163       6.78656934
P        3.16514877       3.61666037       1.34421065
P        0.51973392       0.69242242       0.43924347
N        0.92863887       4.41954404       4.33953585
O        1.58468019       9.19858343       3.75699497
O        1.69498939       4.05205627       1.44076739
O        4.37805647       0.43414033      10.71514418
O        3.61928759       3.11001580      12.00435063
O        9.03292953      10.01015922       0.67807424
O        8.02186670       7.02376500      11.30692223
O        3.73528623       2.56034498       2.28632716
Li       2.88111357       1.25136736      11.22963619
Li       0.91323683       0.53978886       3.42109774
Li       5.18549504       8.32919977       5.00185901
Li       0.92927266       5.35799691       2.79370610
Li       3.67528985       4.34910878      10.47395039
Li       8.83629118       1.98643868       7.43263864
P        1.71171246       2.98362976       8.83593429
P        9.01717242       4.28580924       5.15757948
O        1.26848637       0.95669131       1.73958691
O        3.41477423       5.94208246       9.42519953
O        2.40108960       1.63412031       9.18646620
O        3.67943141       0.71673716       4.38603184
O        0.18347397       2.87368071       8.75246946
O        9.00274323       2.92022267       5.88216153
O        0.82415818       6.26340058       8.33365728
O        2.21152245       3.60146809       7.53756956
Li       8.85526531       3.46003488      10.13191026
Li       6.95876966       6.20359005       3.54764619
Li       9.09450428       4.85405084       8.12821087
Li       7.87665990       3.36522078       0.18518273
Li       5.48976214       8.60788355       7.40206988
Li       0.75789066       8.52870102      10.90130614
P        2.35749701       8.10679781       2.95980479
P        9.13650605       6.12432183      11.96757189
O        0.75854318       7.91975593       6.26370823
O        4.09930453       5.13219659       1.30345408
O        2.27148811       6.81177117       3.78080660
O        6.22526245       4.27194384       0.15436816
O        1.65130871       7.79054958       1.60287607
O        8.90740141       4.72626594      11.37698951
O        1.54463615      10.31651660      11.56561592
O        3.83485718       8.29620889       2.75396125
Li       0.95093068       3.76847214      11.87267658
Li       2.03306673       5.44252425       5.28420499
Li       8.12000264       1.45370432       5.08224294
Li       3.29564517       9.87600387       9.51318740
Li       0.43489134       9.92627575       5.61301838
Li       3.18026396       8.19461346       7.64454497
P        4.21567519       7.12434359       9.98275442
P        0.51761712       7.70063677       7.74308771
O        0.81495773       6.69071744      11.53750399
O        1.83494344       4.02517231      10.00975679
O        5.68293351       6.76701581      10.29419202
O        3.40475043       6.45305475       6.48355147
O        4.32572887       8.35661081       9.11563950
O        1.47030207       8.67576616       8.41395203
O        1.87705909       3.64713089       4.13269577
O        3.53754497       7.48925335      11.35016386
Li       3.98678901       3.44301327       4.25754656
Li       1.39888362       2.77444756       5.78991550
Li       6.43841230       3.33288046       6.10254183
Li       7.99479637       7.10378332       6.26425077
Li       2.49259384       5.36300344       7.96621478
Li       5.32179066       8.81609513       1.64717429
P        7.26897383       3.47999563       3.30143393
P        5.16164706       0.12605331      11.95765983
O        4.31098676       1.44351425       6.67746102
O        8.86407602      10.24578214       4.13196517
O        9.52224711       1.96720539      11.91312257
N        8.11264840       4.64170466       3.83778595
O        5.85767284       1.38000355       0.36153955
O        5.92204113       4.28335861       2.67504210
O        8.13131060       2.86194866       2.21464535
Li       1.69390217       5.92014628      10.08985493
Li       7.28455424       0.67716932       1.46717387
Li       2.72636873       6.51178532       0.47447522
Li       5.43390495       2.73788261      11.38800872
Li       1.25108142       0.38414432       8.24976791
Li       5.41526954       0.89912876       3.81793607
P        6.57329417       3.24263315       9.11356131
P        3.36026336       0.41717152       5.85477984
O        6.09245750       9.27357003      11.95487031
O        8.84272264       0.16458741       7.48761259
O        5.00928399       3.38514588       9.39221781
O        8.80300535       5.45348749       6.12917799
N        7.28644979       4.65074854       8.95445821
O        1.83540153       0.72940250       5.99597128
O        5.79071653       6.49483780       7.36563422
O        6.89297997       2.54230802       7.82453852
Li       5.31593231       5.35494680       8.70851199
Li       7.92221434       9.28279534      11.61321401
Li       5.97431055       9.13181917      10.10708935
Li       3.04679859       0.53611774       2.06886396
Li       4.11704567       3.22470372       7.30330214
Li       9.25709666       8.10933161       1.99828207
P        7.64388213       9.22439144       4.09588079
P        5.69438437       5.08860306       1.30424575
O        4.86071583       4.52921821       6.13949120
O        6.64641730       2.43544813       4.33585547
O        6.56458597       9.56870391       3.04178199
O        9.03939473       6.09364946       1.39548390
N        8.23187530       7.85231769       3.74810063
O        6.16779929       6.51842115       1.55478544
O        4.14672774      10.17865667       0.99257522
O        7.04875226       9.29000759       5.51973707
Li       6.29965843       7.36308048       0.13329715
Li       4.47456044       1.58395174       9.23725160
Li       8.80615231       1.05165618      10.29888288
Li       7.55321341       6.82113080       9.16154260
Li       6.88736147       5.41287279      10.77463808
P        8.15380865       9.55953210       8.35210436
P        4.86664055       6.01164584       6.18257511
O        7.18992755       2.39764389      10.29881195
N        8.57849123       8.08553259       7.90117900
O        6.64976114       9.80543915       8.21705878
O        5.33501905       6.44775432       4.71603635
O        3.85634214       9.40488638       6.26671567
O        8.60700887       9.65069267       9.90603178
124
Lattice="9.63908 0.0 0.0 0.0 10.3723 0.0 0.0 0.0 12.0957" Properties=species:S:1:pos:R:3 material=LiPON model=NEP89 temperature_K=600 phase="NVT production" display_name="LiPON｜NEP89｜600 K｜NVT production計算" report_figures="23_LiPON_lithium_MSD; 24_LiPON_transport_comparison; 25_LiPON_temperature_RDF" source_frame_index=2399 relative_time_ps=239.9 pbc="T T T"
Li       2.38226534       7.85863217       5.80654193
Li       4.33059949       6.30212923       3.20936309
Li       0.94494924       2.68417703       2.67739393
Li       9.40459384       7.42573215       4.63844488
Li       2.61715364       9.03864483       0.31137845
Li       6.03946701       0.83629930       7.06029369
P        3.31719472       3.44969232       1.46783992
P        0.57767039       0.62764756       0.47929882
N        0.96123210       4.08542056       4.30232260
O        1.78871318       9.46421564       3.63984868
O        1.80657938       3.87609704       1.54140536
O        4.62577261       0.49187033      10.80550571
O        3.72975256       2.77684826       0.11681885
O        9.02878742      10.13382119       0.91322688
O        8.38544125       7.43031282      11.79334602
O        3.74231235       2.40684795       2.56356668
Li       2.71688071       1.50755770      11.07164097
Li       0.03765002       0.27012879       3.08287594
Li       4.63977014       8.71584135       4.68010205
Li       1.03784732       5.15440318       2.74399320
Li       3.88153764       4.23727404      10.43050709
Li       8.75898540       2.06093333       7.38563310
P        1.79008079       2.97800573       8.85644308
P        9.08517053       4.34375730       4.80738733
O        1.33340786       1.00654128       1.73065256
O        3.60440082       6.21183554       9.52571123
O        2.43081022       1.63571262       9.10257835
O        3.88944089       0.96715641       4.74071135
O        0.26340030       2.70287933       8.75215690
O        8.76644694       3.08444141       5.66661303
O        0.51814429       6.28859779       8.25414023
O        2.29372369       3.77243351       7.64663089
Li       9.20411087       4.02064445       9.92971056
Li       7.81952849       6.07441872       2.53786314
Li       9.09687735       4.53047569       7.50641173
Li       8.22038033       2.98168841      12.09442959
Li       5.48797975       8.54709912       6.97199313
Li       0.12931761       8.16867588      10.38638996
P        2.26341204       8.12648058       3.13556877
P        9.42615497       6.26280273      12.09043873
O        0.49751649       7.86386578       6.38312970
O        4.32162924       4.78802127       1.67156942
O        1.58805039       7.15502452       4.05494032
O        5.48991240       4.91158580      11.56565753
O        1.80181931       7.92313075       1.73011878
O        9.00420399       4.87544430      11.59962090
O        1.60945934      10.33374381      11.47461720
O        3.78269292       8.09272294       3.25093630
Li       1.08046810       3.81078273      11.82348360
Li       1.70712352       5.65402978       5.31872973
Li       7.81392383       1.24467663       4.97152081
Li       2.52932247       9.77348215       9.73428534
Li       0.27609249       9.82525682       5.63694314
Li       2.99225686       7.70439802       7.89403080
P        4.23975560       7.42037560      10.23809382
P        0.30003884       7.68417045       7.84930710
O        1.17735791       6.63722649      11.59633977
O        1.92883301       3.85275129      10.19329477
O        5.75325468       7.15838194      10.02425771
O        3.48397357       6.39374192       6.63378987
O        3.98949718       8.71177562       9.34764944
O        1.44674645       8.53191799       8.43901136
O        2.22195547       3.79712565       4.45392032
O        3.81736042       7.57369434      11.74785979
Li       4.07687401       3.13794268       4.46435031
Li       1.24648265       2.59641872       6.01208553
Li       6.46479168       3.17972789       6.08117588
Li       7.31991511       7.14246751       5.39965021
Li       2.67916092       5.58635959       7.89189103
Li       4.98640168       8.38716441       1.63007732
P        7.41518581       3.35964498       2.89236336
P        5.13113960       0.16220523       0.19810592
O        4.33713820       1.29610278       7.05982151
O        8.55374472      10.04090713       4.48302745
O        0.06256460       1.82211502      11.83747015
N        8.24158408       4.55541402       3.47769037
O        5.98046595       1.21977197       0.70427310
O        6.54893801       3.75404170       1.47743510
O        8.39123907       2.32218885       2.24279358
Li       1.63715598       5.95992636       9.99214656
Li       7.49469337       0.48813399       1.52414541
Li       2.49160072       6.55374839       0.73384420
Li       5.34052799       2.49405499      11.43815262
Li       1.09372358       0.29835543       7.96707780
Li       5.25082599       1.24473532       3.14476449
P        6.67388151       3.17568741       9.02917049
P        3.32049542       0.45527421       6.06634504
O        6.13890751       9.18130890       0.14959095
O        9.00916993       0.25391609       7.44977347
O        5.18690598       3.24470981       9.30068005
O        8.74818614       5.78982337       5.38534444
N        7.35837063       4.55486989       8.93979471
O        1.89855479       0.88926069       6.35871345
O        5.94592709       6.64760596       7.07929074
O        7.03631105       2.39229205       7.74072161
Li       5.26646646       5.50068575       8.67292134
Li       7.82586664       9.18841829      11.53710886
Li       5.66867307       9.59142712       9.95260476
Li       3.13577479       0.45471965       2.68721669
Li       4.16432667       2.95712971       7.45083786
Li       8.78694364       8.25665011       1.74037603
P        7.39198441       9.22805468       3.95329359
P        5.65436047       5.10451464       0.92127186
O        4.88408094       4.24176286       6.42738748
O        6.30391070       2.71834249       3.93213176
O        6.52584427       9.97994805       2.88014668
O        9.35957969       6.18889069       1.55172233
N        7.98996840       7.91453099       3.46371186
O        6.23834150       6.44427864       1.45772234
O        4.06484363       9.98578189       1.20179548
O        6.42138027       8.86425507       5.13580024
Li       6.40636425       7.48957467      11.86935342
Li       4.56427373       1.46110391       9.11174785
Li       9.04752257       1.33926955       9.88806767
Li       7.64677302       6.54671412       8.36764332
Li       7.32992337       5.69362537      10.86960789
P        8.10940754       9.68200995       8.32626727
P        4.89840594       5.83557530       6.15687244
O        7.35872450       2.56574601      10.32411916
N        8.49546499       8.11009601       8.49024073
O        6.58699880       9.71661764       7.92328603
O        5.34693803       6.22344392       4.79422736
O        3.45757991       9.31756282       6.42347949
O        8.21741941      10.18507524       9.77763172
124
Lattice="9.63908 0.0 0.0 0.0 10.3723 0.0 0.0 0.0 12.0957" Properties=species:S:1:pos:R:3 material=LiPON model=NEP89 temperature_K=600 phase="NVT production" display_name="LiPON｜NEP89｜600 K｜NVT production計算" report_figures="23_LiPON_lithium_MSD; 24_LiPON_transport_comparison; 25_LiPON_temperature_RDF" source_frame_index=2429 relative_time_ps=242.9 pbc="T T T"
Li       2.25047323       8.60983863       5.24600473
Li       3.93243550       6.06026165       3.36116151
Li       0.59628644       3.05448347       1.94830024
Li       0.04221581       7.28012696       4.89515905
Li       3.06173339       9.26055033       0.71231579
Li       6.23987520       0.79631319       7.35897498
P        3.14317224       3.58759734       1.34068259
P        0.72251780       0.53849822       0.28526579
N        0.85329570       4.12229338       4.33671168
O        1.90894648       9.50015639       3.51387295
O        1.79470458       4.35153027       1.15475236
O        4.64019996       0.58401087      10.84695217
O        3.71203525       2.93725555      12.07114698
O        9.05465738      10.00117174       0.72976239
O        7.90207079       7.07857795      11.59810180
O        3.43900001       2.64921192       2.47551378
Li       2.97413768       1.57467945      11.14864470
Li       0.65204019       0.33480696       3.21653225
Li       4.98076980       8.29149513       4.98928225
Li       1.32428539       5.37662544       2.79069392
Li       3.64903409       4.22992283      10.51491677
Li       8.64657884       2.12559664       7.63516420
P        1.66278917       2.85259356       8.94695402
P        8.96585271       4.24756985       4.85879213
O        1.37741090       1.10123107       1.55471840
O        3.51372456       6.01079488       9.58877567
O        2.36516615       1.54671411       9.31263502
O        4.02054953       1.18347841       4.66376744
O        0.08917896       2.51103376       8.78229594
O        8.90640884       2.89356445       5.67908521
O        0.56087717       6.27145598       8.28244376
O        2.17848942       3.41188689       7.62212388
Li       9.10393506       4.15057894       9.78349054
Li       7.53187282       6.31782265       3.08195127
Li       8.69688147       4.93469930       7.45298929
Li       8.25699513       2.58815019       0.25501021
Li       5.26464402       8.38547725       7.51721853
Li       0.91929943       8.52429986      10.88110652
P        2.39060582       8.15941688       2.91131643
P        9.05968424       6.15289334       0.01705104
O        0.72304318       8.15886785       6.40727411
O        4.16805319       4.76957299       1.73953293
O        1.83573267       6.85510135       3.75890733
O        5.67736664       5.02066414      11.76272997
O        1.74957451       7.96812579       1.54408158
O        8.66186332       4.60364511      11.83163355
O        1.69633324      10.07867473      11.51273982
O        3.98756786       8.04090123       2.87305020
Li       0.87392665       4.04078170      11.66282595
Li       1.59755358       5.53695686       5.44647309
Li       8.01206442       1.31735508       5.34735412
Li       3.23075956       9.67407728      10.59725613
Li       0.33523793      10.16008790       5.80908174
Li       2.90926601       8.32182296       7.60971271
P        4.21439601       7.39091826      10.04158113
P        0.37615934       7.79828055       7.87809420
O        0.77463983       6.51710685      11.40537160
O        1.70818916       3.96597787      10.05470574
O        5.73794440       7.11455135      10.05470154
O        3.33335027       6.23268098       6.49451237
O        4.02862377       8.50956314       8.99191685
O        1.27526687       8.62734199       8.84511674
O        2.14516538       4.13126521       4.35966692
O        3.60347028       7.98681237      11.41454838
Li       4.08692069       3.17809261       4.15652872
Li       1.50196669       2.65427913       6.01444699
Li       6.32393036       3.24779127       5.88393144
Li       7.38422472       7.19028949       6.07262727
Li       2.53461782       5.34178571       7.90841803
Li       5.55041536       8.40705490       2.13456960
P        7.33719154       3.18596080       3.13653109
P        5.43325471       0.20841193       0.09210273
O        4.26206272       1.29907556       7.11426088
O        8.64304472      10.27856183       4.37516124
O        0.17935575       1.77711585      11.62402791
N        8.01905943       4.50501938       3.57639958
O        6.40811762       1.26763459       0.31970001
O        6.40547019       3.64019106       1.73723259
O        8.42979592       2.19643582       2.50320087
Li       1.59361257       5.66766339       9.99337221
Li       7.73038075       0.56712914       1.82522548
Li       2.47122800       6.75272502       0.54902801
Li       5.67572526       3.01625922      11.65572831
Li       1.33570049       0.26899441       8.09950759
Li       5.48035033       0.68900013       3.30667727
P        6.52420135       3.37364109       8.87955440
P        3.50282538       0.46955149       5.96457321
O        6.11679088       9.15656655      12.00628456
O        8.79271600       0.23936870       7.63251533
O        4.94412569       3.49253255       9.12057976
O        9.05502287       5.55709022       5.69114788
N        7.37139438       4.66081757       8.99118561
O        1.93072177       0.49333426       6.09750659
O        5.80721684       6.50958367       7.16714206
O        6.78923134       2.57489175       7.62358627
Li       5.36478556       5.52416751       8.76853650
Li       7.96407926       9.02158563      11.51866494
Li       5.70795042       9.24243866       9.87817261
Li       3.09159426       0.79195395       2.46303994
Li       4.07958152       3.33691814       7.19436851
Li       9.44884797       8.27786061       2.15704180
P        7.62310905       9.23774412       4.05768059
P        5.66510812       4.95979156       1.24832833
O        4.83451201       4.36345732       6.01923233
O        6.34871186       2.71092440       4.13055686
O        6.71769434       9.67374770       2.89660482
O        9.10162836       6.17985966       1.59733831
N        8.34945520       7.84809044       3.59933330
O        6.20866311       6.22879507       1.80295984
O        4.38042938       0.09426461       1.23660036
O        6.65160438       8.98237705       5.22782016
Li       6.05854341       7.30199493      11.88128008
Li       4.15839252       1.50379071       8.98162800
Li       8.68658420       1.50050585       9.99943646
Li       7.10310044       6.89195524       9.02265787
Li       7.06656526       5.11745149      10.73681867
P        8.20463232       9.54677545       8.49953795
P        4.79279562       5.91595318       6.09993499
O        6.95392963       2.60174347      10.08915093
N        8.49126502       8.12803156       8.15417058
O        6.66325032       9.56740500       8.39192863
O        5.14038490       6.50893203       4.73905491
O        3.87076053       9.25869518       6.14481821
O        8.55178676       9.91444734      10.00328241
124
Lattice="9.63908 0.0 0.0 0.0 10.3723 0.0 0.0 0.0 12.0957" Properties=species:S:1:pos:R:3 material=LiPON model=NEP89 temperature_K=600 phase="NVT production" display_name="LiPON｜NEP89｜600 K｜NVT production計算" report_figures="23_LiPON_lithium_MSD; 24_LiPON_transport_comparison; 25_LiPON_temperature_RDF" source_frame_index=2459 relative_time_ps=245.9 pbc="T T T"
Li       2.41902113       8.33495716       5.54400383
Li       3.88360591       6.01161813       3.48432982
Li       0.69298111       2.98018119       2.45919774
Li       0.10247771       7.27596666       4.47287067
Li       2.86242240       8.88369757       0.39604443
Li       5.85652573       1.04458572       7.49066864
P        3.42465439       3.32965430       1.34162957
P        0.70251678       0.45632074       0.53182623
N        0.96833878       4.09543385       4.42068272
O        1.53096688       9.16192822       3.43600316
O        1.90392632       3.79700402       1.37728071
O        4.77563739       0.81696327      10.83164646
O        3.81105657       2.87111809      12.07116490
O        9.21363968       9.81745485       0.96835021
O        7.92460090       7.26187885      11.47667634
O        3.81254689       2.18905014       2.34158127
Li       3.05953601       1.24132621      11.30790102
Li       0.86450718       0.69721201       3.36598641
Li       5.04277847       8.41587497       4.65688138
Li       1.24002789       5.13939018       2.74794591
Li       4.01018569       4.49419095      10.50315209
Li       8.63905938       2.28898515       7.29326312
P        1.62612336       3.02583494       8.96343929
P        9.01126999       4.36540612       4.84016840
O        1.38935463       1.09234936       1.84197527
O        3.55259664       6.38050286       9.32310073
O        2.17237334       1.62642477       9.35048221
O        3.72269564       0.51070627       4.28787809
O        0.22667547       2.89183618       8.54532052
O        8.77223057       3.12792745       5.72048644
O        0.55423960       6.25036620       8.17809096
O        2.37993838       3.71698408       7.77788974
Li       9.13011728       4.12621512       9.92932216
Li       7.10119341       5.97013411       3.57599349
Li       8.28664047       5.25794221       7.38680636
Li       7.97201203       2.00943769       0.09466797
Li       5.91051167       8.48353163       7.11157865
Li       0.14234772       8.03669933       2.11380100
P        2.31168557       7.89019823       3.05996077
P        9.18227896       6.44155248      11.98477982
O        0.66586161       7.95847479       6.20940183
O        4.23996395       4.83532572       1.92362654
O        1.72272792       6.59509535       3.77608267
O        5.38991274       5.22612468      11.75628279
O        2.17635139       7.73522253       1.53955492
O        9.06867037       4.94158685      11.64951348
O        1.76639385      10.13899330      11.69057521
O        3.81927667       7.94765449       3.33913375
Li       1.09004242       3.36868663      11.86556224
Li       1.92256987       5.46149243       5.46380404
Li       8.20712768       1.47282963       4.70919743
Li       0.91618611       9.03527694      10.41177327
Li       0.09057534       9.98298106       5.82320880
Li       3.43602557       8.34392677       7.66741964
P        4.22213318       7.59433900      10.14087344
P        0.33364142       7.77660055       7.70349715
O        0.92622121       6.97712120      11.40693376
O        1.77235081       4.05882674      10.16310051
O        5.70012395       7.54236886       9.81431422
O        3.55646696       6.53424189       6.56722208
O        3.70413912       8.95839665       9.52915408
O        1.24520174       8.57353332       8.63666536
O        2.04478028       3.40784483       4.64946145
O        3.92872345       7.52998724      11.65171910
Li       3.84594700       2.81260926       3.96339023
Li       1.24513053       2.60865826       6.28667462
Li       6.14230956       3.09134409       5.93923512
Li       7.72584647       7.56911556       6.28228652
Li       2.42587752       5.65464006       7.94175495
Li       4.91189688       8.65842389       1.93460007
P        7.33497680       3.33107790       2.82356573
P        5.26685013       0.20546260       0.19791849
O        4.23638923       1.36556023       6.57826125
O        8.64876385      10.19013505       4.23226266
O        0.16623101       1.68738730      11.71662502
N        8.11667477       4.55823041       3.53014457
O        6.07134075       1.36931370       0.86510629
O        6.62368925       4.16047650       1.58184378
O        8.22857950       2.33678285       2.17123985
Li       1.66638804       5.90945441      10.08994318
Li       7.47539779       0.27023990       1.70822587
Li       3.13927665       6.32071313       0.76200845
Li       5.44076675       2.38760392      11.21326019
Li       1.19995393       0.19338367       7.87913038
Li       5.41272852       1.04358718       2.52233538
P        6.75079670       3.26426764       9.06536485
P        3.46414992       0.32278897       5.77950535
O        6.34593454       9.55799106      11.94996650
O        8.81305864       0.36994202       7.40431733
O        5.19775398       3.37127403       9.32046922
O        8.97088110       5.61814111       5.61840867
N        7.24084410       4.78063556       9.04814029
O        1.93926513       0.51001981       6.13274237
O        6.04060695       6.53490511       7.07643639
O        6.90431750       2.35681946       7.82873647
Li       5.38177418       5.54984765       8.68928711
Li       8.16316277       9.05183355      11.42464911
Li       5.84524583       9.74332810       9.97065325
Li       2.83928094       0.03753226       2.60514781
Li       3.96682502       2.94536813       7.54880343
Li       7.45134061       7.79820268       1.77382741
P        7.61605594       9.09295296       4.02325951
P        5.59217908       5.32850944       1.13542566
O        4.95960595       4.45992305       6.46246438
O        6.46613408       2.66038377       3.86728639
O        6.61137574       9.42761629       2.88269127
O        9.10528480       6.51256579       1.43937441
N        8.20428246       7.77347824       3.57609505
O        5.93181667       6.73948403       1.57802800
O        4.09745371      10.05433619       1.08254709
O        6.81848328       8.86629148       5.30392918
Li       6.21375287       7.76670418      11.71970626
Li       3.38066760       0.34739629       9.01466947
Li       9.02100743       1.55990408       9.86572733
Li       7.35809568       6.99871297       9.25025966
Li       7.05347335       4.94899046      10.91884695
P        8.12656828       9.67900181       8.32064307
P        4.98103965       5.98478245       6.14471818
O        7.28466235       2.77177741      10.48677246
N        8.45366002       8.13035940       7.97724005
O        6.58698535       9.78218952       8.18242637
O        5.31209093       6.14157683       4.63915581
O        4.03589792       9.27092991       6.10900824
O        8.63868013      10.09008397       9.75997777
124
Lattice="9.63908 0.0 0.0 0.0 10.3723 0.0 0.0 0.0 12.0957" Properties=species:S:1:pos:R:3 material=LiPON model=NEP89 temperature_K=600 phase="NVT production" display_name="LiPON｜NEP89｜600 K｜NVT production計算" report_figures="23_LiPON_lithium_MSD; 24_LiPON_transport_comparison; 25_LiPON_temperature_RDF" source_frame_index=2489 relative_time_ps=248.9 pbc="T T T"
Li       2.27663152       7.84432074       5.63655349
Li       4.45995166       6.74866259       2.70331422
Li       0.81028861       3.01955758       2.15551039
Li       0.02092418       7.42271271       4.72397995
Li       3.04217022       9.03847442       0.41838138
Li       6.14412836       0.72615611       7.16586994
P        3.30960974       3.77417397       1.24368042
P        0.59816835       0.59671006       0.41473683
N        1.11742045       4.13788303       4.16282166
O        1.74333037       9.75782096       3.39963293
O        1.83818211       4.34115231       1.18194040
O        4.74621217       0.67567106      10.75111785
O        3.60265483       3.10902014      12.01595643
O        9.12513661       9.92408216       0.81816493
O        8.16625115       7.18475282      11.51985719
O        3.62908156       2.83975934       2.54469854
Li       2.95899443       1.40871409      10.92159023
Li       0.24903556       0.89729571       3.16078046
Li       4.79472290       8.26950266       5.10649580
Li       1.14344116       5.63369994       2.72746376
Li       3.81741571       4.31827530      10.24035197
Li       8.76999613       1.82547590       7.15365661
P        1.68744051       2.81334480       8.71465238
P        9.21132647       4.09729430       4.81189376
O        1.23331073       1.32770189       1.65857634
O        3.39888050       6.07629543       9.71948792
O        2.33934804       1.49605864       9.10876988
O        3.87224858       0.46736207       4.73548537
O        0.26837205       2.66573901       8.28250629
O        9.01265544       2.60173625       5.37296174
O        0.48497929       6.22195169       8.22848910
O        2.52066226       3.26227435       7.50204878
Li       9.12363503       4.12740135       9.86738867
Li       6.65719179       6.19577252       3.66911704
Li       9.01849814       4.50504575       7.65084796
Li       8.35471123       3.05430870       0.11013562
Li       5.30644358       8.01349737       7.87463306
Li       0.29030235       8.33587135       1.12335529
P        2.40299973       8.38460551       3.10890651
P        9.40020637       6.27623905       0.05054991
O        0.67860529       7.92757700       6.41042335
O        4.16771069       5.19125719       1.39514450
O        1.71226067       7.25310142       3.88926829
O        5.71518521       4.95969449      11.56184579
O        2.14212943       8.11744804       1.65064423
O        9.17036905       4.79896549      11.74759986
O        1.69582225      10.18544087      11.80846908
O        3.90390736       8.41181385       3.50870899
Li       1.25252936       3.15776654      11.41396464
Li       1.68141180       5.44928778       5.95047328
Li       7.83844030       1.21889380       4.71107692
Li       1.56174775       8.87602972      10.52595596
Li       0.39979313       9.73125044       5.84763958
Li       2.92292566       8.15447467       8.03050570
P        4.19650393       7.30579096      10.23413137
P        0.32231138       7.68263145       7.88436146
O        1.05779351       6.87913014      11.55042024
O        1.77182286       3.92983243       9.78420421
O        5.68917879       7.03879601       9.85661108
O        3.22934148       5.98957333       6.54898974
O        3.84194233       8.70799530       9.59902177
O        1.21369974       8.60375887       8.70537919
O        2.23873337       3.79212688       4.49588691
O        4.01061156       7.37345045      11.74007774
Li       4.08370143       3.49355279       4.16515554
Li       1.45786379       2.24293759       5.71475057
Li       6.74574883       3.18601340       5.91575014
Li       7.68815430       7.16764107       6.38838949
Li       2.31525348       5.28136762       8.09546545
Li       5.50516735       0.52326780       3.69471047
P        7.42783894       3.29983893       2.99196291
P        5.35564330       0.16452664      12.07914998
O        4.23525234       0.88615100       7.14395514
O        8.74813168       9.91851423       4.16592749
O        0.02425427       1.69160165      11.64933663
N        7.95022265       4.50244125       3.88836658
O        6.25664721       1.46321067       0.50803089
O        6.32397132       3.92045537       1.84053985
O        8.58033691       2.70165413       2.13965982
Li       1.69475565       5.73999319      10.18661256
Li       7.34454212       0.10094067       1.19623628
Li       2.58091371       6.65548077       0.67260630
Li       5.38130709       2.90930043      11.31107344
Li       1.22714307       0.20741045       8.06422775
Li       5.27233662       2.26860944       1.80863825
P        6.78893774       3.22736505       8.91086222
P        3.37430474       0.05945386       6.17027878
O        6.17084094       9.23834082      11.93759602
O        8.57968940      10.34271380       7.13898441
O        5.22343268       3.43559139       9.02410181
O        9.28477660       5.33702802       5.72490453
N        7.49710110       4.70160815       8.88452455
O        1.87009524       0.61541876       6.34808870
O        5.79491020       6.51973292       7.02308023
O        7.06568296       2.47503250       7.56098204
Li       5.22522739       5.38334370       8.46876980
Li       8.16346452       9.37047491      11.49644279
Li       6.02224232       8.96894745      10.03310120
Li       3.01293278       0.61686973       2.53790367
Li       4.43985478       2.88053805       7.24927324
Li       7.70688711       7.44559356       1.45605307
P        7.38795308       9.18987968       3.99803309
P        5.74442798       5.19095067       0.95436429
O        4.90025524       4.13329700       6.09629525
O        6.63720110       2.22120270       3.75380311
O        6.79882473       9.55817159       2.57580829
O        9.29038976       6.58445558       1.52304960
N        7.69668123       7.67274111       3.90324026
O        6.25126021       6.48798618       1.67948654
O        4.29766938       0.01681303       1.13813011
O        6.32528200       9.48880332       5.06314855
Li       5.28430343       8.91022652       2.10392364
Li       3.94473912       0.57260489       8.94373563
Li       9.09088423       1.74245904       9.87471891
Li       7.56238086       6.36048389      10.06236525
Li       6.02758788       7.54209494      12.04842347
P        7.99754212       9.53662804       8.30859561
P        4.71787484       5.70825695       6.03711343
O        7.30194043       2.74918922      10.31036653
N        8.44234266       7.98697786       8.02752949
O        6.40612213       9.57905331       8.43865360
O        4.78308985       6.31062868       4.61903017
O        3.69688817       8.89534645       6.47426953
O        8.51585113      10.07583509       9.70613285
124
Lattice="9.63908 0.0 0.0 0.0 10.3723 0.0 0.0 0.0 12.0957" Properties=species:S:1:pos:R:3 material=LiPON model=NEP89 temperature_K=600 phase="NVT production" display_name="LiPON｜NEP89｜600 K｜NVT production計算" report_figures="23_LiPON_lithium_MSD; 24_LiPON_transport_comparison; 25_LiPON_temperature_RDF" source_frame_index=2519 relative_time_ps=251.9 pbc="T T T"
Li       2.30929788       7.74623698       5.38895744
Li       4.10459197       6.10239356       3.00062681
Li       0.86480955       2.58103793       2.30231856
Li       9.42752792       6.84973124       3.86509318
Li       3.05894547       9.57100327      12.07106871
Li       6.58912809       0.93869428       6.84326427
P        3.35569933       3.43876659       1.28376905
P        0.52526786       0.47330861       0.45572925
N        0.83550396       4.49552679       4.64422348
O        1.91370266       9.36538463       3.69911060
O        1.81468681       3.98106679       1.36392865
O        4.55237172       0.17345659      10.98123086
O        3.89377186       2.77531978      12.08948734
O        9.11333729       9.71684297       0.76414552
O        8.20278461       6.95393949      11.49892096
O        3.61304504       2.54949255       2.56437191
Li       3.26322119       1.67765911      10.67879369
Li       0.50749914       0.15247770       3.24501877
Li       5.02823607       8.20845325       4.56460290
Li       1.23844885       5.28517899       2.66551807
Li       4.02181605       4.34270534      10.49417066
Li       8.69426579       2.28537008       7.47373435
P        1.60141064       3.05003626       8.80861321
P        8.91625296       4.19903171       5.04273401
O        1.27481832       0.87408235       1.80286310
O        3.59554187       5.96057185       9.30921268
O        2.01172998       1.65388689       9.10575613
O        4.04065877       0.65869921       4.59557863
O        0.04868863       3.13869990       8.72761298
O        8.90537801       2.81271332       5.47141560
O        0.65850678       6.33942034       8.20524478
O        2.24854969       3.53155720       7.55176285
Li       8.71412243       3.59930705      10.39699986
Li       7.01104310       6.24862139       3.69977918
Li       9.07916846       4.88060706       8.12586412
Li       8.31093226       3.25666401       0.57508595
Li       5.76248867       8.47118076       6.73155556
Li       9.50011149       8.24520025       1.77469521
P        2.45855706       8.18791534       2.78470527
P        9.39846622       6.24183155      12.05542639
O        0.47228987       7.93460629       6.19731607
O        4.19670372       4.83892389       1.53304668
O        1.85166493       6.75553324       3.34500869
O        5.82172571       4.95683264      11.55530983
O        2.29452080       8.35843344       1.31417726
O        9.12321148       4.73258707      11.96506460
O        1.43809712       0.00178049      11.38745996
O        4.00111499       8.15100151       2.94109943
Li       1.17646499       3.53501849      11.75988650
Li       1.02308669       5.84251488       6.14869048
Li       7.71359813       1.53125542       4.70287590
Li       0.89323478       8.67988265      10.44497483
Li       0.38522596       9.80486812       5.83402610
Li       3.09346741       7.70099444       7.61825984
P        4.17236699       7.29756661       9.92881538
P        0.32985147       7.78829693       7.74145373
O        1.17565823       6.51069818      11.49156429
O        1.97555460       3.90859536      10.10072922
O        5.76432246       7.32873767       9.72903347
O        3.31214270       6.34059914       6.25457374
O        3.79139153       8.58012767       9.05415681
O        1.52479882       8.60041793       8.34695700
O        1.96748334       3.99740911       4.56809741
O        3.63809482       7.61074371      11.37131983
Li       4.53773306       3.48941769       4.14460309
Li       1.42457076       2.27918860       5.84880190
Li       6.59204626       3.74113384       6.18958558
Li       7.83633893       6.74734554       6.67998341
Li       2.40648603       5.34800765       7.95702817
Li       4.86693863       9.82961523       3.15069519
P        7.37002447       3.40882644       3.06792777
P        5.40181919      10.35232754       0.19561872
O        4.54761991       0.88179843       7.23134042
O        8.85985513      10.14604014       4.50999056
O        9.57026679       1.75704907      11.94094432
N        7.93236787       4.60511400       3.89409528
O        6.30733588       1.19922753       0.42300001
O        6.81045432       4.13786890       1.67138790
O        8.58508028       2.53433470       2.62016814
Li       1.45254915       5.73936885       9.71688262
Li       7.91403851       0.50895604       1.58363222
Li       2.55474603       6.56923484       0.50485420
Li       5.83100897       2.87289845      11.77064155
Li       0.41753997       0.89342579       9.79551182
Li       5.32067953       1.65902194       2.18427349
P        6.51067906       3.46949844       9.23090037
P        3.74740954       0.19599168       6.05925190
O        6.28049863       9.04440679       0.05210418
O        9.23881726       0.18165794       7.61016937
O        4.95138373       3.49778968       9.13561191
O        8.80403751       5.25518569       6.25360836
N        7.25704082       4.82501547       9.33452223
O        2.27694790       0.58635467       6.41130181
O        5.82854260       6.40777221       6.85400883
O        6.92929681       2.85053365       7.87848278
Li       5.24274284       5.58411396       8.47606536
Li       8.07826339       8.97212258      11.60058421
Li       5.09505767       0.03316678       9.02648307
Li       3.06517047       0.62051192       2.68206354
Li       4.15428208       2.85087065       7.55095093
Li       6.82256647       8.19697144       1.69036007
P        7.72006566       9.18110755       3.99350303
P        5.72024961       5.13912614       0.98600527
O        4.77103054       4.31501429       5.85408006
O        6.22016460       2.66609779       3.81095520
O        6.78146937       9.98446173       3.09287790
O        9.56518791       6.47756479       1.45047003
N        8.11476519       7.95910582       3.06530202
O        6.28604400       6.48928759       1.43246201
O        4.52161400      10.23363282       1.45879733
O        6.87993663       8.54147190       5.21646322
Li       4.57469073       8.28855940       1.07575646
Li       1.80761814       0.08580523       8.50657899
Li       7.81451178       0.96782080      11.21845983
Li       7.48536722       7.16909672       9.28072809
Li       6.46984862       7.09184668      11.46263440
P        8.16889384       9.74581910       8.37501792
P        4.79567428       5.84695425       5.80551519
O        7.08754491       2.53688120      10.33864652
N        8.49496845       8.23373857       8.10235034
O        6.70885571       9.97030767       7.97578591
O        5.20016290       6.13612047       4.40292224
O        3.82985231       9.00841688       6.21674021
O        8.46404380      10.02752690       9.87832131
124
Lattice="9.63908 0.0 0.0 0.0 10.3723 0.0 0.0 0.0 12.0957" Properties=species:S:1:pos:R:3 material=LiPON model=NEP89 temperature_K=600 phase="NVT production" display_name="LiPON｜NEP89｜600 K｜NVT production計算" report_figures="23_LiPON_lithium_MSD; 24_LiPON_transport_comparison; 25_LiPON_temperature_RDF" source_frame_index=2549 relative_time_ps=254.9 pbc="T T T"
Li       2.58767205       7.89403614       7.02704812
Li       4.59461887       6.37009370       2.85228276
Li       0.83566938       2.83680836       2.38925184
Li       9.63873975       7.53553191       5.12400951
Li       3.41465904       8.91682376       0.43097098
Li       6.09536864       0.45694615       6.28819908
P        3.44169217       3.71307343       1.07728643
P        0.72628731       0.45710456       0.52252745
N        0.84881435       3.84360506       4.25788399
O        1.59154430       8.51375142       3.97731037
O        1.93496652       3.86112316       1.18631464
O        4.61066405       0.42041200      11.06502325
O        3.69550864       2.96541241      11.82304361
O        9.40462825       9.62980216       0.84052524
O        8.28801716       6.69438857      11.21280012
O        3.96191146       2.95951498       2.34427403
Li       2.91852033       1.30494253      11.27461064
Li       0.96884512      10.10533978       3.54834991
Li       4.90690991       8.28672882       5.18433746
Li       0.93061876       5.27542788       2.53711224
Li       3.56961482       4.09943050      10.33534412
Li       8.77022126       2.10984712       7.51193728
P        1.60208691       2.74020382       8.93788651
P        9.15146759       4.25436377       5.10316784
O        1.42320031       0.77469855       1.85909423
O        3.34086677       6.29002147       9.21603785
O        2.50850842       1.53361795       9.18640094
O        4.30588589       0.66099573       4.20510268
O        0.08787623       2.33347359       8.97729022
O        8.81477810       2.88302442       5.90738532
O        0.07801847       6.31739435       8.58122932
O        2.02665334       3.32718554       7.55744308
Li       7.59528315       5.06865458      10.57919253
Li       7.65298577       6.25152121       2.63803054
Li       8.96382011       4.60100883       8.47743400
Li       8.07048664       3.18282477       0.42562131
Li       6.52774332       8.08017757       7.05556554
Li       0.94009226       8.60858066      11.57632892
P        2.55351845       7.81958192       2.95565591
P        9.31332785       6.02221417      12.05521828
O        0.77559945       8.02816957       6.88301728
O        4.20167727       5.21376188       0.84702107
O        2.71136332       6.22672571       3.23886407
O        6.46947913       4.33440595      11.98229381
O        1.96953691       8.12199276       1.51532707
O        9.25651862       4.46785101      11.63153638
O        1.76911192      10.31655334      11.50416245
O        4.04245473       8.16231908       3.07509029
Li       1.21022790       3.18692375      11.59229400
Li       2.25747741       5.51187393       4.85424531
Li       7.99635188       1.50673461       4.93270614
Li       2.46863780       9.94586643       9.58137479
Li       0.53112875       9.91522423       6.00411402
Li       4.42688907       9.47687223       7.72117610
P        4.23635341       7.38754414       9.96377290
P        0.07654311       7.83969002       8.32070647
O        1.06891979       6.55961085      11.68735268
O        1.88092729       3.92117848       9.88521292
O        5.73147734       7.12282294       9.97168432
O        3.53109835       6.30337017       6.45134156
O        3.99318332       8.78860344       9.22616916
O        0.86903147       8.59101337       9.35156625
O        2.12067968       3.74711308       4.40102045
O        3.76547082       7.38631179      11.43990509
Li       4.67666216       3.71758640       4.08788659
Li       1.43801005       2.52931573       5.94488195
Li       6.71285115       3.43280253       5.60382601
Li       7.43154208       6.28893641       5.08353170
Li       2.82324466       4.96446505       8.04864833
Li       5.06944265       9.77079218       3.08211490
P        7.42910165       3.58194806       3.15256379
P        5.40057077       0.21885497       0.27734027
O        3.94935495       1.23216259       6.63022354
O        8.77040082      10.24528438       4.49678963
O        9.46893705       1.57053756      12.06149540
N        7.91214620       4.63378523       4.23922437
O        6.42191599       1.35658663       0.64887831
O        6.04784002       4.32682446       2.33891451
O        8.41067872       2.80290446       2.15260151
Li       1.37884028       5.92100671       9.93581892
Li       8.06814570       0.79136522       1.25965148
Li       2.56772267       6.32003922       0.83049849
Li       5.76769222       2.71448550      11.43458558
Li       8.58119746       1.81586444      10.33114887
Li       5.37789680       1.74204926       2.90260649
P        6.41574830       3.26099934       8.69703772
P        3.35985728       0.34251720       5.42764875
O        6.27868407       9.31764604       0.02833142
O        8.44208540       0.42335408       7.26317578
O        4.94548036       3.67700011       8.95999859
O        9.52117249       5.40683998       5.98871103
N        7.10854575       4.59139283       8.93361434
O        1.87789035       0.54360099       5.24528785
O        5.99051291       6.20644079       7.19629965
O        6.68239313       2.64724861       7.28999337
Li       5.30845062       5.58646414       8.85181663
Li       8.17715449       8.95218531      11.30147692
Li       4.58052584       1.42771148       9.14683043
Li       3.04731356       0.92790483       2.37817711
Li       3.94741541       3.05787375       6.86758385
Li       0.08030031       8.15201228       2.16351582
P        7.63070671       9.22542318       4.22679117
P        5.81898863       5.21119364       0.94728396
O        4.87295023       4.25622214       5.96693071
O        6.56055470       2.64834333       4.00293487
O        6.89414842       9.78932814       2.99979732
O        9.10273092       6.32383531       1.54959215
N        8.07739091       7.78033840       3.82380253
O        6.13836996       6.67360043       1.27034929
O        4.42746956       0.04477548       1.54125449
O        6.67070134       9.01672198       5.44278778
Li       7.03793898       8.26364931       1.58022540
Li       0.27536146       0.44420433       9.50728580
Li       5.84215768       9.49832803       9.97894196
Li       7.29277193       6.98818143       9.05539824
Li       6.07567413       7.51796774      11.61644248
P        7.76950626       9.90815613       8.30876501
P        5.01598063       5.78756322       6.11254540
O        6.82141737       2.25624972       9.82477777
N        8.21999732       8.34427640       8.09121659
O        6.23594794       9.95266182       8.04370911
O        5.46371966       6.36676478       4.74056337
O        3.69747757       9.25766243       5.95101181
O        8.11333235      10.19264695       9.83025253
124
Lattice="9.63908 0.0 0.0 0.0 10.3723 0.0 0.0 0.0 12.0957" Properties=species:S:1:pos:R:3 material=LiPON model=NEP89 temperature_K=600 phase="NVT production" display_name="LiPON｜NEP89｜600 K｜NVT production計算" report_figures="23_LiPON_lithium_MSD; 24_LiPON_transport_comparison; 25_LiPON_temperature_RDF" source_frame_index=2579 relative_time_ps=257.9 pbc="T T T"
Li       2.98695170       7.99797229       7.58624962
Li       4.59521024       6.31570671       3.09799657
Li       1.33923235       2.65993052       3.02187500
Li       1.75920358       8.75604663       5.74046677
Li       3.13116822       9.11533073       0.16508925
Li       6.15055396       0.25405540       6.83049101
P        3.46102228       3.52641245       1.21536080
P        0.67420061       0.49027764       0.52939460
N        0.97270940       4.36749766       4.57548590
O        1.67721678       9.31865057       3.70467707
O        2.03906135       3.83927256       1.40063825
O        4.66793814       0.55417394      11.00151897
O        3.90334375       3.20631698      11.89103101
O        9.16755471       9.86624441       0.67522225
O        7.82229691       6.98596345      11.19424942
O        3.85078365       2.42520954       2.18576236
Li       2.80352660       1.34043267      11.24985851
Li       0.14333135       9.93327687       3.02401975
Li       4.89088149       8.33424116       4.69810797
Li       2.19992228       5.08707717       2.75597506
Li       4.00056100       4.26470050      10.35012292
Li       8.62632128       1.95282870       7.34877974
P        1.54740083       2.79507295       8.87076389
P        9.01420096       4.31709125       5.08228288
O        1.27936616       1.00483991       1.79674616
O        3.54561747       6.06471751       9.37605446
O        2.01799181       1.32013473       9.22772020
O        3.87227719       0.89806805       4.55692027
O        0.03857919       2.68586983       8.69412040
O        8.78005230       2.88015938       5.63421127
O        0.43614351       6.15666315       8.33282237
O        2.27528871       3.36071379       7.66994369
Li       8.92561521       3.78773990      10.18104765
Li       9.54036922       6.57117866       3.74989734
Li       8.76871716       4.81680744       7.92314924
Li       8.57045807       3.13960322       0.74520687
Li       8.06658499       7.29409998       6.02101017
Li       1.62391323       8.72968548      10.49879949
P        2.26870302       8.05729122       2.99213219
P        9.04162128       6.41977276      11.95872461
O        0.61541043       7.39847509       6.29853354
O        4.37972113       4.81522070       1.72448117
O        1.79195937       6.72873488       3.59055276
O        5.67296140       5.10954845      11.63303908
O        2.03799433       7.96113765       1.50674596
O        9.16435276       4.90359823      11.63397329
O        1.73229719      10.15304751      11.68538440
O        3.86281374       8.16133403       3.19207316
Li       1.04749032       3.68620411      11.70894158
Li       1.67375338       6.09506955       5.28835228
Li       7.61155669       1.21752282       4.32557267
Li       1.32173271      10.34685636       7.92261793
Li       0.08906341       0.44667762       5.65256917
Li       5.78323396       8.44364383       7.40038115
P        4.10726068       7.31542934      10.10356647
P        0.28577250       7.58776919       7.82871126
O        0.74059323       7.12482976      11.33853933
O        1.91335932       3.77947009      10.02542841
O        5.58688551       7.40582862       9.78116864
O        3.39263768       6.43154588       6.48918749
O        3.50197059       8.53320574       9.55887056
O        1.26296021       8.56567325       8.39895617
O        2.15516505       3.83961833       4.26283528
O        3.86700592       7.48408712      11.75208597
Li       4.29673176       2.94163013       4.39846814
Li       1.84030100       2.79705854       5.88997048
Li       6.46695333       3.25729113       5.97266420
Li       7.00746047       6.21236604       3.50269570
Li       2.35572784       5.49952380       7.85092140
Li       5.42810283       8.48314500       1.93711795
P        7.39993164       3.45534749       2.96353407
P        5.43411101       0.16783011       0.18833561
O        4.31640578       1.00053913       7.02229470
O        8.55486774      10.15447306       4.39500741
O        0.10890043       1.84750979      11.76886085
N        8.15063576       4.67020750       3.72514943
O        6.32089342       1.34441988       0.74586953
O        6.77208685       4.16108906       1.66112767
O        8.33789339       2.40991735       2.53080066
Li       1.35128809       5.62082318      10.08530430
Li       7.73563834       0.38756996       1.62199883
Li       2.39919095       6.61269506       0.22922975
Li       5.63377984       2.85228215      11.52379244
Li       7.97934759       1.08979008      11.29869603
Li       5.43875039       1.57162731       2.56623974
P        6.54709604       3.23979264       9.04931171
P        3.46566132       0.34975777       5.93768964
O        6.30556660       9.28638919      12.07282305
O        9.08615024       0.16180630       7.35910715
O        5.02787412       3.13864613       9.21155889
O        8.61134126       5.46373595       5.97500158
N        7.08263280       4.69651239       8.99219260
O        1.89098472       0.60869175       6.15723778
O        5.72229935       6.58058315       7.06832138
O        6.94724402       2.58315823       7.75890064
Li       5.25997269       5.61631148       8.91162314
Li       8.18714661       8.70042749      11.31698888
Li       3.72323000       0.67318960       9.12379187
Li       3.01528614       0.69064331       2.82438457
Li       4.10205196       3.03803819       7.52349048
Li       0.61621267       8.25497479       0.62117076
P        7.36051952       9.13861284       4.22628028
P        5.77706913       5.26882073       0.99532695
O        4.90676703       4.34494534       6.21265170
O        6.23581794       2.86203014       3.84868678
O        6.60110246       9.54260036       2.96710361
O        9.13070423       6.83773275       1.39897172
N        8.03317914       7.73856860       3.98937729
O        6.07407984       6.72789738       1.66642866
O        4.36003929      10.12880995       1.18870023
O        6.37395267       9.21394042       5.37559574
Li       7.78060327       7.91030395       1.87995609
Li       0.46125639       0.86699039      10.12781334
Li       5.49921430       9.37384519       9.78190677
Li       7.45711528       6.85265647       8.96264977
Li       6.05415319       7.32769197      11.61772603
P        8.31726564       9.57309000       8.32286276
P        4.79277742       5.86387311       6.14310770
O        7.24294356       2.81724087      10.43696332
N        8.46818539       8.04973922       8.01559934
O        6.70992773       9.76025593       8.31404152
O        5.20516433       6.24087979       4.67251363
O        3.66404072       9.10399862       5.99190120
O        8.64946134       9.82040979       9.76807343
124
Lattice="9.63908 0.0 0.0 0.0 10.3723 0.0 0.0 0.0 12.0957" Properties=species:S:1:pos:R:3 material=LiPON model=NEP89 temperature_K=600 phase="NVT production" display_name="LiPON｜NEP89｜600 K｜NVT production計算" report_figures="23_LiPON_lithium_MSD; 24_LiPON_transport_comparison; 25_LiPON_temperature_RDF" source_frame_index=2609 relative_time_ps=260.9 pbc="T T T"
Li       3.16684325       8.31925348       7.73123561
Li       4.37949570       6.32577322       2.87425562
Li       0.87069549       2.88129245       2.76858362
Li       2.27319035       8.50548953       5.22269140
Li       2.62147803       8.77504679       0.50565084
Li       5.89242138       0.85449403       7.13724099
P        3.34712440       3.40836402       1.36162289
P        0.25263560       0.78342492       0.33915750
N        1.05671304       4.10865282       4.39887934
O        2.56508801       9.43909808       3.66242122
O        1.98207150       4.10660252       1.57907511
O        4.31249352       0.32681544      10.56167572
O        3.57870483       2.96385223      11.98858914
O        8.59422960      10.35308393       0.63600700
O        8.37206349       7.08313110      11.58814271
O        3.81291528       2.34409947       2.31619905
Li       2.51110182       1.40346398      11.44083925
Li       0.07118068       0.16544916       2.76986452
Li       4.80252673       9.21810990       4.48499384
Li       1.31938664       5.74734027       2.65297362
Li       3.94226345       4.17375610      10.58159087
Li       8.79750313       2.03822276       7.31577398
P        1.58333618       2.85006196       8.98831137
P        9.03685598       4.12543300       4.87829579
O        1.02716253       1.26089590       1.63741809
O        3.52337927       5.84316228       9.55646694
O        2.12023658       1.34890195       9.22443300
O        4.29868503       0.74793351       4.60543320
O        0.07671361       2.90700076       8.69487082
O        9.00121863       2.72961080       5.52479223
O        0.77087855       6.20358239       8.42851707
O        2.24390989       3.48574225       7.74368624
Li       8.92014344       3.50281021      10.28636401
Li       9.27711757       7.31105039       4.77647747
Li       9.19895770       4.89180502       7.68843326
Li       8.03796229       3.29239431       0.46574543
Li       7.77709810       7.08447374       6.74016468
Li       2.88423262       9.29933268      10.11471837
P        1.87926437       8.22089544       2.93101884
P        9.46829114       6.17258988       0.13212504
O        1.00361297       7.92737502       6.54854553
O        4.21719671       4.80847047       1.44786721
O        1.42048119       7.05064387       3.87869842
O        6.36791406       4.17838557      11.99761598
O        0.80003127       8.67266868       2.03492535
O        9.16448066       4.64518137      11.89060507
O        1.18162216      10.33945044      11.52949431
O        3.06351795       7.67627396       1.96179299
Li       1.05743380       3.68342250       0.06099096
Li       1.92615814       6.25851939       5.59133215
Li       7.89150284       1.39285220       4.99476475
Li       1.60594377       0.19692667       7.70326829
Li       0.33019921       9.96501815       5.76266022
Li       5.81253221       8.55901282       6.79212962
P        4.34929792       7.10313324      10.21413135
P        0.61008418       7.71775994       8.02481182
O        1.20765304       6.48519084      11.69747040
O        1.81838578       3.69543318      10.29977195
O        5.82628051       6.61182570      10.29646593
O        3.56184660       6.61591520       6.53232518
O        4.44806778       8.30041870       9.17569664
O        1.44025513       8.68880676       9.06026664
O        2.29348122       3.86705955       4.63816174
O        3.68786132       7.60320928      11.39389706
Li       4.57152520       3.15077760       4.20775119
Li       1.55632904       2.42321089       5.92082092
Li       6.19512207       3.57804275       6.17365218
Li       6.86889750       6.32432817       3.73945052
Li       2.73323988       5.57822076       7.78777606
Li       5.00075137       8.40184252       1.72796918
P        7.38402530       3.41494531       3.17581190
P        4.95328722      10.33442957      11.93767493
O        4.10901180       1.41603481       7.09245751
O        8.56161147      10.15872589       4.26714200
O        9.38687100       1.96242232      11.56795065
N        7.97524854       4.61850441       3.86699980
O        5.94087524       1.05356763       0.26601898
O        6.38095331       4.33271402       2.44657143
O        8.37408085       2.58173255       2.38167589
Li       1.72302916       5.55241795      10.20005333
Li       7.07544099       0.75610102       1.56531291
Li       2.63718745       6.01206338       0.57256141
Li       5.30870166       2.42816369      11.46320077
Li       7.76209183       0.93698028      11.23521552
Li       5.30063326       0.91355274       3.18535072
P        6.58090598       3.10185941       9.06432216
P        3.55068407       0.52767932       5.98793414
O        5.81679514       9.10318437      12.00237664
O        9.12324626      10.34069477       7.40327877
O        5.00420476       3.27238171       9.27764006
O        8.83250512       5.30160160       5.80536138
N        7.37269393       4.46296714       9.14401062
O        2.03707078       0.60502544       5.76380750
O        5.99310038       6.64946481       6.93462938
O        6.82729985       2.54747695       7.62817727
Li       5.52698610       5.50291124       8.70613487
Li       8.03120541       8.86495326      11.32851260
Li       3.96471549       1.42979998       9.01362263
Li       2.70154917       0.60417097       2.33748589
Li       4.16435905       3.40908887       7.26525047
Li       0.52306046       8.49903935      10.77825919
P        7.42295196       9.20812077       3.99226359
P        5.88223617       5.01427344       1.11754565
O        4.80416424       4.65607054       5.82034927
O        6.51105686       2.59840959       4.18089676
O        6.49088457       9.82438610       2.87383502
O        9.56580384       6.35479909       1.60035900
N        7.96638184       7.72709318       3.48678482
O        6.09470156       6.51890704       1.41010489
O        3.83637758      10.21231572       0.84119661
O        6.59814575       9.10241902       5.27704154
Li       8.55176253       8.26072112       1.78551029
Li       0.45190143       0.55064570       9.69880395
Li       5.66459834       9.69634611       9.50391448
Li       7.58854377       5.85745412      10.36630711
Li       6.50011978       7.39279879      11.94296768
P        8.24716531       9.54611819       8.41377924
P        4.98101101       6.21139980       5.88162980
O        7.13679097       2.31993692      10.27087627
N        8.74875067       8.09851144       8.14501570
O        6.75592177       9.69766531       7.98648118
O        5.16630561       6.83931654       4.47118735
O        3.86993785       9.37500333       6.22101307
O        8.40465669       9.81460775       9.97248589
124
Lattice="9.63908 0.0 0.0 0.0 10.3723 0.0 0.0 0.0 12.0957" Properties=species:S:1:pos:R:3 material=LiPON model=NEP89 temperature_K=600 phase="NVT production" display_name="LiPON｜NEP89｜600 K｜NVT production計算" report_figures="23_LiPON_lithium_MSD; 24_LiPON_transport_comparison; 25_LiPON_temperature_RDF" source_frame_index=2639 relative_time_ps=263.9 pbc="T T T"
Li       3.16783539       8.03893832       7.53123664
Li       4.20230801       6.35894414       2.90357970
Li       0.74691370       2.33595191       3.13539110
Li       2.50484132       7.99223874       5.53748515
Li       3.05006322       8.96779014       0.75244118
Li       6.26436029       0.18788767       6.39853170
P        3.30512953       3.62525631       1.19041918
P        0.74492542       0.71668445       0.51515678
N        1.04374848       4.00024465       4.23949730
O        1.40510629       8.48057768       4.15319214
O        1.84886404       3.81370513       0.99912068
O        4.57494915       0.56201302      10.84254745
O        3.89130729       3.24372921      11.97334305
O        9.23333871      10.10050973       0.51734759
O        8.46406287       7.36099690      11.68044690
O        3.87587352       2.72142219       2.25090252
Li       2.96426402       1.63334838      10.87360891
Li       0.43695343       9.96065275       2.89978055
Li       4.70001268       8.37094767       4.73423001
Li       0.92754516       5.24131319       2.40806401
Li       4.05987340       4.18591080      10.45110668
Li       8.58754205       1.92950770       7.53750812
P        1.67611543       2.81576435       8.92837618
P        9.24548975       4.24043212       5.02512035
O        1.11015632       1.01503349       1.97564915
O        3.39033366       6.16513127       9.53818435
O        2.19736248       1.35135132       9.18589898
O        3.18920965       0.76611195       4.27643374
O        0.10950017       2.79640220       8.90298568
O        9.09494460       2.82091494       5.74986740
O        0.39374442       6.27701499       8.55791649
O        2.21489499       3.43883038       7.56315924
Li       8.59015562       3.49553644      10.14151173
Li       7.71476006       6.37086558       3.09057782
Li       8.98322147       4.98411605       8.00426423
Li       9.03380330       3.31350855       0.92798712
Li       0.06093208       7.31985411       5.30575040
Li       3.18395210       9.70310350      10.29368076
P        2.17708677       7.89129249       2.98739282
P        9.27653145       6.10639367      12.09493194
O        1.11441564       8.09288962       7.03660438
O        3.99061162       5.06737011       1.55739218
O        2.24427703       6.22971895       3.20812427
O        6.01763482       4.79128473      12.05508750
O        1.30536321       8.23274179       1.71716117
O        8.99516816       4.73408205      11.26643696
O        1.87309672       0.19568454      11.72722498
O        3.64810230       8.48530221       2.90157564
Li       0.99546552       3.85661388      11.41496577
Li       2.10557285       5.39259210       5.09569500
Li       8.00267580       1.48192673       4.56314252
Li       1.05032848       0.05667746       8.02710711
Li       0.51261216       9.79821498       5.45590309
Li       5.78228376       8.24521927       7.04273327
P        4.10877298       7.43597155       9.94357065
P        0.46160462       7.80174011       8.37050167
O        1.07746179       6.31736981      11.87659284
O        2.17074137       3.80137501      10.09548259
O        5.64591993       7.12200243      10.16070396
O        3.27473569       6.39236598       6.52266707
O        4.12562341       8.71501408       8.99417806
O        1.07200516       8.63489251       9.51161385
O        2.17461633       3.34748413       4.42774956
O        3.42824297       7.92471912      11.27636641
Li       3.92385631       3.00048299       4.13238867
Li       1.24871487       2.38555958       6.05026159
Li       6.06453629       3.10038132       5.86612908
Li       7.41203386       5.95863166       5.76087460
Li       2.37031186       5.24142516       8.01509524
Li       5.41556183       8.38093061       2.17695788
P        7.21605985       3.42087130       3.19999171
P        5.29349887       0.19518175       0.07766445
O        4.41110317       1.41075442       6.35769242
O        8.63129524      10.10455015       4.45693864
O        0.25767828       2.00119971      11.85177934
N        7.94105823       4.55420420       4.11467528
O        6.33474490       1.38514773       0.39676253
O        6.12145204       4.28575537       2.52849177
O        8.16655581       2.51015654       2.40418312
Li       1.68159778       5.72309755      10.27523206
Li       7.54519345       0.55184055       1.61853494
Li       2.95111019       6.32654434       0.40239063
Li       5.68892468       2.89314647      11.66609092
Li       7.55596139       1.22667723      11.05280335
Li       4.95114363       0.59717769       3.67983890
P        6.37781929       3.31985738       8.66048968
P        3.38299693       0.37383175       5.74848314
O        6.15827576       9.34299931      11.82700114
O        8.99598364       0.17550014       7.55741382
O        4.85077017       3.50014790       8.75720040
O        9.42041258       5.29438174       6.09342213
N        7.07155304       4.71349156       8.84097501
O        1.93778860       0.57632728       6.40168929
O        5.86688751       6.37687617       6.98941805
O        6.70089810       2.49270326       7.46876622
Li       5.37971104       5.46982867       9.01012225
Li       8.10485886       9.08953762      11.22542962
Li       4.16119829       1.45332049       8.69557088
Li       3.14247005       1.11261704       2.15671149
Li       4.09783911       3.07717018       7.17685418
Li       1.22155563       8.17429762      11.42272572
P        7.59299100       9.12997128       3.95842835
P        5.66770262       5.23988133       1.31186088
O        4.58321856       4.34256445       5.95847232
O        6.26497345       2.56942269       4.09228306
O        7.53980489       9.02482518       2.36259505
O        8.94957345       5.80575081       1.49213527
N        8.10870496       7.71908563       4.52598885
O        5.97922568       6.68637299       1.63066635
O        4.32781452      10.36432313       1.27426772
O        6.19713734       9.36268382       4.47861201
Li       9.11245895       8.41876949       1.29505271
Li       0.37389926       1.27509775      10.13695682
Li       5.86121019       9.31975896       9.93160440
Li       7.22828215       5.61789844      10.42154130
Li       6.08876193       7.44368623      12.00534700
P        8.01812503       9.74253274       8.36148354
P        4.73723739       5.88332185       6.00535427
O        6.90617034       2.55989267       9.98800922
N        8.60467620       8.27917920       8.31826179
O        6.47644554       9.85260762       7.95082253
O        5.07066522       6.47171559       4.58129884
O        3.82673494       9.33151233       6.07164700
O        8.08617172      10.34479980       9.82460279
124
Lattice="9.63908 0.0 0.0 0.0 10.3723 0.0 0.0 0.0 12.0957" Properties=species:S:1:pos:R:3 material=LiPON model=NEP89 temperature_K=600 phase="NVT production" display_name="LiPON｜NEP89｜600 K｜NVT production計算" report_figures="23_LiPON_lithium_MSD; 24_LiPON_transport_comparison; 25_LiPON_temperature_RDF" source_frame_index=2669 relative_time_ps=266.9 pbc="T T T"
Li       3.07787179       7.98678545       7.68309780
Li       4.35962831       5.80145288       3.15258238
Li       0.59370778       2.99503476       2.54603110
Li       2.32018321       8.18764215       5.49836405
Li       3.17636810       9.46781621       0.34655432
Li       6.24951639       0.80177301       6.88645486
P        3.25249622       3.36549133       1.34620488
P        0.52141895       0.60432409       0.43624209
N        0.69831746       4.11151404       4.17058640
O        2.33330012       9.37821146       3.77791123
O        1.74819823       3.75784861       1.35485382
O        4.68498370       0.42385966      10.98666290
O        3.74745493       2.93526756      12.03651415
O        9.21777404       9.75421458       0.77127516
O        8.23837999       6.84308003      11.39075393
O        3.84997250       2.46455692       2.42520098
Li       2.83973201       1.15407975      11.12344713
Li       0.59280434       9.79389884       2.95477247
Li       4.73953315       8.54763314       4.22078761
Li       1.09277457       5.54087846       2.36781393
Li       3.85263728       4.42099630      10.23232223
Li       8.68205757       2.02395996       7.52409964
P        1.67012543       3.01312793       8.92323087
P        8.77506448       4.07638155       4.97015189
O        1.22294436       1.00135783       1.74756694
O        3.53958671       6.36629607       9.17934712
O        2.26751613       1.60165121       9.32829126
O        3.80812369       1.17337115       4.85161793
O        0.09425573       2.96318955       8.74760641
O        8.77331400       2.69239724       5.57974735
O        0.54014621       6.37587396       8.83309149
O        2.21719650       3.52495878       7.57855091
Li       8.37550012       4.11674153      10.31573744
Li       7.41807137       6.22733973       3.15136648
Li       9.34987546       4.84374726       8.06914558
Li       8.03692040       2.98472709       0.69448376
Li       9.48676419       7.53535324       4.37645949
Li       2.44656699       9.60342018       9.82308977
P        2.43839662       8.07343260       2.83476671
P        9.26243129       6.13757504       0.07504711
O        0.81030892       7.43173386       6.50727758
O        4.12254117       4.91240548       1.41094269
O        1.62007496       6.93063470       3.50286886
O        5.59046347       4.96447102      11.50628873
O        1.92844342       8.34768749       1.46959557
O        8.99265921       4.58557342       0.01978663
O        1.72527834       0.05558492      11.56281247
O        3.90933371       7.64271844       2.79361839
Li       0.92762677       3.67022224      11.64825333
Li       1.73822687       5.81341284       5.44297120
Li       8.49339560       1.32106257       4.25641851
Li       1.50875113       0.23043893       8.12898523
Li       0.29574569       0.00213745       5.77655330
Li       5.36843064       8.39967877       7.44342415
P        4.07515469       7.67254516       9.92488536
P        0.47260883       7.64917579       8.05344226
O        1.06227541       6.49525831      11.60766298
O        2.05254749       4.06270776       9.93368438
O        5.56793587       7.49499329      10.08598178
O        3.37517973       6.60364130       6.45350006
O        4.03938140       8.88513047       8.95995943
O        1.31428806       8.64264156       8.82676758
O        1.98465233       4.02039537       4.45861119
O        3.40385225       7.91739695      11.35848731
Li       3.84065175       2.99430686       4.23202933
Li       1.32211563       2.72775325       5.95784524
Li       6.29416836       3.29863046       5.66888697
Li       7.58619573       6.83163198       6.39863563
Li       2.97654048       5.26956162       7.82741233
Li       5.55964826       8.09452308       1.67058523
P        7.16893525       3.34588664       3.09054013
P        5.58073156       0.09866089       0.08850562
O        4.22941708       1.17379533       7.35042523
O        8.91618781       9.93788599       4.29978355
O        9.46997940       1.76756914      11.83225705
N        7.55350957       4.56022553       3.95593207
O        6.42075331       1.32401742       0.55516359
O        6.47094965       3.84249668       1.72051950
O        8.19191707       2.28477812       2.68802927
Li       1.92578019       5.88349151      10.22869828
Li       7.77710429       0.42740546       1.88033051
Li       2.40644482       7.03035812       0.51740730
Li       5.43571077       2.42383446      11.50739212
Li       7.67789306       1.06792063      10.99607052
Li       5.39513865       0.85256034       3.83140503
P        6.45591385       3.22524700       8.88392128
P        3.47749543       0.47382079       6.16722351
O        6.62129760       9.41586366      11.73585169
O        9.20891644      10.19916569       7.35439775
O        4.94401712       3.59299392       8.99371290
O        8.90526627       5.08853886       6.09879322
N        7.28344201       4.57443907       8.76655921
O        1.97677894       0.76806367       6.29700280
O        5.70745663       6.32570858       7.28692089
O        6.75246117       2.33587059       7.69256832
Li       5.41355277       5.49106273       8.93818027
Li       8.12721818       9.01362735      11.12740940
Li       4.27386842       1.57761795       9.22882339
Li       2.76868334       0.56890298       2.68390899
Li       4.17071648       3.04870883       7.30224725
Li       0.99957484       8.63124858      11.78172113
P        7.47814373       9.10460686       4.16227036
P        5.63329655       5.06173588       0.88353084
O        4.71672674       4.45310245       5.97087757
O        6.31538524       2.49751726       4.05328552
O        7.25365548       9.02589524       2.70165431
O        9.21463102       6.58862935       1.56454532
N        7.59758328       7.61952413       4.61189377
O        6.16015537       6.36528649       1.43171870
O        4.71927054       9.87670721       1.31863173
O        6.34155104       9.83811803       4.89914373
Li       8.07455553       8.27270108       1.27102019
Li       0.04239475       1.53293263       9.91168281
Li       5.87092472       9.52715420       9.85562358
Li       7.53101248       6.63439840       9.24246809
Li       6.35253600       6.92541316      11.50024552
P        8.15479177       9.49255035       8.29199769
P        4.68311407       6.00778593       6.13163412
O        6.85666137       2.54592456      10.29897636
N        8.56107536       7.91023198       8.20712056
O        6.66104988       9.43718627       7.97316350
O        5.15170361       6.62293453       4.82925669
O        3.67257518       9.31948383       6.39298512
O        8.35329438      10.00570774       9.78318314
124
Lattice="9.63908 0.0 0.0 0.0 10.3723 0.0 0.0 0.0 12.0957" Properties=species:S:1:pos:R:3 material=LiPON model=NEP89 temperature_K=600 phase="NVT production" display_name="LiPON｜NEP89｜600 K｜NVT production計算" report_figures="23_LiPON_lithium_MSD; 24_LiPON_transport_comparison; 25_LiPON_temperature_RDF" source_frame_index=2699 relative_time_ps=269.9 pbc="T T T"
Li       3.17283579       7.92870794       7.68740809
Li       4.52226472       5.84347360       3.27691074
Li       0.68586891       2.71687406       2.04044248
Li       2.37627441       8.19040848       5.56967217
Li       3.10112250       8.98492196       0.28336816
Li       5.97759646       0.77807459       6.66011893
P        3.27139660       3.47268221       1.34793330
P        0.44895990       0.31815016       0.27378295
N        0.92788862       4.14885986       4.41020381
O        1.83271915       9.36664135       3.67238403
O        1.74151126       3.85136967       1.33545758
O        4.55259172       0.35928089      11.02784934
O        3.66869708       2.97634522      12.01457890
O        9.00261244       9.72949873       0.82141249
O        8.11956700       6.91805469      11.49623152
O        3.40423121       2.43287072       2.36648194
Li       2.91330993       1.32119210      11.20246559
Li       0.35490052      10.15018114       2.83717551
Li       4.95192426       8.10205623       4.92354970
Li       1.03564230       5.36457412       2.89201770
Li       3.62785027       4.42603676      10.74854139
Li       8.37324773       2.16601120       7.32811730
P        1.68751397       3.09167336       8.86212095
P        9.06655949       4.37825769       4.92302542
O        1.20081993       0.82287541       1.54110519
O        3.59267982       6.13140050       9.24939992
O        2.26489843       1.66061999       9.32606045
O        3.66354190       1.10761066       4.55166869
O        0.09910764       2.91356949       8.74067654
O        8.74547689       3.10470673       5.66318824
O        0.45850366       6.41992393       8.17859373
O        2.33967718       3.47506428       7.51556048
Li       7.02127113       5.10355394      10.54617717
Li       7.19160232       6.31716058       3.61655659
Li       9.22633687       4.89516419       8.31976311
Li       8.06352596       2.87352393       0.17025763
Li       9.51310853       7.55265585       4.75902121
Li       2.83091053       9.69295327       9.80615724
P        2.44332537       8.11296317       3.03474569
P        9.22909466       5.96402496      12.04484162
O        0.69555864       8.30158327       6.36057718
O        4.27423500       4.74265644       1.69805610
O        1.67953016       6.99430141       3.89692540
O        5.58289161       5.20817459      11.65141100
O        2.02286844       7.81616307       1.56697328
O        8.90162949       4.56138592      11.51428935
O        1.47085291      10.06184449      11.43802014
O        3.99422546       8.11841761       3.32008320
Li       0.85509504       3.72059774      11.48521588
Li       1.92726914       5.48168229       5.53389032
Li       8.14436464       1.70284642       4.62033449
Li       1.11327806       0.53907800       8.39602044
Li       0.57081486      10.00325075       5.71440519
Li       5.44034457       8.46752634       7.39440215
P        4.46059389       7.31326657       9.86912154
P        0.38521121       7.87115516       7.84259262
O        0.98768088       6.40120980      11.56358570
O        1.96318502       4.13484159      10.00567836
O        5.97493503       7.11313106       9.73234858
O        3.37115992       6.40124454       6.21536457
O        4.14696194       8.61255868       9.14771692
O        1.29044622       8.63180203       8.79790034
O        1.93736880       3.43698601       4.64620574
O        4.05225488       7.59418132      11.41943813
Li       3.67558408       2.90865505       5.02731127
Li       1.21035710       2.42750271       6.24763189
Li       6.38168748       3.53756428       5.66953203
Li       7.87653860       7.01120676       6.38405467
Li       3.20862933       4.98483825       7.81070152
Li       5.44882568       8.57141424       2.12621959
P        7.51207264       3.44995768       3.02030434
P        5.16482384       0.25932366       0.37642407
O        4.28346721       1.18035027       6.91712759
O        8.66973236      10.24362071       4.41836957
O        9.36180867       1.54786147      11.72594152
N        8.03712902       4.68150207       3.81757850
O        6.01623906       1.45392247       0.82916017
O        6.86776372       4.08107111       1.55879598
O        8.55956368       2.35984740       2.61244090
Li       1.68402000       6.06966179       9.93641613
Li       7.66247101       0.58331607       2.00902295
Li       2.73247472       6.41011123       0.39366357
Li       5.46300456       2.59935199      11.43874897
Li       7.60334840       0.54924832      11.33776272
Li       5.25150054       2.17152613       2.50996035
P        6.49662924       3.00454338       8.86118037
P        3.40227363       0.40870603       5.84129271
O        6.12860811       9.38497512       0.32203722
O        8.79796541       0.46873231       8.15363509
O        4.94626925       3.62430482       9.02638974
O        9.24617141       5.71848636       5.61814905
N        7.31363857       4.36550024       8.80524297
O        1.95884335       0.50710469       6.29968360
O        5.71663223       6.33383112       7.12511012
O        6.73309292       2.26911471       7.45999594
Li       5.38800450       5.36725406       8.92424711
Li       7.87602141       8.73010770      11.96676828
Li       4.19474559       1.35280401       8.93373688
Li       2.75618386       0.54555794       2.72382584
Li       4.32676328       3.17065339       7.34270433
Li       0.57301043       8.18021257      10.76269486
P        7.61322648       9.13675789       4.14314281
P        5.74020564       5.17861473       1.04198980
O        4.71090483       4.28569815       6.00272981
O        6.40298138       2.84325706       3.93932495
O        6.58808725       9.91639931       3.21073521
O        9.20180108       5.89514828       1.46947399
N        8.33062524       8.03526481       3.46651828
O        6.16102699       6.50677228       1.58734705
O        4.04561882      10.22837626       1.36059023
O        6.97090859       8.63564215       5.43236514
Li       9.55606025       7.74452724       1.87435067
Li       9.04122826       1.67449352       9.79145374
Li       5.77467224       9.57425401       9.99574542
Li       8.06600321       7.36707668       9.47520054
Li       6.14007919       7.01221475      11.76196899
P        7.98061745       9.67599270       8.60225369
P        4.75643034       5.80077757       6.05994333
O        7.02047779       2.03506986      10.01527726
N        8.46059021       8.26617523       7.99968744
O        6.55729403       9.72296413       8.16843266
O        5.49263922       6.34873193       4.70268729
O        3.81313998       9.29569998       5.80946803
O        8.13821190       9.50746140      10.09225645
124
Lattice="9.63908 0.0 0.0 0.0 10.3723 0.0 0.0 0.0 12.0957" Properties=species:S:1:pos:R:3 material=LiPON model=NEP89 temperature_K=600 phase="NVT production" display_name="LiPON｜NEP89｜600 K｜NVT production計算" report_figures="23_LiPON_lithium_MSD; 24_LiPON_transport_comparison; 25_LiPON_temperature_RDF" source_frame_index=2729 relative_time_ps=272.9 pbc="T T T"
Li       3.10216467       8.11788784       7.44502756
Li       4.32684592       4.90151400       3.60761612
Li       9.60647760       2.52361347       2.23305191
Li       2.29794200       8.10845094       5.67752328
Li       3.14488719       9.24380238       0.28962460
Li       6.38033991       0.75214837       7.06746630
P        3.13855719       3.68897221       1.17078481
P        0.62399669       0.60277855       0.67800194
N        0.81202314       3.79580919       3.90121893
O        1.41530127       8.25188619       3.71541973
O        1.67437707       4.08311206       1.13438138
O        4.86089728       0.48294687      10.73458852
O        3.45111603       3.03937781      11.85613669
O        9.15659481      10.02534026       1.16309503
O        8.01226045       7.22488540      11.69141838
O        3.48903501       2.80559268       2.30276896
Li       2.79441685       1.20520705      11.24030206
Li       0.67062562      10.00600621       3.34014355
Li       4.71098789       8.02830679       5.00100499
Li       1.01112203       5.26375181       2.45425711
Li       3.79644746       4.40909399      10.18439139
Li       8.88753354       2.12681236       7.47377386
P        1.75115685       2.99129459       8.95239059
P        9.08125307       4.15411131       4.92963937
O        1.22858801       0.92368184       2.07401052
O        3.38400275       6.15156455       9.40545808
O        2.03965733       1.56521990       9.44935514
O        3.58013472       0.89695014       4.42318382
O        0.24248802       3.07046590       8.59352697
O        8.85416048       2.86372747       5.79374315
O        0.49078851       6.31398675       8.46858219
O        2.50422350       3.45235756       7.69234770
Li       6.79779095       5.30301845      10.74146516
Li       7.68631081       6.61485022       2.46133280
Li       9.05507204       5.07296481       7.48303889
Li       7.81536789       3.47630560       0.31695340
Li       9.47587616       7.43854909       4.98111145
Li       0.39100242       1.15697102      10.40622791
P        2.62212338       7.57127940       2.96127152
P        9.16730378       6.28921056      12.01918831
O        0.47862484       8.13129925       6.47347274
O        3.95485954       5.26431594       1.15299634
O        2.71582333       6.10268742       3.41742303
O        6.07851490       4.45660712      12.00797821
O        2.25453021       7.83309909       1.48447901
O        8.78363717       4.96064061      11.55232363
O        1.54703874      10.21604808      11.77310921
O        3.98197726       8.32840287       3.34537624
Li       0.69360782       3.61087588      11.64287883
Li       2.48783120       5.01350411       5.09694731
Li       7.96114863       1.14677552       5.27576901
Li       1.54181849       0.09748759       8.07675105
Li       0.31698471      10.10608777       5.97105080
Li       5.86993503       8.63996007       7.40636454
P        4.31324377       7.31850719       9.92237153
P        0.41780790       7.78427294       8.03184447
O        0.82335735       6.79194882      11.31544142
O        1.86637259       4.11874955      10.02877938
O        5.84365983       6.83521717       9.83237548
O        3.31796554       6.42324996       6.30894764
O        4.34671103       8.48529254       8.84292898
O        1.60003880       8.59076942       8.63213958
O        1.73366304       3.26211701       4.58927790
O        3.81672185       7.81813206      11.31983608
Li       4.29425756       2.74368799       4.26891847
Li       1.40209418       2.59756639       6.37006974
Li       6.11523679       3.13433462       6.14999607
Li       7.22532712       6.50059023       5.31028983
Li       2.42411876       5.25452211       7.83548781
Li       5.20384495       8.49297423       1.82693443
P        7.03858489       3.41099232       3.24645845
P        5.46055326       0.18022644       0.03986506
O        4.64548030       0.93271038       6.79210902
O        8.52051110      10.25441129       4.37174671
O        0.11490264       1.94805365      11.98330156
N        7.83854371       4.57421302       4.05332702
O        6.44350730       1.37089146       0.40910689
O        5.86606565       4.28360583       2.37193814
O        7.90478136       2.77898377       2.17683261
Li       1.70566241       6.03809737       9.82691596
Li       7.69435775       0.62567334       1.91775481
Li       2.40651132       6.35830273       0.34875874
Li       5.22599195       2.39449035      11.03736448
Li       7.97837909       1.23148031      11.34803952
Li       5.09745277       0.54972228       3.10594556
P        6.76730544       3.19683753       9.06031664
P        3.47122176       0.29933859       5.88820885
O        6.28455732       9.22428487      12.08543669
O        9.13075375       0.34479849       7.74669432
O        5.17374278       3.46333428       9.29934767
O        9.51396800       5.48804883       5.62118652
N        7.46447128       4.61550931       9.11584192
O        2.11850550       0.77875088       6.47269012
O        5.79017812       6.05090513       6.96110019
O        7.03973673       2.47547016       7.70765314
Li       5.10218584       5.20223561       8.54215713
Li       8.24349321       9.16044437      11.88561541
Li       3.99200174       0.34975185       8.96391697
Li       2.95376994       0.83066115       2.63438255
Li       4.14299253       2.78806962       7.24224801
Li       1.52839111       8.39861652      10.67248029
P        7.34395874       9.21857985       4.16372525
P        5.52669888       5.16321414       1.12206309
O        4.50232892       4.17196254       5.76482204
O        6.19241818       2.44963042       4.15296414
O        6.51164410       9.73999145       2.87669375
O        9.27874420       6.42441426       1.51182699
N        8.09249907       7.81593717       3.88357983
O        5.95859234       6.62988307       1.14827833
O        4.27216948       0.06520021       1.03645765
O        6.48222651       8.83708806       5.36111451
Li       0.03195614       8.24600276       1.57553671
Li       9.41340208       4.65696172       9.71460183
Li       6.03589443       9.45060662      10.07402635
Li       7.59708720       6.80211229       8.79568459
Li       6.24365869       7.38164054      11.74123489
P        8.27633832       9.75579645       8.70005426
P        4.69497573       5.67812272       5.89747778
O        7.26723085       2.19766434      10.06316888
N        8.60724279       8.23255514       8.49509076
O        6.75054666       9.78369542       8.40324517
O        5.27947704       6.17049626       4.58614084
O        3.67256269       9.09352704       6.07875921
O        8.56103593       9.89960548      10.18869773
124
Lattice="9.63908 0.0 0.0 0.0 10.3723 0.0 0.0 0.0 12.0957" Properties=species:S:1:pos:R:3 material=LiPON model=NEP89 temperature_K=600 phase="NVT production" display_name="LiPON｜NEP89｜600 K｜NVT production計算" report_figures="23_LiPON_lithium_MSD; 24_LiPON_transport_comparison; 25_LiPON_temperature_RDF" source_frame_index=2759 relative_time_ps=275.9 pbc="T T T"
Li       3.02911361       8.19754959       7.88694867
Li       4.27753988       6.32112919       3.17698923
Li       0.63020865       2.91897004       2.63703948
Li       2.39913538       7.99474364       5.47498169
Li       2.91270451       9.31062667       0.13274796
Li       6.06772502       0.60562151       6.84254129
P        3.16785842       3.49752475       1.37102788
P        0.53789321       0.46856414       0.50932002
N        0.74444478       4.37576444       4.22011798
O        1.70117306       9.21706383       3.87879309
O        1.76929369       4.07083041       1.34545733
O        4.91784961       0.52139988      10.74838280
O        3.58643635       2.83093014       0.03741481
O        8.99406646       9.86194356       0.76862061
O        8.09084946       6.79563484      11.18524647
O        3.52631490       2.60242484       2.55962456
Li       3.11936378       1.02911136      11.11603880
Li       0.21654491       0.34633804       2.96074350
Li       5.00265322       8.06218034       4.54913609
Li       0.83585874       5.33526490       2.36608406
Li       3.81852941       4.05970803      10.40764697
Li       8.72998927       2.31998222       7.20432941
P        1.76995905       2.88087807       8.86550020
P        8.92360092       4.16282779       4.95940823
O        1.33445902       0.78192131       1.71231017
O        3.58833230       6.34438419       9.14279552
O        2.40677004       1.47539502       9.17015777
O        3.82516426       0.61183900       4.51617508
O        0.18572263       2.80407003       8.72996525
O        9.08116971       2.72525693       5.39635830
O        0.62881818       6.22875747       8.22586431
O        2.36621397       3.49136219       7.63405807
Li       6.91912811       5.17962890      10.74501165
Li       7.28479381       6.03859374       2.90241609
Li       9.07466339       4.64973903       8.16704886
Li       7.96190595       3.19040562       0.69291189
Li       0.24457014       7.27491123       4.58312610
Li       0.19540379       1.01061986      10.03972162
P        2.37416595       8.20133582       2.97167407
P        9.23136380       6.10968988      11.98351313
O        0.67709772       7.67399015       6.33347761
O        4.06420651       4.87560256       1.70691053
O        2.08991238       6.86488459       3.72574236
O        5.52391855       4.60087183      11.89982642
O        1.85000352       8.25819305       1.51116705
O        9.07910980       4.62572401      11.63650449
O        1.39538510      10.19450859      11.48947395
O        3.90430824       8.44593491       2.92405517
Li       1.04487703       3.39654880      11.87228277
Li       1.76436368       5.75930021       5.45974591
Li       7.93870646       1.22784514       5.16571337
Li       1.27079691       0.38897942       8.03421534
Li       0.75886497       9.78825182       5.38929780
Li       5.58847093       8.60914391       6.86078017
P        4.24995939       7.38917146      10.12991891
P        0.40511259       7.70092162       7.83087515
O        1.02685086       6.60532221      11.55692305
O        1.91213875       3.84210833      10.13648007
O        5.74124551       6.84207785      10.10660943
O        3.34106786       6.62294691       6.39105819
O        3.99440291       8.75600499       9.49064762
O        1.30294377       8.74005895       8.50590698
O        1.96089232       4.10254332       4.70677831
O        3.80397706       7.29420699      11.60174188
Li       3.65811171       2.91054152       4.31056881
Li       1.45940231       2.57600241       6.07554855
Li       6.44527294       3.66060014       5.56961242
Li       7.87136301       7.04511880       6.55849862
Li       2.35272914       5.29325521       7.82649325
Li       5.32679177       8.74341212       1.97605447
P        7.26217605       3.10990627       3.13923752
P        5.41980371       0.12384025       0.06362835
O        4.43591849       1.16607473       6.99698268
O        8.71981783      10.11333320       4.18635763
O        9.56528074       1.79279206      11.93784487
N        7.69158615       4.38599458       4.01594874
O        6.37721823       1.24494272       0.66232619
O        6.29764084       3.81767177       2.01581380
O        8.38491167       2.40973900       2.42499920
Li       1.60249397       5.67816335      10.06640641
Li       7.75699471       0.46064132       1.89009964
Li       2.46302698       6.72116776       0.56876604
Li       5.57792190       2.81864700      11.58700043
Li       7.79317858       0.89677507      10.88629065
Li       5.64610650       0.70071198       3.05769838
P        6.55969069       3.21070459       8.81335623
P        3.58017727       0.35033305       5.95027137
O        6.30728480       9.23935494      12.03095484
O        8.93976437       0.22158612       7.28871587
O        5.02678207       3.35789722       9.20302827
O        8.78017532       5.13725025       6.05718865
N        7.24660535       4.69773166       8.98791347
O        2.03471677       0.51545380       6.35114908
O        5.84864469       6.75524176       7.17385956
O        6.75995221       2.58985543       7.39529130
Li       5.38460831       5.74072019       8.73643222
Li       8.10241881       8.80861913      11.49004023
Li       4.18809186       0.32178458       8.88226502
Li       3.28335507       0.88520368       2.43289009
Li       4.23731584       3.22256311       7.50998655
Li       1.19407592       8.51262209      10.54080732
P        7.53849979       9.08257083       4.16942734
P        5.65801909       5.01966914       1.28887376
O        4.84360374       4.57961611       6.37442042
O        6.48574680       2.24503518       4.14523495
O        6.70440573       9.50462652       2.91292007
O        9.11458721       6.28904926       1.45053518
N        7.97752486       7.57911254       4.06740218
O        6.05420001       6.51488615       1.63654520
O        4.18897950       0.14395814       1.06515699
O        6.55725405       9.12367667       5.35483460
Li       9.63563239       8.08001760       1.55590297
Li       8.79870730       3.52269565      10.17635831
Li       5.96026564       9.13471328      10.02589106
Li       7.59400107       6.85774334       9.24026798
Li       5.99308432       7.38183836      12.01817092
P        8.18211213       9.64249494       8.27407301
P        4.83172195       6.11850301       6.11415383
O        7.32792005       2.48643588       9.84842714
N        8.57420159       8.12897872       8.04311143
O        6.67434804       9.66414258       8.18171473
O        5.24118654       6.40025210       4.72702317
O        3.86829612       9.14434731       6.26509999
O        8.67229596      10.01459320       9.71279483
124
Lattice="9.63908 0.0 0.0 0.0 10.3723 0.0 0.0 0.0 12.0957" Properties=species:S:1:pos:R:3 material=LiPON model=NEP89 temperature_K=600 phase="NVT production" display_name="LiPON｜NEP89｜600 K｜NVT production計算" report_figures="23_LiPON_lithium_MSD; 24_LiPON_transport_comparison; 25_LiPON_temperature_RDF" source_frame_index=2789 relative_time_ps=278.9 pbc="T T T"
Li       3.20332261       8.14127894       7.59010904
Li       4.01281658       5.96161375       3.32663187
Li       0.46304860       2.65819492       2.12746517
Li       2.53993684       8.01164683       5.70583467
Li       3.17122735       8.94185847       0.85526710
Li       6.09525216      10.29189211       6.72274970
P        3.30665876       3.57305267       1.17611188
P        0.68804175       0.63345577       0.31979993
N        0.96231114       3.83282409       4.29788422
O        1.59036382       9.05491429       4.10268434
O        1.81763439       3.95232389       1.34346863
O        4.55686831       0.69123253      10.98222529
O        3.62571264       3.11139072      11.82393957
O        9.21527017      10.02102179       0.74113850
O        8.36726321       6.89264880      11.01311266
O        3.80119404       2.56441197       2.20322674
Li       2.93414790       1.46656484      11.07561530
Li       0.46823746       0.13498757       3.14588877
Li       4.94022881       8.19283762       4.73772835
Li       1.11453096       5.18607912       2.66677374
Li       3.76027478       4.27062594      10.41890970
Li       8.47424163       2.01074861       7.59524784
P        1.55153135       2.95337535       8.76784729
P        9.06029013       4.02544144       4.88639767
O        1.38838933       1.10514763       1.63002685
O        3.50742139       6.05882225       9.70841850
O        2.05423484       1.48592221       9.08908732
O        3.89886431       0.73726929       4.32382686
O        0.03084621       2.78913287       8.74895872
O        8.81211404       2.80789960       5.69696389
O        0.92563666       6.46089351       8.42619898
O        2.14422848       3.55571751       7.54092931
Li       7.07288025       5.53556689      10.84437097
Li       7.13212537       6.46092390       3.25159512
Li       9.00712662       4.65039807       7.72680565
Li       7.92915391       3.48876877       0.31225264
Li       0.21258907       6.94892843       5.07723421
Li       0.71089205       0.36131655       9.88885155
P        2.18058745       7.93798053       3.15366018
P        9.22955542       6.07732748      12.01415062
O        0.84820091       8.05406503       6.55040536
O        4.02043844       5.05848185       1.34098414
O        1.80925226       6.52214225       3.74668596
O        6.04203753       4.57900479       0.03303615
O        1.61462921       8.04874679       1.69158781
O        9.10400236       4.55589435      11.65529480
O        1.78014259      10.29097984      11.58636340
O        3.72472745       8.09882548       3.04827899
Li       1.31145920       3.40691736      11.63538138
Li       2.09816752       5.35447486       5.38662092
Li       7.80316732       1.13468442       5.59002214
Li       1.30540380       0.11956817       7.55793633
Li       0.40768301       9.75204553       5.58236282
Li       5.45836283       8.22251698       7.44696237
P        4.28468250       7.28166018      10.23454387
P        0.58091032       7.89920709       8.00797773
O        1.00134713       6.60448910      11.63045836
O        1.95498408       3.78062486       9.98403176
O        5.75605057       6.90144076      10.48275867
O        3.47596337       6.42906297       6.37177631
O        4.22003090       8.43432704       9.19684831
O        1.41283936       9.01511566       8.80775958
O        2.15147421       3.37941094       4.77846181
O        3.56727542       7.72892829      11.49330126
Li       3.89420044       2.79047266       4.43135621
Li       1.21604516       2.57464404       6.26705034
Li       6.07194135       2.85724501       5.90905457
Li       7.72244093       7.26447027       6.39311452
Li       2.47695574       5.53862479       7.93622973
Li       5.24806049       8.63835702       1.99315033
P        7.11211453       3.30973742       3.08519721
P        5.37551896       0.05373220       0.13674959
O        4.42747133       1.39874970       6.68247655
O        8.59089345      10.30525105       4.20287966
O        0.13466937       1.72165274      11.48422187
N        7.75487249       4.38746252       4.04871770
O        6.46504143       1.08633200       0.53880897
O        6.01369048       4.34239713       2.56515486
O        8.17727832       2.95868027       2.03655314
Li       1.85177978       5.55678057      10.28427229
Li       7.77390692       0.59035217       1.78189359
Li       2.53676080       6.65892733       0.76446947
Li       5.57961099       2.73652866      11.91577176
Li       7.85026915       1.36184927      11.18541779
Li       5.40778583       0.69908729       3.35313255
P        6.49876591       3.39347714       9.03060642
P        3.51594847       0.43047597       5.80086547
O        6.18728012       9.24409435      11.60920149
O        8.72869090       0.15796768       7.29977160
O        5.01419070       3.49645463       9.06561683
O        9.34694108       5.33646884       5.79282192
N        7.15878604       4.86813215       8.90129333
O        1.99224289       0.56795937       6.06064673
O        5.95805172       6.20305533       7.01264754
O        6.85052251       2.83262398       7.69404733
Li       5.00983881       5.22673888       8.32557106
Li       8.12322901       9.08769535      11.54668697
Li       3.03023565       9.86170534       9.51439462
Li       3.13834734       0.85309498       2.39442399
Li       4.11247416       2.98304003       7.45192192
Li       1.66383814       8.08110746      10.72024701
P        7.59883069       9.11842051       4.06099085
P        5.70825896       5.26910429       1.30616840
O        4.73922331       4.22045415       5.88565793
O        6.45251193       2.14357862       3.83576538
O        7.05728271       9.19618688       2.58082221
O        8.69602830       6.43511664       1.33708938
N        8.21203412       7.64856520       4.36629464
O        5.73891704       6.75686063       1.39963553
O        4.32460392      10.22147798       1.28169615
O        6.42091803       9.26759379       5.07449966
Li       9.42243825       8.43846185       1.35842225
Li       9.08699426       3.48569943      10.15278822
Li       5.47521361       9.97152303       9.50455991
Li       7.55227494       7.09132945       9.30498689
Li       6.53592354       7.60201939       0.10275951
P        8.19680747       9.63739272       8.40284935
P        4.83893847       5.71620207       5.96731589
O        7.15863506       2.67189885      10.21795515
N        8.70732316       8.15829114       8.45654275
O        6.64854959       9.37583767       8.22012345
O        5.18067941       6.32198099       4.57589008
O        3.93886013       9.38298367       6.23468329
O        8.65404092      10.24383981       9.79593927
124
Lattice="9.63908 0.0 0.0 0.0 10.3723 0.0 0.0 0.0 12.0957" Properties=species:S:1:pos:R:3 material=LiPON model=NEP89 temperature_K=600 phase="NVT production" display_name="LiPON｜NEP89｜600 K｜NVT production計算" report_figures="23_LiPON_lithium_MSD; 24_LiPON_transport_comparison; 25_LiPON_temperature_RDF" source_frame_index=2819 relative_time_ps=281.9 pbc="T T T"
Li       3.11645866       7.78886409       7.83451127
Li       4.46141837       6.61094924       3.34410086
Li       0.22560004       2.83650223       2.32306820
Li       2.58223058       8.00634774       5.57735402
Li       2.85717541       9.03318742       0.39701950
Li       6.20168810       0.64262622       7.06095363
P        3.18318890       3.44086239       1.16844887
P        0.45231741       0.65247592       0.55474860
N        0.78496958       3.82669108       4.20296141
O        1.39387067       8.88693782       3.77753183
O        1.69353882       3.85061198       1.34786295
O        4.76675479       0.80663273      10.88649189
O        3.38352530       2.85067945      11.81945402
O        9.07886044       9.87645619       0.93943839
O        8.20555294       7.15693281      11.71645696
O        3.75947175       2.60036417       2.26691399
Li       3.06486266       1.26415085      10.86188657
Li       0.88932105       0.42053209       3.56563767
Li       5.09803234       8.51352103       4.48063686
Li       1.18955484       5.08484453       2.58328210
Li       3.75794805       4.12458035      10.33059204
Li       8.58669538       2.01596287       7.73767171
P        1.53927530       2.98607550       8.84081052
P        9.01785653       4.19183349       5.01609448
O        1.13050669       0.97914745       1.87267004
O        3.51424214       6.19116286       9.18798923
O        1.87797335       1.47943760       8.92366129
O        4.14329976       0.59546851       4.44944169
O        0.04137360       3.16527276       8.68195515
O        8.89477651       2.99244083       5.99342477
O        0.75241262       6.28973215       8.23751917
O        2.21628759       3.51694156       7.62878604
Li       7.00756193       5.54682167      10.78286266
Li       7.61852040       6.26055944       2.55094199
Li       8.86959566       4.67563026       7.70823336
Li       7.97107766       3.28574334       0.21285424
Li       0.07552715       7.24106213       4.78489342
Li       0.81192246       0.42034499      10.07550070
P        2.38850499       7.95789820       3.03316315
P        9.27836769       6.18995736       0.15009882
O        0.82804058       7.97114173       6.44176331
O        3.96119540       4.83945370       1.05899805
O        2.34713678       6.55259097       3.81001921
O        6.20454321       4.55829924      12.05984162
O        2.01457423       7.96818644       1.60238564
O        8.96172683       4.77781295      11.63312593
O        1.63825211       0.11335274      11.74796757
O        3.78513992       8.64093900       3.23205209
Li       0.94253984       3.42645709      11.86262738
Li       1.98222039       5.36158901       5.15675437
Li       8.46024387       0.96457586       5.66847724
Li       1.24329983       0.09134937       7.77231140
Li       0.57263336       9.65713422       5.60424140
Li       5.52445757       8.36768503       7.19876332
P        4.18800049       7.33027799       9.96132762
P        0.41329706       7.74670538       7.90364487
O        0.89287181       6.72848542      11.42693725
O        1.79276441       3.83571915      10.12749427
O        5.61734555       7.03553515      10.37283027
O        3.32206735       6.42888695       6.14336080
O        4.11620456       8.67609874       9.11031442
O        1.32639033       8.71707109       8.70900155
O        1.91792019       3.24033639       4.22916690
O        3.34955019       7.59638320      11.20052516
Li       4.39199931       3.00282961       4.12813187
Li       1.48385272       2.26388234       6.07006375
Li       6.55393182       3.31563443       5.92175555
Li       7.31313209       6.91273180       5.46711827
Li       2.36118238       5.37409950       7.66865794
Li       5.57219156       8.50932552       1.97896018
P        7.13917027       3.40805405       3.16631849
P        5.42277487       0.10999013       0.02796981
O        4.36896251       1.12719675       7.00658899
O        8.66889652      10.19358359       4.27905466
O        9.47315107       1.85793875      11.83359573
N        7.63160248       4.36897910       4.31307350
O        6.25037993       1.16585915       0.74040051
O        6.01655271       4.28310278       2.57268178
O        8.13705142       2.98974950       2.10990042
Li       1.33518249       5.63800973       9.95570429
Li       7.82087251       0.49954786       1.85433755
Li       2.78479648       6.63705548       0.49798722
Li       5.25586919       2.61465042      11.58154946
Li       8.00680090       1.20271176      10.67303276
Li       5.53932500       0.73422814       3.23120767
P        6.55376898       3.33431891       9.02649197
P        3.67726588       0.22956091       5.89756391
O        6.42695474       9.39153747      11.64425952
O        8.97978282       0.12935049       7.32562741
O        4.94421053       3.33439051       9.17744787
O        9.20908562       5.66045647       5.66912855
N        7.13999932       4.72474134       8.95516120
O        2.09607570       0.47763912       5.90783655
O        5.85571217       6.38747170       7.08507352
O        6.84534667       2.42568347       7.77492083
Li       5.06391574       5.17002058       8.48544233
Li       8.43444600       9.01621516      11.53542097
Li       3.70941379       0.68075464       8.59495795
Li       3.29707722       0.70179095       2.33129802
Li       4.09197880       2.91607901       7.11700281
Li       1.82447102       8.43858914      10.46680978
P        7.56334193       9.17424786       4.22004092
P        5.57007478       5.15134899       1.20733363
O        4.72995717       4.32870558       6.20341790
O        6.49564554       2.31321558       4.07957834
O        6.56955518       9.67022542       3.14200754
O        9.31551815       6.27064704       1.69861956
N        8.18127472       7.86489504       3.64799645
O        5.60629871       6.66379804       1.55193179
O        4.31461594      10.06545593       1.02675898
O        6.73120341       8.64813988       5.47232665
Li       9.49593116       8.36305636       2.48887723
Li       9.01070061       3.80590416      10.24027279
Li       5.71443290       9.22694557       9.83606225
Li       7.34129912       6.56538788       8.63197732
Li       6.26738643       7.62134323       0.05109059
P        8.30585307       9.53032129       8.37739086
P        4.82951700       5.87299574       6.06780059
O        7.13578467       2.71932560      10.30940254
N        8.56330960       7.95203009       8.27592484
O        6.75680521       9.62446362       8.32739190
O        5.50721421       6.37358824       4.72095496
O        4.02791933       9.05031392       6.10463384
O        8.72933080       9.95291858       9.82771133
124
Lattice="9.63908 0.0 0.0 0.0 10.3723 0.0 0.0 0.0 12.0957" Properties=species:S:1:pos:R:3 material=LiPON model=NEP89 temperature_K=600 phase="NVT production" display_name="LiPON｜NEP89｜600 K｜NVT production計算" report_figures="23_LiPON_lithium_MSD; 24_LiPON_transport_comparison; 25_LiPON_temperature_RDF" source_frame_index=2849 relative_time_ps=284.9 pbc="T T T"
Li       3.19277075       7.71725570       7.82905042
Li       4.32585051       5.92369440       3.15021244
Li       1.07439288       3.25630652       2.75472466
Li       2.60027941       7.84633179       5.53108275
Li       2.84285446       9.08140118       0.32429346
Li       6.04828824       0.60961900       7.27196155
P        3.35917806       3.53602798       1.37410224
P        0.37115799       0.58198628       0.31226910
N        0.91211938       3.65015028       4.64991584
O        1.91744649       9.57114791       3.36559891
O        2.11607763       4.48585171       1.24182222
O        4.74756476       0.31308769      10.67295051
O        3.82205658       2.86601690       0.06287886
O        9.05050423       9.92257833       1.07910653
O        8.03659123       6.88012594      11.35621326
O        3.28005314       2.49279037       2.45589167
Li       3.00787153       1.41645756      11.25056535
Li       0.45993811       0.52405094       3.15756030
Li       4.92659916       8.55947580       4.67043068
Li       1.19826472       5.83086598       2.35153993
Li       3.70857737       4.14190300      10.50378935
Li       8.45464021       2.05808073       7.48460902
P        1.63364100       2.87261404       8.81594774
P        8.98950682       4.02852888       4.94806434
O        1.04831282       1.28475405       1.48445280
O        3.43271276       6.03973744       9.49902475
O        1.71473772       1.29255323       8.99108499
O        4.36570328       0.71011953       4.69349853
O        0.20913434       3.24767811       8.38756497
O        8.43282423       2.72118136       5.55687344
O        0.63195248       6.28707753       8.26590599
O        2.57284645       3.40764180       7.74039284
Li       7.06679944       5.39620516      10.95634737
Li       7.92904338       6.22373627       2.80643757
Li       9.13901601       4.98453579       7.62784199
Li       8.32229075       3.00771314       0.27698188
Li       9.49734705       6.93372397       4.63599029
Li       0.28206306       0.42068453       9.93775770
P        2.46990018       8.16836103       3.07055541
P        9.24320153       6.15079621      11.98934975
O        0.56349180       7.88971830       6.29388582
O        4.46873720       4.60236598       2.11270043
O        1.69093302       7.10697986       3.94853516
O        5.48250362       5.18431557      11.88158344
O        2.05544898       7.80549377       1.57260765
O        8.98296507       4.64087792      11.58636076
O        1.48671445      10.29860237      11.45718845
O        4.00289859       8.00836468       3.23401798
Li       1.03446962       3.53996145      11.90364633
Li       2.00983935       5.43730102       5.57413364
Li       7.87612290       1.40210951       4.46986325
Li       0.97599314       0.16320935       7.76498842
Li       0.90612967       9.62402475       5.16347412
Li       5.26508522       8.59029272       7.59886204
P        4.23232286       7.23824177      10.11886004
P        0.26097592       7.70257214       7.78230749
O        0.94018435       6.56469000      11.36750739
O        1.97654324       3.55043501      10.18594305
O        5.79787577       7.15308434       9.96502131
O        3.51657186       6.30952624       6.52008231
O        3.96673398       8.54774761       9.27164596
O        1.16428839       8.76656014       8.46878842
O        2.20324736       3.79659422       4.56733621
O        3.73161383       7.45600856      11.55856722
Li       4.47282525       2.75196252       4.74831916
Li       1.60472252       2.27704444       6.06742358
Li       6.58968876       3.18900212       5.79113240
Li       7.22065979       7.32172215       6.43612202
Li       2.82954212       5.21955052       7.95797648
Li       5.45024539       8.86464831       2.14349799
P        7.33570601       3.46356600       2.98726050
P        5.37588721       0.09240244       0.05683216
O        4.25403009       1.04127883       7.14765529
O        8.77106392      10.36772166       4.40730494
O        9.14353084       1.46920350      11.61065253
N        8.17991495       4.62211568       3.66249628
O        6.15646312       1.34211721       0.42890890
O        6.88764873       4.03441464       1.53804068
O        8.32127337       2.25686318       2.54882483
Li       1.52376509       5.55241976       9.92315964
Li       7.65542174       0.56907593       1.68546910
Li       2.42583093       6.34034811       0.35494020
Li       5.49392869       2.84235689      11.50300091
Li       7.49315855       1.01722880      10.69442087
Li       5.45194085       1.30457353       3.37080192
P        6.54922809       3.36175102       8.98305364
P        3.71084111       0.20814284       6.01085514
O        6.25139117       9.20864190       0.08593695
O        8.70842511       0.21120087       7.52653665
O        5.11290564       3.67175238       9.33205498
O        9.02667545       5.17699739       5.86476509
N        7.30972508       4.68751512       8.75736494
O        2.15209748       0.42407558       6.23951633
O        5.82235904       6.36857085       7.18080032
O        6.63898685       2.47615003       7.71747499
Li       5.20134639       5.45305510       8.80929958
Li       8.20401850       8.92339448      11.45094784
Li       3.59519636       0.23318344       9.15387023
Li       2.79595124       0.64386888       2.09666687
Li       4.32382183       3.02520846       7.30439817
Li       0.88889082       8.54886094      10.41280082
P        7.60134946       9.27632452       4.16033115
P        5.72806324       5.13921587       1.23763146
O        4.71523769       4.26008808       6.05462902
O        6.22855767       2.83181026       3.86238013
O        6.73609239      10.03616540       3.12251003
O        9.27881211       6.42251326       1.43320434
N        8.24399301       8.08174760       3.48434625
O        6.13921176       6.48929556       1.81930379
O        4.24169577      10.29415473       1.07872965
O        6.76395121       8.96901208       5.44630807
Li       8.90436012       8.24845773       1.50001541
Li       8.87390001       3.82226503       9.86242965
Li       5.72195724       8.99607572      10.16704917
Li       7.55574546       6.64987699       8.99043139
Li       5.66514374       7.51055812       0.17745108
P        8.08406897       9.51392128       8.45689688
P        4.87842252       5.79122158       6.11303786
O        7.17547086       2.66847222      10.23271732
N        8.38462743       8.08956358       7.87538686
O        6.46919780       9.50185802       8.44197337
O        5.43520436       6.42230159       4.79441708
O        4.05451236       9.06610444       6.17380968
O        8.44981757       9.69213708       9.95406370
124
Lattice="9.63908 0.0 0.0 0.0 10.3723 0.0 0.0 0.0 12.0957" Properties=species:S:1:pos:R:3 material=LiPON model=NEP89 temperature_K=600 phase="NVT production" display_name="LiPON｜NEP89｜600 K｜NVT production計算" report_figures="23_LiPON_lithium_MSD; 24_LiPON_transport_comparison; 25_LiPON_temperature_RDF" source_frame_index=2879 relative_time_ps=287.9 pbc="T T T"
Li       2.94293417       8.06266030       7.67990143
Li       3.92861295       6.03735739       3.19573173
Li       0.89854887       2.70571351       2.88719259
Li       2.65439885       7.58201494       5.44024685
Li       3.12320703       9.17668752       0.41450813
Li       6.23029915       0.87817092       7.45370642
P        3.25855627       3.35609878       1.26495829
P        0.69009627       0.65096876       0.44499702
N        0.82189121       4.36907400       4.33620534
O        1.72204784       9.32972221       3.78839272
O        1.82619446       3.87785782       1.57053042
O        4.65786685       0.51050454      10.75299813
O        3.48912445       2.74878827      11.94200594
O        9.21575373       9.97178413       0.96326803
O        8.01679025       6.87573892      11.48150432
O        3.58538418       2.42545821       2.47860159
Li       2.87827055       0.99658853      11.28613309
Li       0.22733312      10.08752138       2.93951491
Li       4.91856170       8.75671219       4.66887336
Li       1.14218911       5.21147961       2.65646540
Li       3.85484205       4.06176449      10.49763619
Li       8.60813248       2.08357101       7.36454952
P        1.63968821       2.98957392       8.80691180
P        9.00437341       4.20916004       5.03040769
O        1.30947948       1.13387366       1.80403075
O        3.38790290       6.00062293       9.97119585
O        2.33956026       1.57176005       8.94101894
O        3.75252304       0.82574690       4.54686107
O        0.10528821       2.66594696       8.65679589
O        8.87213859       2.81597356       5.65134932
O        0.59977232       6.22750924       8.61750538
O        2.17510803       3.68096959       7.50315437
Li       7.29508953       5.36972852      10.88849024
Li       7.34165879       6.13100902       2.51267348
Li       8.96251654       4.57418800       8.04549642
Li       8.34863390       3.19931770       0.51914948
Li       0.08464908       6.97430073       5.02267699
Li       0.25512948       1.07963022      10.09359093
P        2.55227162       8.25358051       3.03131458
P        9.22458896       6.04906766       0.06464515
O        0.92685399       7.69846182       6.44070375
O        4.03784603       4.84621152       1.58914704
O        2.16039608       6.93379528       3.74640124
O        5.58075074       4.67681449      11.59899491
O        1.97070426       8.26827510       1.63269639
O        9.17376332       4.63737202      11.52500373
O        1.57895881      10.10838353      11.57676199
O        4.04418040       8.49292004       2.97557725
Li       1.23906737       3.59932000      12.05631380
Li       1.94163506       5.48120746       5.79779411
Li       8.69886400       1.24710908       4.27505336
Li       1.27365629       0.13522388       7.92076007
Li       0.37776278       9.76743785       5.76373073
Li       5.51500951       8.30934503       7.31715579
P        4.20947631       7.32640414      10.11640257
P        0.48425862       7.65660942       7.99476929
O        0.79983890       6.79814738      11.57064126
O        1.79415266       3.92649800       9.95656981
O        5.69300689       7.01576045       9.91475806
O        3.35858555       6.48100194       6.63460635
O        3.97951649       8.53286678       9.13700239
O        1.37087171       8.61613296       8.78782750
O        2.03711319       4.10679399       4.32840765
O        3.92748479       7.70466269      11.52180589
Li       3.62771898       2.81819159       4.21592703
Li       1.15945021       2.64124304       6.30350140
Li       5.86253368       3.13273535       5.57044854
Li       7.50247561       7.01274588       6.29182734
Li       2.53189917       5.51658156       8.20932740
Li       5.31605465       8.03303681       1.98502837
P        7.34243909       3.37158756       2.97309561
P        5.40101875       0.27644466       0.04244293
O        4.54323569       1.05978279       7.01014198
O        8.66837647       9.80537449       4.48700048
O        0.10493339       1.76599279      11.67915588
N        8.01542633       4.43339989       3.86000164
O        6.12916035       1.57128393       0.57652278
O        6.74723714       4.18148457       1.71827925
O        8.51997687       2.43945253       2.44282777
Li       1.40811991       5.73787891      10.15072099
Li       7.44592165       0.58905391       1.69376734
Li       2.46086419       6.49716103       0.49004460
Li       5.36642364       2.74868315      11.46292151
Li       7.51813963       0.87269587      11.10872807
Li       5.18667621       1.46372586       2.92445837
P        6.51510473       3.27068469       8.95515187
P        3.50467868       0.39544849       5.96370619
O        6.30875090       9.48716605       0.00619228
O        8.79109713       0.10862927       7.42660058
O        5.00308562       3.33796663       9.29570443
O        9.04129467       5.44777752       6.02756338
N        7.26164849       4.62521683       9.09712381
O        2.08585876       0.78258509       6.29111516
O        5.71730491       6.51553707       7.13896815
O        6.60642656       2.68497742       7.51701548
Li       5.36899451       5.64855415       8.69525500
Li       8.30997318       8.91659014      11.63527069
Li       4.14290428       1.54516784       9.00925532
Li       3.04901220       0.45383800       2.83937386
Li       3.82913245       3.09637142       7.17646958
Li       1.27949969       8.51638772      10.71878785
P        7.54001415       8.88040827       4.07527582
P        5.58948499       5.05778115       0.94081267
O        4.67872981       4.48341456       6.12380771
O        6.42699484       2.43940384       3.78206181
O        6.78023413       9.49117394       2.89647226
O        9.05219522       6.06713008       1.57199136
N        8.18279071       7.45375806       3.65325104
O        5.99349856       6.41828962       1.24518498
O        4.22205615       0.06920134       0.96748649
O        6.65799204       8.50270300       5.21576385
Li       9.51432433       7.81080394       2.22562430
Li       8.95756032       3.36937490      10.13425854
Li       5.66809158       9.51878769       9.72907417
Li       7.68776682       6.88984609       9.19095328
Li       6.19730098       7.60106457      11.70768664
P        8.16774985       9.48015120       8.36721832
P        4.78528319       5.96508274       6.03882976
O        7.37268936       2.35705267       9.97240065
N        8.59932338       8.03165742       8.00784658
O        6.65342292       9.52293208       8.19292517
O        5.05755697       6.52314775       4.66176449
O        3.83132855       9.18591486       6.19012586
O        8.32298128      10.03330733       9.81706239
124
Lattice="9.63908 0.0 0.0 0.0 10.3723 0.0 0.0 0.0 12.0957" Properties=species:S:1:pos:R:3 material=LiPON model=NEP89 temperature_K=600 phase="NVT production" display_name="LiPON｜NEP89｜600 K｜NVT production計算" report_figures="23_LiPON_lithium_MSD; 24_LiPON_transport_comparison; 25_LiPON_temperature_RDF" source_frame_index=2909 relative_time_ps=290.9 pbc="T T T"
Li       2.97150004       8.06943180       7.80039094
Li       4.43122744       6.27997857       3.12499257
Li       0.40956347       2.46019338       2.17017528
Li       2.35361059       7.97384070       5.63725126
Li       2.98311576       9.25028966       0.49063273
Li       6.15766721       0.59811206       6.49275457
P        3.24087291       3.60059613       1.42806890
P        0.63723951       0.42189013       0.40290878
N        1.10867210       4.01528932       4.74805370
O        1.71142080       8.94526236       4.05227811
O        1.72308369       3.81785898       1.77369523
O        4.51518327       0.99317270      10.79041336
O        3.33413495       2.99214967       0.02956868
O        9.12836389       9.83572540       0.81920284
O        8.20782291       7.24299495      11.67252661
O        3.91325210       2.69730665       2.48016280
Li       2.89023958       1.33522657      11.53613104
Li       0.53028595       9.93549737       2.78978527
Li       4.91409102       8.81440765       4.67181612
Li       1.26904565       5.23957735       2.78303331
Li       3.10870256       4.46970828      10.68427022
Li       8.42304665       1.92584112       7.47614886
P        1.59913352       2.89123686       8.96169656
P        9.09747686       4.19968395       5.01055748
O        1.37115240       0.89069815       1.77824579
O        3.32696595       5.99105903       9.63971539
O        2.09593263       1.43706351       9.34563688
O        3.83899799       0.55506965       4.55484219
O        0.11543665       2.70702808       8.40200369
O        8.70635395       3.04829147       5.87891704
O        0.36918878       5.82763379       8.07980445
O        2.45967192       3.35892503       7.75724557
Li       7.01710681       5.35004112      10.52961330
Li       7.04018703       6.00712593       4.24301406
Li       7.99076478       5.27273251       7.30878536
Li       7.73281878       2.86011637      11.89670222
Li       9.62786568       7.24980851       4.51224319
Li       2.97467644      10.00842578      10.15052781
P        2.51212093       7.94771333       3.08149600
P        9.21476503       6.13338052       0.08566804
O        0.59656320       7.77877131       6.36558220
O        3.97217553       5.06472315       1.47598155
O        2.52417232       6.54536323       3.75003405
O        6.02535652       4.39915291       0.06015960
O        1.73430710       8.13096071       1.72665735
O        8.75893864       4.72928736      11.74328481
O        1.70556252      10.20933424      11.50449157
O        4.09068253       8.32051897       3.02355419
Li       0.73383941       3.49003669      12.02757033
Li       1.88803681       5.62406202       5.68582733
Li       8.32217550       1.03743658       5.25215668
Li       1.36785662       0.30990493       7.98000572
Li       0.73171898       9.79950111       5.34074849
Li       5.42749931       8.83795530       7.11854672
P        4.20305917       7.17858872      10.16229443
P        0.28430062       7.35916521       7.83436529
O        0.99764991       6.47821599      11.67915410
O        1.48415378       3.93304026      10.17647167
O        5.64328016       6.81039321      10.10159735
O        3.29592311       6.33481172       6.67309690
O        3.92923282       8.50593762       9.32804403
O        1.34095747       7.94957073       8.89030093
O        2.15078029       3.27127713       4.71834080
O        3.81166401       7.62849085      11.58070867
Li       4.00748950       3.28334470       4.42110013
Li       1.19068314       2.54902242       6.55617804
Li       6.61312686       3.34286395       5.57129361
Li       7.92768246       7.67194032       6.17107540
Li       2.55462766       5.42690753       8.07464662
Li       5.60623777       8.26785511       2.14985969
P        7.28168111       3.30400040       3.18804001
P        5.38221758       0.42147869      11.91288247
O        4.37816183       1.08525760       6.95586695
O        8.82957475       9.96768389       4.29593931
O        0.06844965       1.63639164      11.77953016
N        8.10409541       4.43922046       3.83871649
O        6.36644626       1.56483372       0.18524071
O        6.11051875       4.26923435       2.67960696
O        8.17085976       2.70916598       2.07696496
Li       1.30185033       5.85538130       9.87120219
Li       7.67795987       0.92716428       1.61158540
Li       2.63271342       6.80066062       0.48462570
Li       4.94099989       2.95584970      11.37302844
Li       9.07283867       1.34815629       9.95461151
Li       5.26886303       1.11091891       3.65637498
P        6.57527389       3.10461170       8.78313466
P        3.45427277       0.35799265       6.01313285
O        6.44775506       9.76006062      11.24690888
O        9.14870471      10.35292184       7.29994804
O        5.15590279       3.47271023       9.28350558
O        8.59058094       5.48950546       5.62212715
N        7.30765564       4.46635002       8.86506064
O        1.93988626       0.77266272       6.14449050
O        5.74930219       6.67315170       7.24123668
O        6.59301397       2.49125911       7.34476849
Li       5.34829067       5.24666042       8.49082940
Li       8.12017696       9.25216996      11.11591379
Li       3.99003932       1.83203809       9.02433805
Li       3.33858728       0.64579768       2.10077967
Li       4.43914073       3.17911147       7.27000647
Li       0.70050115       8.34356612      10.82276831
P        7.48135201       9.25295018       4.00470870
P        5.63274479       5.11356508       1.26349760
O        5.05322576       4.54069121       5.80781185
O        6.67548573       2.22015267       4.13692895
O        6.83523485       9.67807901       2.69146474
O        9.23602339       6.08756426       1.64400536
N        7.71964269       7.74297423       4.11987870
O        5.82356652       6.57277748       1.15004449
O        4.47922734      10.09105703       0.91626417
O        6.43697972       9.49811940       5.18004847
Li       8.08331233       8.10637548       1.31368786
Li       9.10215818       4.16786132       9.62433545
Li       5.65200439      10.13612391       9.46860432
Li       6.85241478       7.43078869       8.84903288
Li       6.27250053       7.70253190      11.62623759
P        8.39082648       9.41596744       8.30505366
P        4.83132640       6.09165593       6.20234383
O        7.35142305       2.31717931       9.83676213
N        8.51181727       7.87918695       8.04317998
O        6.90759687       9.70399061       8.15681489
O        5.11859358       6.82230915       4.81914534
O        3.67614882       9.15180542       6.46321241
O        8.97582102       9.88867377       9.68849075
124
Lattice="9.63908 0.0 0.0 0.0 10.3723 0.0 0.0 0.0 12.0957" Properties=species:S:1:pos:R:3 material=LiPON model=NEP89 temperature_K=600 phase="NVT production" display_name="LiPON｜NEP89｜600 K｜NVT production計算" report_figures="23_LiPON_lithium_MSD; 24_LiPON_transport_comparison; 25_LiPON_temperature_RDF" source_frame_index=2939 relative_time_ps=293.9 pbc="T T T"
Li       3.11740836       8.06810261       7.80948922
Li       4.55832886       6.36403452       2.97288790
Li       0.71667754       3.09778126       2.35737555
Li       2.48429299       7.71905199       5.63689002
Li       2.70911736       8.93518926       0.18395160
Li       5.96179219       0.76185730       7.28216473
P        3.26128624       3.43543303       1.14963617
P        0.57830946       0.61485916       0.31622662
N        0.89812752       4.31655379       4.30253931
O        2.07544964       9.70488615       3.49863182
O        1.82105343       4.13428790       1.11101871
O        4.70628686       0.57969189      10.86373095
O        3.58219825       2.68838780      11.98016547
O        9.12453737      10.03791248       1.05901937
O        8.07309136       7.09915137      11.61445193
O        3.58620382       2.48432253       2.31881078
Li       2.70991147       1.21331808      11.36962638
Li       0.38530868       0.42995962       3.11787351
Li       4.60669473       8.45042740       4.64813169
Li       0.99974443       5.49276231       2.22106190
Li       3.74720991       4.21346756      10.52247832
Li       8.77856977       2.09575344       7.49828664
P        1.67512755       3.04654936       8.87689457
P        9.05816382       4.11918075       5.05485136
O        1.36502005       1.28049060       1.49113217
O        3.40009253       6.11684221       9.63836245
O        2.11084962       1.56942961       8.97043137
O        4.05159624       0.81728217       4.65425110
O        0.11547503       3.15938674       8.73453307
O        9.20735762       2.72761403       5.88402500
O        0.52031288       6.16682722       8.27643523
O        2.33268884       3.73967646       7.72671348
Li       7.02773851       5.47591830      10.76098713
Li       7.32637081       6.01687959       3.41381474
Li       8.93158192       4.80343635       7.78749888
Li       8.02232481       3.09294278       0.19008628
Li       0.14590992       7.09981577       4.66671934
Li       2.47416304       9.85130769       9.63960585
P        2.38530533       8.29560577       2.86282760
P        9.13116729       6.06079820       0.08502366
O        0.83022266       7.64714752       6.24745564
O        4.11992273       4.86783673       1.30954233
O        1.89208115       7.16892964       3.73620635
O        6.19556628       4.43838393      11.99222518
O        1.66593797       8.19437200       1.52562947
O        8.72601942       4.58979679      11.63007795
O        1.49124634      10.18976814      11.43374811
O        3.92472874       8.07378377       2.77952583
Li       1.01066373       3.51203674      11.61996670
Li       1.73455565       5.63201256       5.39219977
Li       8.29319241       1.29905809       5.37896529
Li       0.99977852       0.43335695       7.87599305
Li       1.07898568       9.77998310       5.27275020
Li       5.48209877       8.73815394       6.92642475
P        4.20014250       7.26673927      10.27339011
P        0.45321543       7.63654447       7.85136640
O        0.79988017       6.56485388      11.58582167
O        2.03100598       3.82363652      10.16441851
O        5.72002483       6.78443462      10.15497609
O        3.46430309       6.43647487       6.69995234
O        4.01915526       8.54326106       9.35227185
O        1.41002123       8.73434766       8.52060873
O        2.25418390       4.32078936       4.16887158
O        3.82502034       7.43609069      11.71508086
Li       3.86549192       3.64355174       3.98881529
Li       1.59848642       3.14472826       5.95869565
Li       6.35645489       3.28783138       5.49926383
Li       7.58338555       6.87882440       6.33797000
Li       2.53023277       5.62886147       8.01250265
Li       5.44053790       8.67047344       2.10998043
P        7.43481096       3.14853162       2.97846161
P        5.32652063       0.01427096       0.05556314
O        4.19521237       1.14206974       7.21130703
O        8.78521507      10.05735585       4.53042308
O        9.50879231       1.69257206      11.50928171
N        7.82016384       4.21409190       4.08008884
O        6.35707578       1.12388826       0.57022698
O        6.14420379       3.90247239       2.44498666
O        8.54828768       2.94133511       1.94317148
Li       1.50299186       5.67123351       9.99081233
Li       7.72190055       0.71839558       1.86800966
Li       2.74518681       6.31223548       0.80746749
Li       5.54078535       2.32479395      11.40162080
Li       7.38092479       0.89185122      10.54113447
Li       5.62600075       0.55180019       3.50233803
P        6.44740980       3.28418299       8.82282448
P        3.43377569       0.50247110       6.04145294
O        6.25076600       9.21323949      11.78928877
O        8.70930889       0.25841224       7.40611080
O        4.85537404       3.56209646       9.00830941
O        8.91635973       5.32157912       5.92989792
N        7.17674188       4.73178019       9.03290511
O        1.94255720       0.78400057       6.17328946
O        5.95508161       6.41720716       7.04878641
O        6.87689368       2.54789534       7.49859663
Li       5.24740174       5.47545240       8.72741373
Li       8.09966709       8.96464970      11.93258703
Li       4.07412233       1.35350720       9.37297224
Li       3.26102495       0.53900059       2.44698640
Li       4.20138053       3.32816356       7.46845188
Li       0.44872152       8.66922825      10.45659037
P        7.55464296       9.09320920       4.26541308
P        5.70763730       4.94511039       1.28361933
O        4.83053639       4.28343718       5.99437059
O        6.96063919       1.87975834       3.78831067
O        6.91641756       9.73169312       3.01177156
O        9.03607870       6.00072302       1.62838010
N        8.10995064       7.61670774       4.06651805
O        6.14541168       6.35085495       1.63231773
O        4.34780630       9.98418735       1.12167310
O        6.40779714       8.92298672       5.31006916
Li       8.92321598       7.74455191       2.27155988
Li       8.48226248       3.32312692      10.21187262
Li       5.51420634       9.40525676       9.88772116
Li       7.40100074       6.87311385       8.94976422
Li       6.21258397       7.46111353      11.77606601
P        8.16491429       9.61006686       8.37692277
P        4.80253252       5.87016567       6.12159735
O        6.90973650       2.44367858      10.14415044
N        8.60988109       8.17042314       8.02323922
O        6.57221762       9.61285115       8.36218111
O        5.02153836       6.38515291       4.74971454
O        3.57289224       9.28301704       6.31844697
O        8.63385739       9.90308116       9.83313868
124
Lattice="9.63908 0.0 0.0 0.0 10.3723 0.0 0.0 0.0 12.0957" Properties=species:S:1:pos:R:3 material=LiPON model=NEP89 temperature_K=600 phase="NVT production" display_name="LiPON｜NEP89｜600 K｜NVT production計算" report_figures="23_LiPON_lithium_MSD; 24_LiPON_transport_comparison; 25_LiPON_temperature_RDF" source_frame_index=2969 relative_time_ps=296.9 pbc="T T T"
Li       2.77224185       7.67377557       7.64739226
Li       4.35369128       6.25884956       3.18913027
Li       0.78997432       2.66951389       2.28448690
Li       1.91701583       8.39517832       5.44182379
Li       3.32133171       9.48712715       0.13870801
Li       8.55486427       1.20242329       5.42855298
P        3.56196506       3.47283516       1.21320315
P        0.61230923       0.38651759       0.46947732
N        0.89637656       4.05959155       4.27774966
O        1.28464026       8.45000802       3.75232906
O        1.97504130       3.81092920       1.10493601
O        4.98803527       0.30021540      10.74618010
O        3.92534393       2.88328307      11.98642103
O        9.32054229       9.41545941       0.53890603
O        8.17459690       6.72322137      11.37962643
O        3.80499984       2.51943038       2.39591990
Li       3.09844738       1.34931182      10.85089078
Li       0.47120869       8.25939238       2.02822536
Li       4.73129736       9.23049676       4.70223057
Li       1.48614344       5.03603200       2.50757331
Li       3.61886937       4.13870263      10.62245280
Li       8.50282898       1.94340339       7.64202673
P        1.39538737       2.90166889       9.09782628
P        9.02735235       4.24541255       5.13434774
O        1.24548097       0.54019316       1.85610280
O        3.13989756       6.20101915       9.39415686
O        2.20614589       1.58071584       9.14527034
O        4.00847188       0.38180629       4.02630551
O        9.57606407       2.59915067       9.07905606
O        8.74994901       3.07069733       6.01345836
O        0.19490474       6.28080753       8.77126773
O        1.77754522       3.62414231       7.84046279
Li       7.90512679       4.88172362      10.51856995
Li       6.79042460       6.09092525       3.80032465
Li       8.77728174       4.69080318       7.87484924
Li       8.02155241       3.03252818       1.01331820
Li       9.54621972       7.02307927       4.14002484
Li       5.78160514       0.94990188       9.48090074
P        2.51187005       7.88293285       2.99366230
P        9.20393136       6.04786864       0.21670187
O        0.81723408       7.97026835       6.98187551
O        4.20259352       5.06113493       1.64442025
O        2.37726378       6.35261825       3.18705106
O        5.95683498       5.07614307      11.85464618
O        2.40528748       8.18662360       1.44193013
O        8.98858244       4.44986058       0.06036051
O        1.72440189       0.09733307      11.46241747
O        3.99268236       8.22147981       3.41989857
Li       0.66292670       3.33347508      11.92570929
Li       2.16133854       5.48680134       5.22593564
Li       1.05914726       0.03422752       3.52407062
Li       2.93889463      10.33008196       8.40270391
Li       0.58718539       9.89776926       6.36761511
Li       4.83670790       9.21358021       7.18702330
P        3.85158431       7.41028942       9.95523069
P        0.07742588       7.76641806       8.41906028
O        1.05620987       6.32111315      11.71738698
O        1.81187197       3.80597534      10.26986108
O        5.40919571       7.12849709      10.09354152
O        3.23689170       6.69133651       6.06412982
O        3.81032659       8.73959059       8.94768882
O        0.87301350       8.66085310       9.41014343
O        2.13550012       3.63617283       4.56257794
O        3.32389587       7.81967610      11.28074181
Li       3.92971164       3.19287610       3.91215697
Li       1.80122490       2.62947831       6.04652768
Li       6.06225597       3.53739085       6.16941100
Li       7.67694363       7.41951897       6.16549924
Li       2.57851372       5.25459812       7.80677311
Li       5.28461564       8.55408813       2.01560483
P        7.33977882       3.32752861       3.40051512
P        5.68385802       0.02342529       0.03691531
O        3.60003106       1.96289546       5.96525564
O        8.81567833       9.99710598       4.08712271
O        9.45290701       1.68102949       0.09330958
N        8.02804450       4.62026325       4.00927588
O        6.61824515       1.15005187       0.49391294
O        6.52067787       3.97477393       2.00794063
O        8.36169782       2.32387657       2.86795700
Li       1.43140277       5.67640108      10.11464519
Li       8.15668678       0.38919950       2.04270112
Li       2.79151194       6.33828355       0.54127835
Li       5.86517678       3.13750275      11.67569580
Li       8.33088338       1.59587296      10.80761152
Li       5.78932358       1.15922043       3.54719301
P        6.32235391       3.36152434       9.05400097
P        3.18527090       0.58496558       5.43058240
O        6.42193343       9.01832666      11.96023813
O        8.58448693       0.26482659       7.02581965
O        4.77253189       3.37700702       9.18412672
O        9.28965337       5.63039033       5.77987919
N        7.16261528       4.64831686       8.76614349
O        1.65719580       0.62135237       5.19541676
O        5.51707107       7.14125130       6.86881604
O        6.55747333       2.42518425       7.83610664
Li       5.01497394       5.47701401       9.12135804
Li       8.20517230       9.06664700      11.18961190
Li       6.05866449       0.75503559       6.28977369
Li       3.34488556       0.68795803       2.41824258
Li       3.79078187       3.13478185       7.57927517
Li       1.34558551       8.34006320      11.32422776
P        7.59825921       9.06925104       4.08071745
P        5.77642716       5.26259804       1.31067393
O        4.63625264       4.81408903       7.11077700
O        6.37903361       2.55794454       4.40576897
O        6.97005177       9.26681096       2.65352881
O        9.11574337       6.62856058       1.64323664
N        7.84102452       7.58151295       4.28989726
O        6.22148684       6.59147121       1.76477411
O        4.57207825       0.01636905       1.05709332
O        6.46226156       9.62517682       5.09424769
Li       7.57478265       8.01362371       1.41500012
Li       0.70695799       0.21878947       9.71076704
Li       5.72384244       8.95710993       9.98623743
Li       7.08824855       6.54542461       9.15854894
Li       6.35314787       6.88698510      11.62446418
P        7.70801235       9.81836601       8.11442135
P        4.65278651       6.06548558       6.19692203
O        7.08675309       2.81526057      10.26001682
N        8.19842081       8.26005450       8.05267166
O        6.17110688       9.97076001       7.97912629
O        5.18699906       5.77183227       4.77694083
O        3.35507808       9.86841635       6.52518649
O        8.08230400      10.30252750       9.63313899
124
Lattice="9.63908 0.0 0.0 0.0 10.3723 0.0 0.0 0.0 12.0957" Properties=species:S:1:pos:R:3 material=LiPON model=NEP89 temperature_K=600 phase="NVT production" display_name="LiPON｜NEP89｜600 K｜NVT production計算" report_figures="23_LiPON_lithium_MSD; 24_LiPON_transport_comparison; 25_LiPON_temperature_RDF" source_frame_index=2999 relative_time_ps=299.9 pbc="T T T"
Li       2.52192334       9.65085511       9.05986921
Li       4.58117845       6.15714944       3.14591536
Li       0.65832135       2.63128882       2.44639147
Li       2.45668597       8.13425583       6.02922530
Li       2.70858141       9.30022549       0.29741469
Li       8.40718564       1.48327449       5.58487147
P        3.31496372       3.50391230       1.19580729
P        0.39125121       0.36481050       0.43237954
N        1.09906059       3.72308653       4.46538729
O        1.68698330       8.74365874       4.12245147
O        1.81417294       3.78685070       1.42645309
O        4.80793479       0.29380475      10.75547142
O        3.63284223       3.01429321      11.83632267
O        9.09238818       9.49126450       0.52466589
O        8.21952995       7.08456999      11.24828139
O        4.00383872       2.50902213       2.11075741
Li       3.00851690       1.41778940      11.02424722
Li       9.54737365       7.85494093       1.71943231
Li       4.93319028       8.14866591       4.70423558
Li       0.43643376       5.05438433       2.71631782
Li       3.67845722       4.22631926      10.26036850
Li       8.47194232       2.20775297       7.77864572
P        1.42220184       2.79550726       9.02232218
P        9.43810178       4.33944646       5.25562741
O        0.85494406       0.75335718       1.91364260
O        3.09215841       6.00051231       9.33860412
O        2.18593089       1.48017365       9.27427328
O        3.87176234       0.57881564       4.34766322
O        9.55724912       2.86832113       8.85913567
O        8.90133840       3.24966034       6.20079390
O        0.25594164       6.33829843       8.73861932
O        2.19561140       3.46337447       7.82125907
Li       6.94965719       4.70699863      10.58331376
Li       7.28827573       6.42029425       3.20457487
Li       8.89271954       4.76340128       8.55728105
Li       8.04186078       3.64579726       0.59781156
Li       0.18800581       7.53954689       5.18998171
Li       6.60216588       0.95704054      10.18448345
P        2.42637072       7.80548031       3.06962186
P        9.11060607       6.08348947      11.95281949
O        0.72242269       8.13531216       6.96390002
O        4.01751728       5.03698048       1.28214387
O        2.24285458       6.30608660       3.34615814
O        6.26782105       4.26328417       0.33587957
O        1.79875635       8.12730782       1.64578193
O        8.74970243       4.67488623      11.41219348
O        1.58107131      10.29311473      11.59408439
O        3.92963354       7.98739200       3.10265374
Li       0.87977795       3.20459164      11.95260094
Li       2.31703324       5.26802334       5.20038506
Li       1.09968350       0.13923785       3.88699430
Li       4.00288034       1.37758343       8.57575887
Li       0.20852213       9.75276176       6.25485277
Li       4.85838147       8.63568028       7.49597416
P        3.87035524       7.17195345      10.07506387
P        0.06781921       7.80549629       8.34773651
O        0.97394898       6.35128131      11.58030070
O        1.84990684       3.68039467      10.17520037
O        5.37033210       6.63114507      10.27660939
O        3.45397286       6.38780665       6.04095002
O        3.84185282       8.29211426       9.04645751
O        0.90734673       8.66056016       9.36926484
O        1.68354932       2.72685101       3.85683502
O        3.25722311       7.71196551      11.36579190
Li       5.06723272       1.81910594       3.40646952
Li       1.93181609       2.42739898       5.97184532
Li       5.79057595       2.96832431       5.89383916
Li       7.32317414       7.54028791       6.57558025
Li       2.05471706       5.93525325       7.70214125
Li       4.77253560       7.96778601       1.21250006
P        7.42021256       3.55713570       3.40210600
P        5.38267431       0.00289868       0.06855363
O        4.07487807       1.64747828       6.55119575
O        8.90402098       0.13211312       4.30438033
O        9.18422405       1.65370527      11.90016270
N        8.42598995       4.61781409       3.93665540
O        6.21289461       1.26802356       0.50205350
O        6.02030502       4.32146722       2.84147340
O        8.29915273       2.92272770       2.25913594
Li       1.40331217       5.51301137      10.07015717
Li       7.75480149       0.99586196       1.47965362
Li       2.58578163       6.38338684       0.80615566
Li       5.45745670       2.78661958      11.79882127
Li       8.49757310       2.29138062      10.40582470
Li       4.54766379       9.86067414       2.92781337
P        6.22862940       3.43856528       8.80230669
P        3.34618418       0.46725724       5.74815222
O        6.36814486       9.08133232      11.97213006
O        8.51939943       0.24876342       7.31795271
O        4.69104184       3.62031382       8.94749970
O        0.35377209       5.61456151       5.88314460
N        6.98069461       4.79655042       8.63924662
O        1.77005465       0.65182072       5.95287982
O        5.75863340       6.78345895       7.09555219
O        6.56389529       2.47188496       7.52782592
Li       5.24383661       5.80420426       8.57875394
Li       8.22565011       9.20016336      11.12708349
Li       6.04552325       0.49536952       6.80968743
Li       2.63785617       1.28936303       2.15425969
Li       3.96987690       3.66979431       7.22854918
Li       1.31806701       8.09195515      10.87888788
P        7.64590564       9.47754901       4.11762464
P        5.70493107       5.18539003       1.44317733
O        5.09610482       4.59035287       5.99355192
O        6.81935581       2.56716045       4.37070505
O        6.83673767       9.83658059       2.84973357
O        8.93198999       6.09006674       1.39543299
N        8.29964448       8.10325376       3.62713891
O        6.02711421       6.64574496       1.47803190
O        4.24975161       9.93749136       1.01634917
O        6.78234722       9.03630873       5.23610492
Li       7.52956022       8.69688892       1.46317053
Li       0.61651612       0.16954751       9.69763142
Li       5.63650451       9.08678314       9.95282004
Li       7.22929068       6.81686735       9.40991398
Li       6.46147173       7.36087215      11.78778914
P        7.92416628       9.76365785       8.46012720
P        5.01990204       6.12960755       5.94457067
O        6.77587304       2.74740821      10.07238988
N        8.13748342       8.18680543       8.18612582
O        6.37587178       9.96843074       8.50866230
O        5.75152964       6.54829508       4.56672320
O        3.66498463       9.32043693       6.29024293
O        8.49004363       0.04454081       9.78178791
