124
Lattice="10.1931 0.0 0.0 0.0 10.9684 0.0 0.0 0.0 12.7908" Properties=species:S:1:pos:R:3 material=LiPON model=NEP89 temperature_K=1500 phase="NVT production" source_frame_index=0 relative_time_ps=0.0 pbc="T T T"
Li       7.19342046       6.75104565       4.07776895
Li       3.37851941       6.37162232       0.55948669
Li       8.01973309       3.13550287       0.16062209
Li       0.25602780       6.50983809       6.63303625
Li       5.58455887       8.70598916      11.25271633
Li       9.42367597       9.37789898       0.64448771
P        4.02561160       4.51380705       2.68251005
P        9.92367087       1.40837396      12.60244681
N        8.71277901       6.57871116       5.22301816
O        1.95347533      10.48126494       3.74912325
O        4.48444364       5.78704264       1.83065704
O        3.39187165       5.43564099      11.25072649
O        3.15266369       3.50367180       1.94530001
O        0.15533897      10.95203867      12.07239094
O        9.10065266       4.69731794       0.24208931
O        3.19287092       5.06661582       3.85720061
Li       2.43853785       4.18743594       6.45902231
Li       7.76700225       0.14324744       4.65111188
Li       1.66100602       3.03511446       4.44590413
Li       4.52658360       7.81228869       2.82030426
Li       7.68145298       0.68836750       1.34063876
Li       8.56959764       3.25428145       6.95975542
P        4.47987616       0.16121950      11.09161532
P        9.65915875       5.19447410       4.72786736
O        0.12721430       1.63751787       1.27322210
O        0.99483829       5.01297667       8.25276501
O        3.96880846       1.31835485      10.28146482
O        5.24149643       1.95526283       6.81834245
O        4.57487657       9.87281770      10.21983935
O        9.65209802       5.54827832       3.29337923
O        1.39640053      10.09395949       8.50483818
O        3.34495389       0.00922372      12.34392232
Li       8.18992453       8.50096960       7.05790369
Li       1.06565724       0.48452127       5.53207577
Li       1.41503259       4.39297001      10.52582564
Li       6.79333928       1.32339290      10.65338117
Li      10.08724100       7.80519193       2.20382327
Li       4.85309689       9.68385639       4.22832701
P        1.79820073       9.31397372       2.82396283
P        0.05053421       5.75597058       0.03226119
O        0.34031280       8.34476099       6.88511754
O        5.45522992       3.92806973       3.32985419
O        3.16053496       8.95232061       2.18508215
O        6.83016902       4.23855112       1.01998330
O        1.21740594       8.13372462       3.69718236
O        1.34091114       5.69138622       0.72961179
O        0.56099639       2.40597836      11.82095871
O        0.89587730       9.66590390       1.57848372
Li       2.64524311       6.81835763       4.84195766
Li       3.15123857       8.95094320       6.49946971
Li       5.49014624       9.83471941       6.84958878
Li       1.98327704       9.74456066       0.07726485
Li       6.83724539       5.34290874      12.07799302
Li       8.79098277       2.57301639      10.69046910
P        1.08990463       3.39413636       8.55192023
P        0.15049623       9.38856051       7.96480983
O        0.30269132       5.60648377      11.23756215
O        5.86661525       0.38765463      11.67627850
O        0.02028682       2.93351615       9.51853540
O        3.16673089       6.31929209       6.82395294
O        0.96770835       2.77683286       7.21477628
O        9.67403847      10.32461291       6.92884884
O        7.90046875       7.44339486       5.69005449
O        2.59412414       3.12747062       9.07419166
Li       4.13837535       3.85688282      10.99727208
Li       1.07500678       0.47820506      10.47450350
Li       4.25972109       1.63971398       0.29579715
Li       4.69457332       2.64898196       8.86892143
Li       1.67757990       5.93024121       2.59024156
Li      10.03694191       0.23122537       2.49748794
P        9.02711857       2.51782440       4.60049423
P        3.72978193       6.90732367      10.98616763
O        3.91877713      10.68621271       6.69491124
O        7.71419128       9.62780222       0.91216784
O        8.35248510       1.46979096      12.58087071
N        8.75101000       4.03485915       5.28693665
O        3.35241575       7.85199933      12.05487518
O        5.93898893       1.84779727       1.75397499
O        0.28227845       1.95190732       4.47670410
Li       5.59431755       1.51738676       3.47528901
Li       2.78965908       9.05469322       9.90815772
Li       8.71459798       4.62143277       1.86576690
Li       3.04531462       1.25850108       3.11037113
Li       5.90790345       7.77640042       8.60894966
Li       9.52191529       5.27910674       9.47039213
P        6.65616502       3.93013744       9.50841083
P        4.16526565       1.24904851       5.94750879
O        3.20481824       7.17971270       9.52085222
O        7.11199304       9.54972772       8.37614788
O        5.14777754       4.30418274       9.40943221
O        0.77753751       5.02220718       5.45108677
N        7.15392719       2.49660993       9.19598777
O        3.03322291       2.27631073       6.28032435
O        4.49593971       7.63423869       4.89611552
O        7.36946354       4.37099903      10.81457302
Li       7.32686488       5.68837074       6.62176960
Li       1.45082321       6.69970269       8.57223804
Li       4.31623999       5.76377014       8.24771057
Li       8.26417017      10.33718568      11.92167603
Li       1.59462061       3.12305212       1.46908016
Li       4.14258591      10.74346207       8.56866500
P        7.36853775       9.26603728       2.41660207
P        6.54785830       3.15960209       2.16465390
O        4.88060976       8.09363282       7.21194871
O        8.13901931       1.76954885       5.64754905
O        8.47024529       9.91513901       3.33842612
O        9.95225775       7.30460201       0.55257029
N        6.25574063      10.28002623       2.89535693
O        7.97040421       2.99094153       2.91795976
O        5.36869346       7.15669659      10.83503415
O        7.10430120       7.76113676       2.40933310
Li       9.59182519       7.31916081      10.79516874
Li       2.04008788       0.83197026       7.85853365
Li       4.87552113       3.93559400       6.03947112
Li       9.81439112       8.48042571       4.42396374
Li       8.70207817       1.06393049       7.82014131
P        7.99953451       9.50570901       9.63147396
P        4.56283967       6.80055287       6.26549919
O        7.47118946       4.37036063       8.30436627
N        9.50142043       8.83536522       9.20302807
O        7.89488084       8.67263860      10.94329408
O        5.59460864       5.80104392       6.48372887
O        4.19642363       0.89208209       4.45183789
O        8.34077416      10.86642277      10.18137206
124
Lattice="10.1931 0.0 0.0 0.0 10.9684 0.0 0.0 0.0 12.7908" Properties=species:S:1:pos:R:3 material=LiPON model=NEP89 temperature_K=1500 phase="NVT production" source_frame_index=30 relative_time_ps=3.0 pbc="T T T"
Li       6.99385318       8.59485963      11.14527152
Li       9.95175149       3.89456997       1.30292706
Li       9.64571634       4.48058384      11.31921994
Li       4.83508010       9.54724129       4.87083302
Li       0.02079074       6.54371323       2.26962341
Li       7.27852533       3.94643586       0.72717873
P        4.66624127       4.93562251       0.92855505
P        9.08541109       1.54096247      12.44893095
N        0.11494456       4.54204781       5.78092850
O        0.41686879       7.85778219       4.53170346
O        6.12323118       5.05503944       0.04927165
O        5.31749314       8.16182763      11.53287866
O        3.75098550       4.02322526       0.05627277
O        7.81633722       0.72057954      12.17388439
O        8.22886119       6.48858665      12.04555893
O        4.29682344       6.43062150       1.22484821
Li       7.08814169       3.34741184       6.18099181
Li       6.38992838      10.74040330       0.82441446
Li       1.48104334       8.07360067      10.42489423
Li       3.78791556       8.06827308       3.25631146
Li       3.82990262       4.83740482      11.04109042
Li       8.86333751       6.54143946       9.12502443
P        3.27972127       0.51583202      12.00897474
P       10.00946789       4.41915650       4.01676429
O       10.10391647       0.66106815       0.40928808
O        1.76937065       5.85487131       8.61794327
O        2.50699302      10.30791196      11.29981608
O        5.52536329       1.79061003       6.68395129
O        4.74972271       0.35111759      11.28218941
O        9.12096300       5.76187931       3.73419495
O        0.96314949      10.14649761       9.16598283
O        3.23458772       0.29852276       0.67726198
Li       3.60627081       6.61148755       8.25777610
Li       3.16962979       8.55423417       7.10893364
Li       2.38147720       2.31538430       3.88949597
Li       9.79898530       2.68482908       9.56695507
Li       9.40784473       9.74947740       1.19804455
Li       2.63402695       5.97323567       2.83707565
P        1.44032645       8.75161625       3.83952623
P        9.72551579       6.82636031      12.41468296
O        0.75807823       8.84570606       7.16093721
O        5.27150860       4.20632247       2.30694250
O        1.93732106       8.35557560       2.49145716
O        5.91759303       1.74184957       1.48196974
O        0.63635621      10.20405551       3.72886063
O        0.32017149       5.54347570       0.15894264
O        9.79709775       1.81475782      11.08528829
O        2.81993319       9.35479340       4.69919988
Li       0.82434236       6.89064452       6.40633648
Li       7.80208067       1.39640909       7.31070556
Li       8.13769307       8.73597507       5.10274821
Li       4.16374632       0.38464305       2.02037343
Li       6.09028175       6.91603924       0.23146248
Li       3.23158510       8.86365715       0.55059333
P        2.00106594       4.54532013       9.46865021
P        0.20194404      10.00278225       7.94997416
O       10.10211150       7.24070321      10.97726590
O        2.50000086       1.88260341      11.45267083
O        3.46834344       3.86801284       9.14365191
O        3.92466795       6.19911691       4.37989134
O        1.77202183       4.77732261      10.94659910
O        0.28555837       0.35658658       6.99984558
O        9.94485095       5.17675091       6.84016962
O        1.22464551       3.38600250       8.64565078
Li       6.54783973       3.47038449      11.77239092
Li       5.67931746       8.79719812       7.06647155
Li       8.66108958      10.65496343      10.51406013
Li       9.45651120       0.03577662       5.45337195
Li       1.57480068      10.09869372       5.75145235
Li       1.80594092       1.73235285       8.24187556
P        8.40997722       2.15391976       4.33313324
P        4.10241859       7.74291969      10.48859967
O        3.93895417       0.60987902       8.25121514
O        6.95407891       7.54008134       2.22211028
O        8.79754447       2.89988319       0.33181170
N        9.14130876       3.11098632       3.36935017
O        2.89935782       7.37238537      11.51142586
O        4.36886572       2.13662070       3.44062807
O        8.60364747       0.72450127       3.81007252
Li       7.98648043       5.49628229       5.73971928
Li       1.48269290      10.92666406       0.82287139
Li       8.18233404       0.85308269       1.87601433
Li       7.66528039       5.81020829       2.33027169
Li       5.81145056       0.39878964       4.79132318
Li       1.80527103       5.97815549      12.12878223
P        7.10153292       3.98711350       9.39664859
P        4.39668293       0.85496932       6.86087948
O        4.47574141       6.26622226       9.94230455
O        7.61235367       9.52831472       6.59431803
O        5.94725471       4.04025897      10.37461175
O        1.13041815       4.47689606       3.16661825
N        6.59020576       4.75091073       8.09764836
O        3.16337622       1.68257968       6.28316245
O        6.08910061       5.99008815       5.26165625
O        7.29630927       2.52769811       9.07391721
Li       5.99103330       1.41624208       8.78288295
Li       3.80034511       2.06264189      10.34112550
Li       4.66987491       4.11104579       7.87272356
Li       5.27834813      10.02840799       9.68834314
Li       2.15095109       3.17252140      12.58358795
Li       0.44193777       2.65456901       6.50827986
P        6.49960111       8.94214235       2.69594123
P        5.58216839       2.52996372       2.73286204
O        4.52877659       7.17450639       6.71373340
O        8.59100440       2.41486573       5.84689858
O        6.40461440       8.98792633       4.31862278
O        9.64567153       7.90153063       0.77397798
N        7.42908958       9.99248115       2.03779640
O        6.89053665       2.56261721       3.81312472
O        3.88527950       8.73691769       9.27572437
O        4.87485151       9.55471585       2.34217825
Li       5.79397841       6.38175462       8.56954682
Li       1.15664870       0.52867541      10.63081700
Li       3.40616590       3.07577719       6.95470621
Li       7.19512515       6.87785154       4.42282548
Li       2.90698474      10.21027048       9.34497377
P        7.67353540       9.60491050       8.12107905
P        4.63204060       5.89959325       5.68312996
O        8.67317742       4.50987897       9.80823903
N        9.11628361       9.64423979       8.86138617
O        6.81904764       8.44788088       8.59900061
O        3.99514978       4.80774103       6.42993651
O        4.71377292      10.42766174       6.23168891
O        6.99096160      10.91564331       8.74988623
124
Lattice="10.1931 0.0 0.0 0.0 10.9684 0.0 0.0 0.0 12.7908" Properties=species:S:1:pos:R:3 material=LiPON model=NEP89 temperature_K=1500 phase="NVT production" source_frame_index=60 relative_time_ps=6.0 pbc="T T T"
Li       6.99141625       6.08280931       2.40617677
Li       7.24036971       3.87618794       0.52900487
Li       8.63302429       6.03273225       4.84698919
Li       3.33559333       1.87013705       9.01791240
Li       7.81769647      10.50044483       7.92161091
Li       9.36721728       4.93487452      11.21634284
P        4.68408978       4.72847210       1.39161914
P        7.77811505      10.96197141      12.37277198
N        0.76667381       3.23599230       3.19717954
O        0.67878042      10.06686183       2.83055255
O        5.88202960       5.04552215       0.60311017
O        3.69196376       9.38258587      11.20381198
O        3.95153487       3.65248038       0.70046588
O        6.38420049       0.38815663      12.72546564
O        1.29827861       7.06701931      10.64306255
O        3.84416210       6.00970580       1.68698970
Li       1.63764483       5.94813903       4.13801768
Li       7.69109225       7.85092556       0.09179018
Li       9.78823615       2.40913032      12.52885323
Li       4.20387917       5.69072848       3.85860206
Li       6.64799430       5.91097302      11.53595032
Li       1.86374010       7.81724604       6.29703316
P        2.30442158       1.18901055      12.00885350
P        9.32685482       3.63299188       2.70459648
O        8.22751584       9.73852713       0.33852341
O        1.77827753       5.15677532       8.22960783
O        1.13659717       0.00251400      11.82428727
O        4.32021260       2.04244404       7.01919343
O        3.25118283       0.88995518       0.59918976
O        9.42105190       5.12923677       3.05572594
O        0.98249580      10.39749424       9.06914834
O        1.41274897       2.42917900      12.06175171
Li       2.80723082       3.71399882       7.03544342
Li       2.06230149       0.62273630       3.82029006
Li       8.40931505       4.63200324       7.28873342
Li       3.13861124      10.19200278       9.74802888
Li       5.11394843       7.32483859       1.31038328
Li       2.49154775       7.15278073       1.36983900
P        1.55457978       9.00587916       3.43035338
P        0.75484526       6.93304127      12.00834566
O        1.52264608       0.55490747       6.62960492
O        5.09985502       3.99919907       2.95643945
O        0.99021028       7.63451543       3.62670872
O        5.49330679       1.54272972       2.37640133
O        2.76658284       8.95854544       2.35789318
O        1.75238735       5.83493266       0.06151694
O        8.10134830      10.84802304      10.87413200
O        1.97604393       9.42669881       4.88638771
Li       7.14927184      10.06324119       5.53148408
Li       4.65502323       0.00426432      12.48909168
Li      10.15359521       6.64829463       1.61863242
Li       4.52312755       8.06442160       4.94992250
Li       9.93236994       9.60547401       0.45654222
Li       1.25422784       4.27751811      11.99301797
P        1.86975484       4.05403291       9.36637526
P        0.53868735      10.88505361       7.65358015
O        1.09759630       8.27318240       0.09397039
O        3.21723677       1.37008736      10.90779025
O        3.14773308       3.94800008      10.00778498
O        4.19251504       5.20148846       7.51276470
O        0.56492279       4.30490683      10.24388453
O        9.44206715       0.66986810       7.90779574
O        1.79609046       3.73956033       3.59521898
O        1.63207384       2.75800609       8.35229540
Li       2.37220956       2.47802084       1.51918748
Li       6.05813460      10.81899392       9.01445239
Li       0.17382835       0.61226556      10.33550308
Li       0.75924133       5.76963018       6.42182395
Li       4.98660981       3.67745868       7.63988657
Li       3.08703803      10.48272518       6.43579470
P        7.73840564       2.07703171       4.88158467
P        5.01179078       8.46044584      11.28502573
O        6.44179940       0.71992277       7.30259370
O        7.78784010       8.50362569       4.57917158
O        8.73763555       1.03313818       0.13203808
N        8.62173284       2.84575376       3.86944926
O        4.50619976       7.06300129      10.95792656
O        3.69252941       2.02292475       3.88188964
O        8.18579813       0.66870207       4.88553474
Li       6.12153690       6.84484181       9.44870575
Li       8.88414237       0.25780207       3.04243685
Li       4.65296897      10.65861803       3.59096966
Li       3.44249887       6.05776010      12.09702463
Li       9.83412013       2.40906770       7.79209692
Li       4.25532204       3.06094003      11.06996292
P        7.24733659       3.42542777       9.88282986
P        4.93312805       0.62096953       6.97531951
O        5.47780242       8.60061834      12.77052283
O        7.76486232       8.46257435       7.48658980
O        5.93606784       2.83129202      10.01267439
O        9.22592314       3.05738074       1.33331451
N        6.58879597       4.82559854       9.34135584
O        4.13013386      10.67830411       8.00213807
O        2.92326280       7.67129815       7.68943741
O        8.27642672       3.35649568       8.70064125
Li       6.35948234      10.42836057       1.47536432
Li       4.90888786       2.10344449       0.72635565
Li       4.82063365       8.64259273       8.19667875
Li       8.23523376       8.51594346      10.31607922
Li       2.50991398       6.73928455       9.69543830
Li       0.13287097       6.03164143       9.03383723
P        6.90919462       8.38485433       3.28722472
P        5.12219255       2.42731577       3.52951179
O        5.18491773       7.31739559       6.85620453
O        8.14051710       2.89525909       6.23685710
O        7.27980242       7.95488913       1.80226150
O        9.46368956       6.64741155      12.24920479
N        5.78399521       7.31570307       3.59310343
O        6.03780255       2.33084101       4.72293712
O        5.96601869       8.92057715      10.07074637
O        6.24466818       9.75252836       3.25497868
Li       1.11838821       9.27215736      11.43978303
Li       6.65248725       7.33724952       6.01155313
Li       3.45701180       9.85972737       0.70671813
Li       9.93933243       8.72913376       4.93990679
Li       1.16539970       8.44410105       9.30438763
P        9.25113023       7.94434945       7.77156758
P        3.77525727       6.63237903       6.82572909
O        8.04416583       3.87408655      11.11029448
N       10.12989088       9.36132199       7.36521549
O        9.89796530       7.06364686       6.54650377
O        3.44228628       6.44929486       5.29122919
O        4.87303996      10.75781482       5.68216569
O        9.50190181       7.50782636       9.20337699
124
Lattice="10.1931 0.0 0.0 0.0 10.9684 0.0 0.0 0.0 12.7908" Properties=species:S:1:pos:R:3 material=LiPON model=NEP89 temperature_K=1500 phase="NVT production" source_frame_index=90 relative_time_ps=9.0 pbc="T T T"
Li       5.84028140       2.47960951      12.40282004
Li       6.05209092       0.17610821       0.56036372
Li       9.07449621       6.00854269       3.14529896
Li       3.28780403       2.91814363       5.12286544
Li       5.65877476       1.62753069       4.59306671
Li       7.10597425       7.29875871      10.40427616
P        4.67615572       5.25596555       1.50167489
P        9.16201983       0.30376333      12.28554841
N        1.06554297       4.28533749       4.81901301
O        0.87177288       9.52293325       2.49636889
O        3.62929990       5.39333788       2.55744494
O        3.78356578       7.71672197      10.22886094
O        5.88419115       6.15956109       1.57403624
O        7.85085832       0.24884228      11.49001545
O        8.56329399       7.30276626      11.51087510
O        3.92324649       5.47946771       0.10735169
Li       2.33821419       6.33105168       4.04283686
Li       7.06120738       4.63721820       0.96957410
Li       3.08360947       4.26593843      11.64131807
Li       9.47732189       9.24702276       5.16337429
Li       8.33502200       3.48108993       7.41881560
Li       9.96555041       5.95165149       5.95060287
P        3.15464535       1.23220667       0.26548594
P        0.62972944       3.22160989       3.65353512
O        9.01177251      10.89742090       0.90596083
O       10.16292325       3.47654162       8.04068787
O        2.25317197       0.25903186      12.17716048
O        4.15380984       2.01906081       6.55561442
O        3.36735294       0.60070531       1.72227272
O        0.39240643       4.10156931       2.34110729
O        9.45873606       0.46337539       9.17649705
O        2.59939720       2.78012877       0.21998497
Li       8.61201675       1.06887554       5.18479970
Li       5.39830559       1.13623774      10.17292706
Li       7.23274893       6.42461924       4.75082320
Li       3.17953870      10.40693612       9.83442550
Li       3.51699009       2.48939538       1.98374262
Li       4.61016158       6.42248512       9.22082627
P        1.48117878       8.77548012       3.80938490
P        9.33352340       6.60729086      12.75847128
O        9.61499644       1.15747998       6.75975321
O        5.20423427       3.72143359       1.10918582
O        1.05246849       9.48873557       4.95636805
O        6.14493320       1.57012514       2.20272860
O        0.73939455       7.36825021       3.76234097
O        9.01657628       5.15196580       0.10494813
O       10.11980310      10.28155182      11.55718018
O        2.94649985       8.49880825       3.96302838
Li       7.55948578       6.35585127       7.90662716
Li       6.84660069       1.85080451       7.13973584
Li       8.56278083       1.72610413      10.00757297
Li       4.23213251       8.60348149       5.49801896
Li       1.87870353      10.36376451       1.08242698
Li       1.14069142       8.97200435      11.71363413
P        0.93455085       4.02130925       9.13869821
P        9.20613119       0.08749540       7.67317990
O        0.81417574       6.81825523      12.57757105
O        4.55487414       1.34386577      12.51019452
O        1.66172727       2.89292101      10.10563414
O        4.85037334       4.87835745       7.40554801
O        2.06164619       4.76964982       8.34628810
O        7.61192933      10.82162247       7.80241194
O        2.16106174       4.80257107       5.25692960
O        0.10477388       5.00842763      10.03198285
Li      10.14900823       0.18659180       2.90005199
Li       9.16659456       9.80997877      10.16585489
Li       1.20711685       1.78066242      11.62205594
Li       0.53470061       2.95266376       6.22447576
Li       6.34412333       9.75599662       6.89079165
Li       0.73373577      10.94787770       5.92690029
P        8.04480377       3.87716513       4.51985503
P        4.42564290       8.68406960      11.29405003
O        5.41623961       0.89049552       8.14203127
O        5.83510923      10.54486350       4.57694696
O        9.67717412       1.75421199      11.99870830
N        9.26665642       2.83802918       3.99167578
O        5.78887639       8.06575998      11.77823775
O        4.82151070       2.88997708       3.57445207
O        7.08479281       3.06740433       5.59846238
Li       5.13071323       4.46175474       4.19566409
Li       8.04277309       1.36026321       2.55991248
Li       5.71925179       6.24361133      11.43600215
Li       3.99198300       3.54255265       8.19368526
Li       8.78995823       5.76324686      10.24860556
Li       3.58184608       7.60745679       1.64025366
P        6.40879436       3.83203546       9.93847993
P        3.96231595       0.65667991       7.38924487
O        3.40925601       8.85288179      12.47254596
O        8.68687161       8.11378066       8.56501322
O        6.63557124       5.37112955       9.96987051
O        1.62516032       2.13691055       3.38215123
N        7.24121623       2.89467720      10.86243285
O        2.94525292       0.53666809       8.51293237
O        3.66741251       7.06838491       6.62854297
O        6.78455185       3.43614901       8.50257712
Li       2.01570678       5.40190783       1.77253546
Li       4.19940749      10.47769559       3.17761381
Li       6.15825449       8.26956860       1.19102425
Li       0.68501890       6.84576488       9.86097003
Li       9.62006078       3.53621421      10.97883610
Li       2.07268768       6.23563415       7.08075151
P        6.82081280       9.71296966       3.80100375
P        5.92296865       3.01713936       2.34535793
O        5.87337655       7.13362063       7.27628918
O        8.44464304       5.19582032       5.17617715
O        6.41370188       9.63243218       2.31363679
O        8.86857347       7.21364927       1.41346293
N        8.19689047      10.53203136       3.54760543
O        7.20648515       3.94012230       2.90460816
O        4.86650715       9.85283015      10.40889447
O        7.17921852       8.49119716       4.65541517
Li       1.43280150       1.27105062       9.04916577
Li       9.54508626       3.38323188       0.59882505
Li       2.88544115       6.84606006      11.86520049
Li       9.36629159       9.49382190       1.68454761
Li       2.03426003       9.80973641       7.53878788
P       10.10143586       8.42514227       8.07664014
P        4.97797359       6.17661086       6.40525186
O        4.88626927       3.63938547      10.33008332
N       10.19201441       9.80607813       7.30247512
O        0.28065750       7.47804264       6.94203936
O        5.51763370       5.83348695       5.01722636
O        3.65619269      10.20479430       6.21865186
O        1.17343442       8.59831644       9.11314405
124
Lattice="10.1931 0.0 0.0 0.0 10.9684 0.0 0.0 0.0 12.7908" Properties=species:S:1:pos:R:3 material=LiPON model=NEP89 temperature_K=1500 phase="NVT production" source_frame_index=120 relative_time_ps=12.0 pbc="T T T"
Li       4.01074585       4.05642180      12.52311403
Li       6.10228303      10.11182400       0.27059146
Li       1.48915892       5.58908518      11.28093408
Li       7.91621580       1.44409767       1.51216162
Li       8.25535153       4.38505378       1.91944944
Li       7.11805193       1.51021296       8.27377513
P        3.77404666       5.91283608       1.94609262
P        9.02026449      10.90377800      12.56038295
N        9.91325049       2.86222764       5.41570101
O        2.08527443       0.15824879       3.31000724
O        2.94192357       6.17582502       3.22828465
O        3.37147293       8.67068233      12.28710454
O        4.74592732       6.92485826       1.56120153
O        7.51966563       0.29060120      12.31224988
O        9.40804571       4.43941957       0.75486796
O        2.98289462       5.37217029       0.65019707
Li       2.96831383       7.91351908       4.18831165
Li       3.95622060       8.69768179       1.38849655
Li       1.94574953      10.81889126       5.09510845
Li       9.86188818       9.23297004       4.93425981
Li       8.95134136       4.80690292       9.79645911
Li       0.94986515       6.51169683       7.51133377
P        3.40567139       1.44512382      12.28380109
P        9.97312455       4.25343196       4.36743013
O        9.12471707       9.23796706       0.03993790
O        3.03482790       4.11842571       8.97437330
O        2.51506950       0.48463904      11.45284478
O        4.04552738       0.70763561       5.59514949
O        4.28513989       2.47321235      11.38288060
O        0.10231494       5.58255930       4.98833077
O        1.07077584       8.43541959       8.11341196
O        4.44841323       0.58052564       0.12122030
Li       6.14855208       1.77751320       4.84213506
Li       5.32516814       8.69626004       8.26192978
Li       7.65897591       7.52636023       5.37087052
Li       6.24391696       9.93166360      10.82195765
Li       4.12905210       0.04923245       3.21962734
Li       4.64195028       3.15037345       9.74836570
P        2.24472392       9.66686306       2.84465488
P        9.37673292       6.00713416       0.67819123
O        0.90959062      10.12319769       6.33164533
O        4.23638001       4.23566793       2.52461172
O        1.38681250       8.85631489       3.80598360
O        6.51335428       3.96228978       1.62706510
O        1.67014792       8.97759587       1.55088747
O        9.87382019       6.70061549       1.96571167
O        9.79246015       0.32113025      11.25610429
O        3.72304003       9.12476355       3.13697941
Li       6.87046435       6.26139766      10.48384433
Li       8.95204016       5.39203245       6.93514495
Li       1.96553176       9.88515002      12.75879693
Li       0.69196124       7.52474848       5.00559237
Li       5.49205731       7.84628624       3.20974678
Li       8.19324045       0.01630100       9.18585978
P        1.54445300       3.85158422       9.37405155
P        0.43667959       9.62520824       7.69484200
O        0.16506416       6.56390590      12.24586594
O        2.60974397       2.09329156       0.68546579
O        1.48315520       3.66844233      10.97357202
O        3.99600315       5.22904711       6.55970209
O        0.75057041       5.06824598       8.93592036
O        0.33306521       0.02391017       8.63021348
O        0.35667520       2.67520997       6.47682610
O        1.20377727       2.44792768       9.03386139
Li       2.22190075       7.50567823       0.54170928
Li       7.65319329       9.94793333       6.46636145
Li       2.07086798       4.00126782       2.05985465
Li       9.55997507       1.95936526      10.01375200
Li      10.12201898       8.59263629       2.08926197
Li       0.47534093       0.74645434       2.80982624
P        7.14395144       5.05927299       4.45665484
P        4.54843280       8.01379391      11.51059123
O        3.58084919       2.09703431       7.55953121
O        7.65058983       0.23023264       3.28279294
O        9.72801218       0.60552176       1.02621176
N        8.41395792       4.23300611       4.03534317
O        4.76743061       6.54242584      11.33141598
O        5.58740902       1.83491630       2.43665868
O        7.31661647       5.27712599       6.06762677
Li       2.04151065       4.06726389       7.13870828
Li       7.13044721       3.92391710      12.64017225
Li       8.93305219       8.43286013      11.22654329
Li       3.22905891       8.44487321       8.68680196
Li       3.65179336      10.03660992      10.96932294
Li       6.14628821       1.96590357      11.57120056
P        6.90765868       3.46938024       9.58555178
P        4.54356198       1.09877743       7.06309544
O        5.90362794       8.49330884      12.15984608
O        7.67346261       9.17352963      10.00215144
O        6.98338672       4.29350585      10.81944764
O        0.50341876       4.03615610       3.03770613
N        5.86481434       4.16535901       8.66835957
O        4.56128201      10.84404790       8.07056657
O        4.23321068       7.28254473       7.90655691
O        6.76083608       1.99629382       9.77177666
Li       3.95378030       4.63584418       4.50590322
Li       7.39670518       8.39167202       0.24579665
Li       5.87213298       6.17844777       0.28494547
Li       4.58746060       5.86081967       9.27075494
Li       0.85417051       1.50367777       0.65211223
Li       1.72346688       0.98261561       7.89212673
P        7.36279837       9.66190520       3.43259129
P        5.62387309       3.40273686       2.66004121
O        4.44231186       7.25669338       5.19284336
O        6.75900325       6.20345364       3.59446633
O        8.59110179       8.88036587       3.94654750
O        7.97498961       6.68186587       0.40321515
N        6.25595312       9.55917162       4.37400912
O        6.07216150       3.75030492       4.34570415
O        4.77835990       8.79219116      10.21209350
O        6.97070023       8.95990993       2.17154090
Li       1.27687898       1.28128009      10.67749713
Li       7.77318558       7.22375932       2.31043393
Li       5.13207516       3.92142976       6.47792132
Li       1.32030442       6.37500259       3.03215971
Li       4.93233036       8.93819618       5.09910303
P        7.97613802       8.46358668       8.49976244
P        3.91920462       6.68988373       6.53824262
O        8.34246433       3.29016769       8.79895473
N        9.07653407       8.75735062       7.48780368
O        6.81693776       8.47048126       7.22514222
O        2.40470284       7.25846633       6.39027751
O        5.92823192       1.89397094       6.75754136
O        7.98938266       6.90618687       8.91925273
124
Lattice="10.1931 0.0 0.0 0.0 10.9684 0.0 0.0 0.0 12.7908" Properties=species:S:1:pos:R:3 material=LiPON model=NEP89 temperature_K=1500 phase="NVT production" source_frame_index=150 relative_time_ps=15.0 pbc="T T T"
Li       2.00602417       2.88735409       2.57497566
Li       7.12611354       1.35791620       2.07685761
Li       1.63548539       5.59564931       8.32335690
Li       9.26186627       5.25741509       1.89209798
Li       8.50014466       0.63030418       6.43567242
Li       5.53823114       0.28391284      11.58673439
P        4.06044932       5.29168960       1.24013832
P        8.65842586       0.50721694      12.30549206
N        0.27472145       2.40010078       4.65250791
O        2.75400478       9.68601612       4.62128131
O        2.71026455       5.19165790       0.53761365
O        3.55377611       8.00102325      12.07223274
O        4.50603378       6.56570715       1.80136829
O        7.32245531      10.78111579      11.98772436
O        9.51017570       4.97019342       0.15938541
O        5.07973952       5.04122944       0.16831336
Li       4.43162708       5.35922078       3.75182865
Li       3.08543546       6.15162427      11.53960612
Li       3.72920592       7.78275735       4.39830383
Li       1.07736827       8.02983265       6.35651310
Li       5.68200660       9.93816676       5.46244669
Li       8.72522118       6.89172570       9.73282873
P        2.93947895       0.95571956       0.28462170
P        9.99820310       3.93170357       4.82072223
O        8.52390203       1.81180193       0.44681965
O        3.44102074       3.28473119       9.78498389
O        1.95504659      10.81747076      12.44701499
O        4.88977008      10.21558230       7.01608022
O        1.84537821       2.13359861       0.93569351
O        9.74062333       4.22482978       6.32989476
O       10.19049791       0.97190805       8.30655226
O        3.98557938       1.55999529      12.14748377
Li       7.77372423       1.14972980       9.88473470
Li       4.08347454      10.36914354       9.69509081
Li       9.43046398       9.61241340       4.96017832
Li       4.19731201       0.65776644       3.09606996
Li       3.39331486       9.18258515       1.36782645
Li       2.83440125       9.60121823      11.86361807
P        1.71851301       8.82659989       3.54821809
P        9.59944539       6.62048605      12.71297633
O        1.88403322      10.65620580       9.67292149
O        3.95931373       4.20788841       2.58083690
O        0.74521353       8.28952706       4.50011587
O        6.13298508       2.84669710       1.94815298
O        1.18022252       9.89666527       2.60910701
O        7.96670021       7.24715299      12.34870343
O        9.42308022      10.31729593       0.25626861
O        2.41468150       7.75763012       2.73074510
Li       6.07593692       9.40103550       9.04959040
Li       8.69838847       3.00668617       7.31460864
Li       9.28255460       1.32362772       3.28562769
Li       1.66273518       7.19817846       0.60874867
Li       5.96582214       5.63843919      11.53480169
Li       4.83181912       2.96193504       0.78759938
P        2.05320035       3.96614373       9.92903885
P        0.80597939      10.68939990       8.54658217
O       10.00373020       7.39919028       1.13157660
O        3.62534279       0.37697186       1.40619317
O        1.16896521       3.29167634      11.00621005
O        4.35212828       5.29880618       7.26473062
O        2.27434298       5.43451932      10.23989165
O        1.46289066      10.04252880       7.21454431
O        0.18218171       1.17630087       5.21437177
O        1.44898437       3.92666175       8.51356703
Li       4.57102849       2.32710988      10.73220506
Li       5.90121362       1.56327839       5.19024605
Li       0.51620942       0.64403364       1.11343803
Li       9.75650981       9.73749901      10.62462525
Li       1.62851442       1.40446149      10.39029678
Li       8.09614869       7.43062244       3.57598013
P        7.44577752       5.02884209       4.19568557
P        4.43102836       8.22389628      10.78596579
O        4.48154311       1.57801422       6.86160202
O        8.05136701      10.90219032       3.03448088
O        9.38498664       0.82354044      10.91966935
N        8.69473155       4.06251646       4.04420155
O        5.12795858       6.99349694      10.14358250
O        4.80346867       2.14296171       4.07664883
O        7.23766431       5.90732386       5.39358305
Li       8.82198666       5.74728875       7.34560986
Li       8.84965924       3.78126464      11.58755988
Li       9.90086823       9.73716404       1.69992623
Li       4.19018950       5.18185343       9.39161887
Li       1.80573393       8.03226883       8.65971525
Li       1.58014752       3.85105060      12.65013793
P        7.33551613       4.04136740       9.25664035
P        5.46940973       0.62426151       7.44911888
O        5.41814898       9.31489146      11.08629134
O        8.63390707       9.33885426       6.62283707
O        6.58548993       4.27943783      10.57238678
O        0.98975948       4.54721476       4.00789117
N        6.44386691       4.03604248       8.02157097
O        5.76110363       0.47465365       9.09058691
O        4.73431669       7.55561664       6.46724420
O        8.18612489       2.78841773       9.18987635
Li       3.39105439       3.01758566       5.29679947
Li       6.40648185       6.99419907       1.71966028
Li       7.37376375       3.85634322       1.16325758
Li       5.57105341       7.36199490       8.17115169
Li       9.90947297       3.05455319       8.84258323
Li       1.94517810       5.64011232       3.34028747
P        6.94359869      10.00320272       3.38707058
P        5.24441411       3.39140585       3.12023845
O        3.23924002       5.91293015       5.15390789
O        7.50398506       5.46822976       2.74470434
O        5.76839867      10.89880918       3.82463122
O        0.18305348       7.03653675      11.41415133
N        6.59502606       8.91908219       2.35652484
O        6.04732212       4.24766299       4.18597540
O        3.59578153       8.69041408       9.71394304
O        7.47355152       8.98853493       4.39271841
Li       3.33937410       2.46110431       7.65409772
Li       7.75636486       9.08058842      11.70715918
Li       5.58333340       4.20880037       6.40390438
Li       3.20939905      10.52895211       5.89240864
Li       1.01949202       5.56146257       6.17283037
P        8.92839975       8.73533566       8.01769989
P        3.72098697       6.38042061       6.57079333
O        8.13676447       5.32373989       8.96963113
N       10.03226460       9.49154074       8.90534942
O        9.55787853       7.34810425       7.73700198
O        2.20961652       6.87471147       7.09394214
O        6.84420092       0.99432827       6.59327408
O        7.77761620       8.53488176       8.95944518
124
Lattice="10.1931 0.0 0.0 0.0 10.9684 0.0 0.0 0.0 12.7908" Properties=species:S:1:pos:R:3 material=LiPON model=NEP89 temperature_K=1500 phase="NVT production" source_frame_index=180 relative_time_ps=18.0 pbc="T T T"
Li       2.13371912       3.09240007      11.92639940
Li       0.34456468       9.96075676      10.78602402
Li       1.67005312       0.87388380       9.47515003
Li       4.27326433       2.21567727       9.96519661
Li       3.19493819       3.19541432       5.97743364
Li       7.66413235       2.91326506       1.64082128
P        5.05745722       4.76009501       1.05105412
P        8.04111412       0.62560088      12.43053707
N        0.25757236       3.20150368       2.69750248
O        2.42193722       8.88590166       2.99651655
O        4.18499273       3.98769752      12.73022756
O        6.45919645       7.51463885      12.14186794
O        4.17407596       5.99600284       1.63602588
O        6.70109668      10.88725588       0.14375830
O        9.25485526       5.85976907       0.38381678
O        6.57388569       4.72134753       0.83692599
Li       4.93803520       7.87627391       5.21350018
Li       9.99773791       2.63078749       0.33999163
Li       0.79645321       2.05100363       6.66957168
Li       3.59471463       5.16067589       4.16894891
Li       9.05105466       1.13753483       4.44890619
Li       0.61565031       6.22991980       7.42735507
P        2.30739457       0.62022126      12.61700579
P        0.70836831       3.51395793       4.27663163
O        7.73147869       2.13719829      12.66663846
O        2.61177691       3.81816797      10.28658856
O        2.95245935       1.25364093      11.16245919
O        5.76330996       0.58025199       7.00644633
O        1.88905733       1.94267982       0.38229273
O        1.65715059       2.55978132       4.97953923
O        9.80321678      10.96139217       8.84841186
O        3.60102189       0.13889765       0.81119976
Li       2.44190787       9.61102737       7.16427612
Li       6.27765738       5.41701764       6.75287784
Li       5.40360288       9.49637500       6.18507622
Li       0.86523119       1.32301255       2.13035281
Li       2.77559318       9.11868714       0.83221871
Li       3.65771993       9.79645284       9.85741018
P        2.27460013      10.05523921       4.03600723
P        0.15223628       6.86943225       0.28712993
O        1.13257975       0.05192587       6.90588624
O        4.90967593       3.85160041       2.71125606
O        3.40575874      10.20766779       5.18252806
O        4.72025720       1.58424399       3.02883405
O        2.42115991       0.46232622       3.33557212
O        0.72377729       7.30663501       1.54380038
O        9.19591729       0.26306031       0.56712232
O        0.72975661       9.83710771       4.46180032
Li       3.25867732       1.64753378       1.88466914
Li       7.30730704       9.02334164      11.28765465
Li       3.28723273       1.43021020       5.21551790
Li       5.09343133       0.18806940       4.83579408
Li       7.81115663       6.36849753      11.99397676
Li       3.38419836       3.96222743       8.53159036
P        1.03549419       3.82245594       9.76812209
P        9.92775223      10.61437262       7.35203838
O        1.22160902       6.40786755      11.99012947
O        1.32037975      10.32281557      12.67063337
O        0.10320870       3.21035464      10.90120763
O        3.71265480       5.44201833       7.38643421
O        0.52499896       5.22745987       9.18321194
O        8.97799849       0.26693973       6.19851591
O        9.52655925       3.22987610       1.70929372
O        1.27934727       2.72405557       8.63911243
Li       6.08721636       2.47990001       6.81872318
Li       4.41253237       7.86416240       2.34849455
Li      10.12853858       9.29876401       0.61003024
Li       6.34122671      10.00028310       9.21587570
Li       9.72882308       1.28964198      10.68768274
Li       0.63930110       5.16034427       2.12392043
P        8.06263098       3.94609006       4.73866638
P        5.10724352       7.92185023      11.52328934
O        4.24889213       2.49068409       8.06764903
O        8.41429035       8.40349868       3.50978255
O        8.17809781       0.21602808      11.03138594
N        9.50681603       3.24397619       5.09795731
O        4.21399575       6.75525221      10.96635179
O        4.97934371       2.65667020       5.14888691
O        7.30452445       4.16972655       6.04631376
Li       8.51512657       6.57120531       5.29444256
Li       5.76605774       2.54350417      12.36319320
Li       8.24318606       4.30902001      12.06259168
Li       4.86351744      10.82472091      12.20963497
Li       8.63402134       5.80924070       8.84764619
Li       2.12563157       6.74033347       9.86865633
P        6.70292693       4.49335948       9.48538828
P        4.71595814       0.97322101       8.14527830
O        5.39302236       9.16562656      10.74167758
O        9.29211353       8.04760417       9.43844162
O        7.92241829       5.15808757      10.40737126
O        0.91972746       5.07294013       4.57119733
N        5.91339933       3.66744636      10.68068974
O        3.61919649      10.80850777       8.15912670
O        4.56162731       8.22266719       6.90317378
O        7.25430481       3.31566626       8.60400029
Li       7.92520690       5.85486622       1.90618951
Li       5.48236703       0.38426383       1.84380213
Li       4.19379667       4.59666036      10.93373385
Li       9.95779832       6.89443588      10.72249844
Li       8.28995768       2.11093997       6.87053297
Li       2.90749593       6.36837672      12.30650165
P        6.91917771       8.64396177       3.69897088
P        5.48495976       2.72749211       3.74387645
O        3.30374884       7.05153611       5.32774910
O        8.22482539       4.99550642       3.75151709
O        6.58612961       9.75324580       4.71259698
O        9.56850263       7.95793473      12.39484535
N        6.11514321       8.98282410       2.46683480
O        7.24020694       2.83656219       3.90603335
O        4.05951282       8.18835418      12.71173437
O        5.94718270       7.46700349       3.85479356
Li       6.73830987       2.02749492      10.06130734
Li      10.07552379       8.30997497       3.46333350
Li       5.84883656       7.66916450       8.99954733
Li       7.55447277       9.96466837       6.18376634
Li       2.19807729       7.18442102       2.71616819
P        8.75889810       8.26260833       7.91256693
P        3.35230028       7.05569367       6.84983278
O        5.96210699       5.77481831       8.82234629
N        9.75880740       9.11863959       6.99737253
O        7.36772708       9.05730507       7.80694254
O        2.05654246       7.22513644       7.66008472
O        5.42549440       0.76017568       9.48281508
O        8.47721244       6.94317881       7.23353639
124
Lattice="10.1931 0.0 0.0 0.0 10.9684 0.0 0.0 0.0 12.7908" Properties=species:S:1:pos:R:3 material=LiPON model=NEP89 temperature_K=1500 phase="NVT production" source_frame_index=210 relative_time_ps=21.0 pbc="T T T"
Li       0.35424982       6.64715788      10.01631033
Li       4.06031018       8.05079066       8.42999226
Li       1.01848977       3.31651355       7.65291896
Li       0.79671545       2.91143428      11.88450316
Li       6.66335130       0.72621333       8.69045701
Li       3.26095353       1.33826742       4.84494854
P        4.24639524       4.63295275       1.85043301
P        7.62815117       0.92954437      12.56158104
N        1.31617344       3.77282209       5.20670756
O        1.49312097       9.21091542       1.85401321
O        2.77526966       4.66104728       1.43906249
O        3.43491954       7.10623915      12.32642057
O        5.02715750       6.05948803       1.70433911
O        7.32564111       0.15933079       1.13337265
O        0.45881515       6.69572321       1.35269032
O        4.90975170       3.60850640       0.94291038
Li       1.62217892       7.13932666       2.43545316
Li       6.22288112       0.84808638       5.49082122
Li       7.86528542       2.53291127       6.42883680
Li       0.69442797       4.89896180       1.33880217
Li       9.64630727       0.09204987       5.01751635
Li       3.49340125       3.14413177       6.75999906
P        3.08966065       0.80390284      12.40433544
P        0.44070568       5.14218044       4.91317978
O        6.76913595       2.29524140      12.39986131
O        2.59868210       3.63886517       8.66598814
O        2.79549544      10.21952777      11.95342091
O        3.80317077      10.07979281       6.55263300
O        3.64487283       1.71133219      11.26921342
O        0.34739657       5.31335115       6.47543871
O        9.22674743       0.47289212       9.11066089
O        4.23027101       0.45791861       0.70208131
Li       2.29804145       1.61861067       9.69878988
Li       7.84909728       6.65282322      11.27716267
Li       5.95712264       8.42216822       6.33640659
Li       5.54045088       1.98147449       0.85057339
Li       2.42004696       5.60007948      12.32660983
Li       3.83457195       5.59101286       8.75954533
P        1.75873178      10.12265878       3.02416466
P       10.00321600       6.89242786       0.02123138
O        0.27241899      10.86716246       6.87021138
O        4.37259900       4.13111715       3.53478313
O        1.90108190       9.25320340       4.27024825
O        5.58041787       1.70418599       3.25983137
O        3.14829275       0.01596757       3.09848397
O        8.60847798       7.52277790       0.05227640
O        9.22628727       0.95384190      12.63526559
O        0.40433784      10.94143390       3.24285966
Li       5.25049627       0.05236339       2.55483662
Li       4.43240871       9.27985390       0.25975402
Li       6.79969148       8.53246168       0.06037045
Li       6.66552938       8.83519662      10.12096016
Li       4.04105463       3.44484587      11.98774249
Li       5.79003470       4.31516790       6.48716066
P        1.61164554       4.43565776       9.59318732
P        9.01143456       0.01567009       7.63791039
O        0.29744998       7.63414218      11.67577862
O        1.86750262       1.66643994       0.21568556
O        1.96030577       4.25926920      11.06226680
O        3.85349319       4.88735790       6.23042724
O        1.76646986       5.99258542       9.27333096
O        7.68423270       0.72443693       6.71313096
O        2.12627241       2.65308122       5.02737158
O        0.13682527       4.18023917       9.27579496
Li       6.22691365       6.58523803       9.17919300
Li       5.33826672       7.28253252       3.46877818
Li       1.11314219       9.20995634       7.87706894
Li       2.01667391       8.04662587      12.46678363
Li       7.05298557       3.97983026      12.49438617
Li       1.27015378       6.78166724       7.18897869
P        8.28089488       3.93187989       3.26781122
P        4.77433865       7.17113073      11.58220327
O        3.45352377       0.97807848       7.92974802
O        7.47473940       7.89332118       4.71851129
O        7.24615802       0.16743440      11.28898723
N        9.17532412       4.99753088       4.38406282
O        5.42641597       8.75203867      11.67562746
O        4.87271463       2.59540330       5.60874476
O        7.81856348       4.84045107       2.25048480
Li       7.53460136       6.78341042       5.94809523
Li       7.62662961       1.05755849       2.90414433
Li       9.07116194       3.57211785      10.37470135
Li       0.23170179      10.31566933      10.66130481
Li       0.48045404       0.37923676       0.64344373
Li       4.38045113       2.96443363       9.09446000
P        6.74655818       4.05863454       8.83335374
P        3.95245354      10.54129285       7.97176272
O        4.67570218       6.97457601       9.98581499
O       10.05936555       8.14892578       9.06837756
O        7.45617254       4.90111751       9.83999674
O        1.46154630       5.69818874       3.97025952
N        5.35960989       4.76892692       8.41504382
O        3.09050348       9.64090131       8.85293811
O        5.38379889       6.84117939       7.01456222
O        6.49539778       2.54179374       8.98065344
Li       3.91183668       9.15972738       4.19665206
Li       1.65384044       9.95692577       6.08702525
Li       2.48731445       7.63853248      10.23955520
Li       3.02705711       5.21203329       4.32132469
Li       9.53927744       5.25698362       8.07903848
Li       3.06958419       1.58654418       1.88560375
P        7.10512831       9.09119983       3.78414248
P        5.39099703       2.95002072       4.17606255
O        4.06743627       6.96001839       4.73630878
O        9.11051480       2.57762671       3.15426872
O        8.20822611      10.27730496       3.60222246
O        9.38969469       5.40885899      12.23686315
N        6.59212732       8.62379256       2.38861362
O        6.91311039       3.46987644       4.23225403
O        5.98333721       6.40154090      12.18504557
O        5.96517496       9.92386597       4.43513779
Li       5.62814909       1.06996095      10.59132951
Li       9.18764406       9.52882460       2.02482472
Li       4.03949937       9.78746243      10.59249210
Li       0.40604795       2.09084827       4.05508765
Li       6.85135195       5.98000143       0.91403909
P        8.60943857       8.13563342       8.45573564
P        4.09804177       6.39028211       6.18898998
O        7.67908467       4.12433757       7.53876397
N        8.30914881       9.58718826       7.85296562
O        7.71170671       7.72443041       9.63429386
O        2.95012638       7.24463620       6.89791011
O        5.33017590      10.23395094       8.55963587
O        8.69748916       7.00276044       7.34589864
124
Lattice="10.1931 0.0 0.0 0.0 10.9684 0.0 0.0 0.0 12.7908" Properties=species:S:1:pos:R:3 material=LiPON model=NEP89 temperature_K=1500 phase="NVT production" source_frame_index=240 relative_time_ps=24.0 pbc="T T T"
Li       7.62083855       7.48027556      10.45515102
Li       3.95965692       8.89833129       7.40972074
Li       1.52404026       7.59820203       8.06500985
Li       0.06502584       1.96836150       6.32760936
Li       9.16301939       3.70981555      11.32468169
Li       6.30395476       6.60797509       8.51143712
P        3.94462679       5.73543421       1.79964121
P        9.07137287       0.72520528      12.78300868
N        1.46265243       3.56733477       3.96638889
O        0.00624754       9.81367291       3.69910992
O        2.64963777       4.97759929       1.03017389
O        5.82002514       8.73154844      11.83672970
O        3.60194629       6.95712568       2.73659789
O        9.84996810      10.57825439      12.16356895
O       10.14269536       6.38197233       0.75936821
O        5.05729421       6.18044648       0.89890760
Li       4.98925061      10.44360668       6.19406206
Li       9.48075474       9.68616402      10.73919910
Li       6.70738090       1.25968398       4.94069350
Li       8.08407348       4.23246479       0.15887656
Li       0.77070524       8.91090720       0.25931094
Li       6.78665926       9.03559723       5.87594772
P        3.01075879       0.49645316      11.86366591
P        0.52540579       4.80150345       4.76644858
O        9.26976021       0.68295185       1.58716950
O        2.41872367       4.80449366      10.91335426
O        4.34558285       0.91252036      12.78528929
O        3.08004008       1.75890530       5.68848279
O        2.02632860       1.47445347      12.63582280
O        0.78207134       4.48162938       6.23918104
O        9.30176037       0.38646128       6.53237724
O        2.71958287       9.97605734      12.43259115
Li       1.02415119       4.59919173       2.29416214
Li       3.66774973       4.07095467       8.91489692
Li       9.32276444       1.71223691      10.01572034
Li       0.90282970       0.64179953       1.51463803
Li       2.33024979       4.12132923       6.99992551
Li       2.44760991       2.44619237      10.19264636
P        1.47615621       9.51178702       3.16351001
P        8.99892364       7.17484789       0.03859352
O        6.72124231       0.38574126       6.73515289
O        4.39915741       4.52700805       2.90393032
O        1.22425546       8.57597682       2.04036160
O        5.29447600       2.37158593       1.96484715
O        2.36057888      10.63014135       2.62064373
O        8.25221589       7.96414129       1.12678530
O        9.43892198       2.01470212      12.16510485
O        2.09611947       8.81246445       4.46083693
Li       6.06059636       7.73827323       0.59809225
Li       7.13580308       7.09371614       5.72907826
Li       3.22184019       8.74066616       1.59988224
Li       4.26160983       9.98106024       9.80805798
Li       1.28413489       3.89029995       0.03478873
Li       9.96300819       9.68753033       5.61410308
P        1.11134882       4.75257163       9.97007860
P        8.06152408      10.92290542       7.41060925
O        9.53881632       7.97431087      11.65415011
O        3.26401254       0.41426543      10.32545816
O        9.95198501       5.25844621      10.51766171
O        3.52379409       5.33651657       5.82839035
O        1.35005430       5.87699336       8.74562473
O        7.98144656       0.14071697       8.83486457
O        1.34387140       2.73515020       3.06861698
O        0.90522441       3.30203080       9.48354869
Li       4.01741056       6.28207783       9.54872963
Li       3.92145710       5.03431638      11.91782946
Li       7.04899927       0.06848304      10.44542852
Li       9.86840133       7.16878037       2.67132943
Li       5.98964988       5.62302905      11.69546063
Li       9.92017086       6.87752324      10.15035339
P        8.38333140       3.75452218       3.33853052
P        5.26909273       8.25294863      10.43288268
O        1.68444398       1.14989137       7.66714999
O        5.07191918       9.05547431       1.93418370
O        7.33405566       0.26976776      12.61276873
N        9.08820832       4.92957515       4.12544503
O        5.65612985       9.21717948       9.28257683
O        5.65859410       2.97461421       4.45696370
O        9.13134764       3.40728306       2.08576022
Li       9.58792515       5.40664108       7.73110882
Li       5.14617866      10.15165799       0.08457592
Li       6.01163112       3.45391610       6.85605566
Li       0.84240793      10.39007931       7.87444741
Li       5.77754711       1.77023768      12.44583501
Li       6.94841825       1.21681386       1.86319734
P        6.08236073       3.30647407       9.98553858
P        3.08548916       1.18711750       7.28513980
O        3.67600048       8.19975128      10.33130816
O        9.70485796       7.42253813       6.47945231
O        6.51364910       4.32621033       8.92322932
O        1.15158806       6.06287715       4.12593396
N        6.74396992       3.82807780      11.36555198
O        3.84110249      10.80864342       7.71078319
O        4.15458046       5.59624916       8.05919357
O        6.33404548       1.84540913       9.77251905
Li       2.84272737      10.84792145       4.60023933
Li       2.28578311       9.01373883      10.94796426
Li       3.67752912       2.54480779       1.12013217
Li       3.20810736       7.33203102       4.39372249
Li       1.34081052       7.25323533       5.72011513
Li       5.42774991       0.69108836       8.01242955
P        5.91063351       9.51302358       3.24527740
P        5.51980145       3.55916919       3.04215116
O        5.38806813       7.10792219       6.54684030
O        8.44768371       2.63954391       4.35031115
O        7.36740341       9.22819299       3.74661727
O        7.86535900       6.30268535      12.15348901
N        6.57749884      10.86013406       2.89247500
O        6.92667638       4.12127521       2.76271920
O        5.73918978       6.86859341      10.25819398
O        4.72687148      10.03889891       4.25581424
Li       8.50698548      10.13014544       2.74087423
Li       3.52445689       3.34030049       4.69281748
Li       7.69848941       9.47691620       0.36252070
Li       0.08468215       0.84302769       3.82057372
Li       1.85204618       6.47380302       1.27090579
P        9.13494548       8.08761261       7.81433699
P        4.07490333       6.46176445       6.78249149
O        4.77061508       3.61048551      10.80712159
N        8.28295216       9.38641847       7.36116534
O        0.15567174       8.61891792       8.75487615
O        2.96529137       7.65873781       6.91334978
O        3.91104739       2.53905414       7.84215081
O        8.19850571       7.21813754       8.51072953
124
Lattice="10.1931 0.0 0.0 0.0 10.9684 0.0 0.0 0.0 12.7908" Properties=species:S:1:pos:R:3 material=LiPON model=NEP89 temperature_K=1500 phase="NVT production" source_frame_index=270 relative_time_ps=27.0 pbc="T T T"
Li       9.24319339       2.07431654       4.09679411
Li       1.28117105       8.34163879       9.86665351
Li       1.81210800       7.75283561       0.82942328
Li       3.10616671       2.77202444       6.74916451
Li      10.08887542       1.68291635      10.18977082
Li       5.83419049       9.29535133       9.04511379
P        4.89036359       3.61203067       1.02849082
P        8.06298131       0.63022078      12.44132632
N        0.23114201       3.69206780       2.88493624
O        1.00953945       9.68667647       4.43425226
O        4.73425811       2.20086301       1.62079475
O        3.06314204       7.66706334      12.26644885
O        3.57863810       3.84319919       0.15104641
O        8.68479862      10.30804250      12.57923769
O        9.83021466       5.62350007      12.17757888
O        5.92299116       4.21782433       0.02013984
Li       7.74942918       3.46793252      12.46190104
Li       9.31905912       8.60832779       1.62194624
Li       1.00548797       9.31012815       6.15466038
Li       9.07603515       3.11236501       8.35834077
Li       6.39990560       1.38606803       4.74946105
Li       3.88075381       9.52148241       9.84893611
P        2.16893434       0.60426327      11.28837505
P       10.06486535       4.65591039       4.33101363
O        8.56245910       1.17875452      10.91964105
O        3.02402742       4.28111599      10.36906599
O        3.75038000       0.58164108      10.74523082
O        5.57418480       0.15088648       6.38968924
O        1.70393726       1.88280195      12.00562373
O        0.58279429       4.36104031       5.56291582
O        0.80621685       0.87817943       6.50174410
O        2.35565376      10.40958436      12.33256641
Li       2.70248240       5.06952201       6.08833488
Li       5.05471681       2.03004330       9.65618118
Li       9.32824400       5.29437903       9.74529792
Li       4.12806402       7.81114525       3.10903391
Li       3.84345904       4.69830645       8.12505072
Li       3.02363412       6.05740656      10.46184624
P        1.48703362       9.82577870       3.03068485
P        9.58221464       7.13386728      12.55028356
O        8.42370693       1.17426906       5.89157055
O        4.49671973       4.49929246       2.50453762
O        0.45390980      10.33646490       1.95762999
O        3.79091891       3.53207129       4.63950829
O        2.52632065       0.11985366       3.07254607
O        0.28646809       7.24080926       1.14944362
O        6.60681651       0.53159007      12.48353493
O        2.14994654       8.42226011       2.71617243
Li       4.74722376       4.55136422      11.48495227
Li       6.84609993       8.57193487       0.91610544
Li       8.98876062       0.06449212       2.94744188
Li       3.71837204       9.48573710       0.66055781
Li       1.76213022       4.19984658      12.10441561
Li       5.80703381       7.15944902       6.10010136
P        1.59161390       4.43122760       9.44700232
P        9.54090663       0.69638008       6.82375489
O       10.13107892       8.21596684      11.53539058
O        1.24381227       0.11533563      10.14365860
O        0.35778791       3.56034473       9.85156847
O        2.82539956       8.89915616       6.59539416
O        0.96890008       5.80128111       9.54639787
O        9.28847632       1.39785578       8.22395368
O        0.41135161       2.96505995       1.93752205
O        2.02433361       4.10979785       7.98308275
Li       5.32373390       7.05407067       9.07435995
Li       0.66406548       2.91094258       6.46709849
Li       5.23300284      10.75573914      11.63315980
Li       6.38909220       0.99447281       1.87063514
Li       6.68010583       5.83797887      11.27767213
Li       7.32373369       4.58506081       5.91927451
P        7.33244271       4.12993162       3.45130616
P        4.44921090       7.60183102      12.01762389
O        3.55288915      10.83809892       8.09209002
O        7.46646078       8.84696571       5.23934460
O        8.53349409       1.65917303       0.64937608
N        8.38336080       4.65825225       4.63623668
O        5.08722694       8.81305718      11.25026507
O        3.77840107       6.08863217       4.19174849
O        7.56828742       4.86119738       2.17538485
Li       7.17794936      10.27197640       6.79857915
Li       1.79344121       6.50617756       3.03371325
Li       6.07214971       5.95970375       1.34699579
Li       1.64336916       0.09842639       8.12814396
Li       0.57864566       1.41649697       1.02584819
Li       3.82290918       1.81519721       3.27598783
P        6.69994940       4.11316021       8.99741893
P        4.92594392       0.56493222       7.78976408
O        4.76937158       6.24568985      11.14435471
O        9.45741053       7.91965305       6.84164158
O        5.54149517       4.87468353       8.44210935
O       10.09198964       6.14954945       4.12669469
N        7.10287769       3.51739085       7.54590435
O        5.91890823       0.24524453       8.90552321
O        3.17225584       6.50546282       6.93520427
O        6.48569915       3.05145103      10.02278405
Li       2.91102246      10.49128193       6.00974684
Li       0.70453558       9.69524006      12.23637010
Li       3.14613709       1.86507510       0.16231837
Li       7.91733262       6.47300476       3.82773984
Li       1.04902740       6.92518815       7.32094367
Li       7.59098001       0.80311948       9.31461763
P        6.95596911       9.29756138       3.87409099
P        4.46644105       4.80367101       4.15142045
O        5.03712439       8.24163468       7.62621829
O        7.27930114       2.60621955       3.37112280
O        5.43004065       8.89885483       3.73828226
O        8.18873200       7.38593437       0.23193804
N        7.00523876      10.75524729       3.60372914
O        6.01710814       4.98140313       4.50309012
O        5.14352316       7.75975693       0.46785194
O        7.71904025       8.66545123       2.88589845
Li       2.70175719       7.60869512       5.30852048
Li       5.04401829       9.38032658       5.59027035
Li       9.01057557       9.44073858      10.78183195
Li       9.26529903       8.77555162       5.15879633
Li       9.65730327       4.18120698       0.61086123
P        9.04564437       8.75549632       8.02596289
P        3.40370087       7.97557449       7.50147059
O        7.77327745       4.98148613       9.53186156
N        9.14356315      10.03555153       7.11880951
O        0.11685000       9.06272626       8.81391260
O        2.90799970       8.05891578       8.90200258
O        4.84437305       2.06402898       7.77510192
O        7.77600649       8.65054264       8.94513491
124
Lattice="10.1931 0.0 0.0 0.0 10.9684 0.0 0.0 0.0 12.7908" Properties=species:S:1:pos:R:3 material=LiPON model=NEP89 temperature_K=1500 phase="NVT production" source_frame_index=300 relative_time_ps=30.0 pbc="T T T"
Li       6.41396740      10.33766946       7.16658082
Li       0.62329704       7.65860451       8.58371689
Li       4.12482308       6.30039218      10.17716229
Li       6.86692692       0.02841560      10.16793191
Li       9.14791337       7.09685323      10.30623645
Li       3.32288446       2.01633997       8.23259411
P        3.30996713       2.75181050       1.28594301
P        8.78619127       0.90167636       0.09592241
N        9.99552770       3.56299790       5.56972168
O        1.15345594       7.95863544       3.86894629
O        2.96890188       3.91513736       0.23009798
O        4.56520389       9.00679459       0.68985545
O        4.81201171       2.41122049       1.24059053
O        9.88704986       0.15395808      12.13356630
O        8.72075100       5.76439696      12.44325321
O        2.33332743       1.52266303       1.34642342
Li       6.74992661       2.65636581       0.88612118
Li       6.88621668       5.31626783       0.29925618
Li       4.15716302       5.15257442       0.58300241
Li       8.32940349       5.57919320       8.52276009
Li       2.17178658       0.97542060       4.45603894
Li       4.23777943      10.31475436       5.68037159
P        3.46513942       0.12693709      10.51804708
P        8.98461282       4.88501627       5.34552265
O        7.44207619       0.35457149      12.47362109
O        0.14737373       5.15940490       9.37881819
O        2.81301294       9.92234601      11.32834893
O        4.34176765       1.81683016       4.48858399
O        3.31656891       1.37042264      11.59149618
O        8.09787511       4.61890640       6.58643716
O        8.36029490       1.14127341       8.66468663
O        2.69169323       0.48821403       9.16446576
Li       7.74532496       7.54124559       1.10970325
Li       3.43802554       2.77169890      10.56077866
Li       4.86424028       8.96298776       9.12426339
Li       5.69857666       7.08055648       2.12118444
Li       8.95773607       8.22897868       6.18400943
Li       2.26190353       5.74388378      12.03604042
P        1.83614712       9.31573842       3.53403893
P       10.00506068       6.64341057       0.07302667
O        0.47337351       0.81903132       7.65031073
O        3.02725942       3.48997966       2.68828624
O        0.92140872      10.41410020       4.15499527
O        3.07341029       5.18683056       4.30653969
O        3.26162545       9.31511375       4.10870652
O        0.83065372       5.94471765       0.89781371
O        8.76119822       0.58131254       1.62510217
O        1.80735619       9.58387392       1.96511863
Li       9.13551620       0.44299697       4.56566267
Li       5.97077554       1.64219461      11.74942098
Li       3.84335062       7.63421151       4.28274514
Li       1.22057607       8.97566995      11.07266481
Li       3.72793757       4.63290963       8.00606478
Li       9.65821627       6.96360190       3.12080341
P        1.17109015       4.03775056       9.52558282
P        9.11281510       0.47484969       7.47790785
O        0.72227897       7.05980655      11.59323248
O        4.95287550       0.02268720      10.14788889
O        1.67177450       3.77368407       8.03061951
O        3.41898187       7.56468617       8.97622800
O        2.26302857       4.69830420      10.43051633
O        8.50385238       0.81605415       6.15988159
O        9.94612638       2.73060679       4.70025882
O        0.46925490       2.80337361      10.02125260
Li       8.32914224       9.63982135      12.09954860
Li       9.89983620       4.27193513       1.51207615
Li       5.60085003       7.70413394       5.84608873
Li       5.21125022       2.69916104       2.93351968
Li       6.80036231       6.75928013      10.60301432
Li       8.96418267       2.13033639      10.32752387
P        7.08392598       4.04883764       3.19731176
P        4.91519293       7.93985555      12.49409960
O        4.77269703       3.20103113       6.68388619
O        7.54582381       8.67845350       5.30921982
O        8.71376115       2.47416015       0.03003959
N        8.14306955       4.74999922       4.14018238
O        5.93984048       6.91546746       0.49072979
O        3.95593217       6.25011120       2.32913135
O        7.49933836       4.14650023       1.70956790
Li       1.51103338       6.29928091       5.72155491
Li       1.97731805       3.82232892       6.33170376
Li       5.89069352      10.84827000       1.42841345
Li       0.69442340       9.61144183       5.92166705
Li       1.13674057       1.54724933      11.71975514
Li       4.40297710       4.35801017       5.41795124
P        5.76449584       4.07713233      10.13075669
P        4.52323480       1.84167247       6.00193705
O        5.47059961       8.13666531      11.05733284
O        8.93409437       7.65085225       8.69562232
O        5.13518611       2.92049673       9.45392668
O        9.72467888       6.17016471       5.37638005
N        5.67045582       5.42599177       9.28261271
O        3.13601389       1.53845830       6.54762844
O        1.63023607       8.09766792       7.13243965
O        7.33510260       4.05358074      10.19042756
Li       5.89307107       1.25523937       8.60900925
Li       8.64744180       3.97479014      11.56718022
Li       6.48149039       0.87733908       4.07423534
Li       0.30677643       0.07896383       1.71094606
Li       0.19261086       2.78288293       7.11066894
Li       0.86089175       0.56689442       9.68980832
P        6.90793893       8.62036757       3.96473448
P        3.92799644       4.87482759       3.16696685
O        4.01273452       8.64060526       6.55067054
O        6.87592627       2.57463455       3.76928503
O        5.46523924       8.00811855       3.86840329
O        9.53054650       7.84582484       0.90444733
N        7.03941322      10.12434281       3.42529067
O        5.43880674       4.48152741       3.54828101
O        3.80867635       6.85273854      12.29057414
O        7.85900574       7.87179086       3.04104914
Li       2.01720160       7.39535588       1.86642008
Li       3.35967067       0.10672833       1.72360683
Li       1.99198511       9.73424300       7.98293417
Li       8.09498310       9.71996818       2.10183539
Li       7.05800072       2.92115623       6.53843904
P        9.00069920       9.24387669       8.92974153
P        3.07048344       7.63516237       7.44683247
O        5.31611969       4.17114423      11.64561425
N        8.65828149       9.90744232       7.50115149
O        0.45241560       9.50333074       9.25466510
O        3.28385300       6.25055927       6.73078169
O        5.56107240       0.89300807       6.61173271
O        8.25884392       9.65395567      10.22292297
124
Lattice="10.1931 0.0 0.0 0.0 10.9684 0.0 0.0 0.0 12.7908" Properties=species:S:1:pos:R:3 material=LiPON model=NEP89 temperature_K=1500 phase="NVT production" source_frame_index=330 relative_time_ps=33.0 pbc="T T T"
Li       3.48240774       0.26979788       8.64786239
Li       2.07282710       8.62117714      10.71045884
Li       3.58181578       5.43039547       9.17542164
Li       4.88175569       9.22088991       9.69172911
Li       8.25857944       6.53695456       2.19143594
Li       6.52481017       1.45704404       2.17809892
P        3.62145730       3.18939610       1.98457695
P        9.21797440       2.38321194       0.23109058
N       10.02503715       2.73010597       4.81909406
O        0.00887053      10.31105309       3.62634843
O        2.66308178       4.19075387       1.27892128
O        5.80327582       7.46948939      10.88426103
O        4.95186101       3.10172087       1.28821360
O        7.88753499       1.77438271      12.53240289
O        9.27209029       6.98423060       0.30387663
O        2.79551533       1.93258831       2.43518774
Li       6.12338958       4.25580942       0.83998560
Li       9.07658435       5.47300358      11.06158560
Li       8.00056566      10.22761584      11.29356517
Li       7.67290001       6.83062189      10.79095015
Li       1.19307501       5.33890477       6.90757376
Li       8.38666923       1.57112459       4.23998484
P        3.38561005       0.55634195      11.26813485
P        9.68977994       4.45661672       4.80003005
O        0.13743009       1.52486057      12.39665938
O        0.47485453       4.95618304       9.26451230
O        3.17368849      10.65041682      12.44090567
O        4.25051291       9.88862918       6.06526541
O        3.54763060       1.96483883      11.46328463
O       10.11414735       5.65958899       5.72408808
O        0.31686248      10.72179000       7.64395364
O        2.04446391       0.28007344      10.59731998
Li       5.78896425       1.23326801       0.09796339
Li       7.55038354       3.94955241      11.61072502
Li       0.92521604       1.61358251      10.76033566
Li       5.53467758       7.48131882       2.70792600
Li       3.42647082       5.96074202       1.54931036
Li       2.35082860       3.18001798      12.62274565
P        1.01539827       9.05822257       3.23465743
P       10.10162908       7.83695665      12.03314117
O        8.37657951      10.92057243       6.54540895
O        3.84917029       3.97377362       3.51590264
O        1.37439868       8.34593711       4.54135391
O        3.70795282       5.47151198       5.73851471
O        0.22720601       7.83098943       2.50333098
O        9.59059063       9.32654932      12.30682427
O        9.42806765       3.83693955      12.33139456
O        2.12856246       9.21121411       2.25707577
Li       5.19118358       8.22331671       6.99923777
Li       9.26820992       0.33920116       2.40172107
Li       7.11431569      10.09306084       5.06209947
Li       3.84817913       8.11422730       1.80719888
Li       4.24618932       2.95799620       7.64002628
Li       0.17364315       6.56207467       8.83434477
P        1.30695995       3.53647302       9.27391852
P        8.99509461      10.48803259       7.81957625
O        1.38003575       7.86257280      12.36896389
O        4.74787053       0.05943469      10.67126474
O        2.41303328       3.72423295       8.21593914
O        4.13524159       7.08014736       8.17375534
O        2.03944086       4.01453212      10.76803915
O        8.65968248       0.03825713       9.18235150
O        0.29745623       1.92215086       5.51089554
O        0.42312289       2.41455393       9.14004938
Li       9.26262477       3.96188476       8.58176493
Li       0.35933098       5.28997425       0.67524635
Li       9.77633479       6.92361217       4.05674938
Li       2.29309783       6.80105239       5.48349945
Li       5.09584202       9.32523771      12.57855371
Li       9.94437656       0.09710872       5.77599391
P        7.03477038       4.29822853       3.84089854
P        5.19925964       6.47072675      12.13483526
O        5.18034573       1.25621463       6.64860876
O        5.16326724       9.77273802       3.17636387
O        9.28438000       2.55561988       1.68445038
N        8.12687763       4.51004309       4.95168493
O        4.12967997       5.46042354      11.47800005
O        3.79343120       6.64988407       3.30367895
O        7.37987833       4.80820637       2.40911992
Li       6.44254179       5.80751139       6.85813176
Li       4.69712193       3.48039258      11.04814021
Li       3.73208840      10.53029835       2.15042979
Li       1.57296245       0.88184539       3.59129245
Li       3.89976963       8.89221194       4.17067524
Li       5.81252619       6.48915607       8.95537520
P        6.63009057       3.93764651       9.18721134
P        3.86354286       0.54363492       6.17083807
O        4.48289055       7.46265343       0.38586929
O        7.22756477       7.89696210       6.10108100
O        6.70021574       2.59255564       9.97155961
O        0.14738216       5.05294948       3.47825205
N        5.11046693       4.32213577       9.25350466
O        3.14276138       0.77701465       4.89611260
O        2.46209678       7.22754760       9.96923155
O        6.97302453       3.94763184       7.63583996
Li       5.89614923      10.20290042       6.77453747
Li       1.51387988       6.01193045      11.12924501
Li       6.85278857       0.37268940       9.06078451
Li       8.89270564       8.34177462       1.70019919
Li       6.86402542       2.38346323       6.33269780
Li       9.06383739       1.71042960       9.49833118
P        6.53457445       9.90023404       2.52579834
P        4.14548363       5.41766904       4.21111958
O        2.88332623       9.27756843       8.46893576
O        6.82045750       2.65804541       3.80277666
O        5.99424142      10.58297602       1.21323635
O        9.61944972       7.44656634      10.68151440
N        7.46751531       0.08086633       3.14801985
O        5.76666307       5.12769037       4.52096285
O        6.34514100       5.71759088       0.02096466
O        7.16411470       8.51939287       2.30198451
Li       2.17508546       9.58761154       6.33317059
Li       0.58175428      10.78378319      11.85861649
Li       1.56976752      10.77348113       8.88223603
Li       1.16980083       3.70294992       2.89883320
Li       4.50794651       1.86581071       3.61737425
P        7.60315404       8.12466787       7.61018774
P        2.76510033       7.72518633       8.35895768
O        7.65095958       4.81254246       9.96931859
N        9.13345403       8.90493550       7.93614402
O        7.83290767       6.62635391       8.06781169
O        1.70952598       7.54182562       7.18008769
O        2.56362981       0.76710250       7.07526125
O        6.54216599       9.00236897       8.40929950
124
Lattice="10.1931 0.0 0.0 0.0 10.9684 0.0 0.0 0.0 12.7908" Properties=species:S:1:pos:R:3 material=LiPON model=NEP89 temperature_K=1500 phase="NVT production" source_frame_index=360 relative_time_ps=36.0 pbc="T T T"
Li       5.91400323       9.10734898       7.52586046
Li       0.90285910      10.09053130       8.68214833
Li       5.44981542       2.67095873      12.52840922
Li       6.15476096       9.38539114      11.61720437
Li       9.84115784       4.43399224       0.77775695
Li       9.60383353       1.73865828       2.90797249
P        2.95322793       3.13636097       1.98928790
P        8.54517415       2.29039002       0.12162022
N        9.76846434       2.71156756       4.84829098
O        2.53119682       9.47350986       2.08716235
O        2.22068548       3.92897180       0.99054467
O        5.06397597       5.34652692      12.73114243
O        4.13223397       2.44498808       1.38435911
O        6.89073631       1.96394880       0.47247212
O        0.75921570       6.05216573       0.78827491
O        2.02542394       2.07004754       2.73909235
Li       1.94383213       7.89898536       0.86254909
Li       6.42514885       7.58164489       9.58971267
Li       7.06534848       1.16208127      10.48175213
Li      10.00052491       7.36439499       9.08843869
Li       2.04720569       5.59597068       2.45212032
Li       9.25893986      10.28650632       3.92753385
P        3.66419621       0.30975931      11.19762085
P        9.66055896       4.37441110       5.16272086
O        9.16924062       1.32755700      11.87041667
O        0.62580309       5.22321361       9.06976862
O        3.07992628      10.83250877      12.61622482
O        5.08036418      10.28865386       6.26956110
O        3.82711768       1.91070471      11.30223578
O        9.86329967       4.62503446       6.62327595
O        8.53123707       0.39227301       9.41622495
O        2.79404930      10.85975699      10.05711413
Li       4.87395229       4.72760346       1.76339357
Li       8.99247016       4.51925063       8.10454810
Li       1.13497534       9.75126568      11.44079964
Li       7.60640794       6.55160911      11.61740373
Li       6.80887959       7.89097318       2.10445030
Li       2.01979391       5.34829533      12.64134096
P        1.93098315       9.04812825       3.43342264
P        9.94621774       7.07807292       0.04631838
O        7.68177508       9.16658098      10.15261053
O        3.68103753       4.29462738       3.11703114
O        2.69757227       9.94665037       4.43956115
O        3.42137087       4.25767444       5.50813731
O        0.48502686       9.20982974       3.68687076
O        0.28593642       8.56513676       0.12342175
O        8.57438894       3.76803008      12.35266310
O        2.21861631       7.43537175       3.26441078
Li       9.56409827      10.40380737       1.12974046
Li       5.30963438       0.34538744       0.10123887
Li       2.02162448       2.55449474       4.76098428
Li       9.19125048       1.69358508       7.08853811
Li       7.59442716      10.94122165       5.40009134
Li       1.69135549      10.76071638       5.71128879
P        1.72010705       4.17963667       9.49302733
P        8.55121458       9.82157377       9.11999692
O       10.19169700       6.84083604      11.32870936
O        5.11243826      10.65473191      11.10681317
O        2.49678724       3.73443063       8.20548559
O        2.24524133       8.00392741       9.29370672
O        2.57929103       4.98354785      10.41676312
O        9.95679545       9.25032470       9.56332280
O        9.37673269       1.31916884       4.88804647
O        1.00053097       3.01156166      10.33166436
Li       2.99744886       1.37071656       8.87544116
Li       7.12452611       5.34859670       0.53017444
Li       4.25252875       7.02263306       2.87478528
Li       6.27724899       7.44141501       4.38231840
Li       3.98472480       9.31424030       1.04042242
Li       2.64080910       6.84511085       5.21763731
P        7.02206231       4.67802488       3.65856313
P        4.61231879       6.71827362      12.49496732
O        4.61318050       1.17204747       7.81845650
O        4.98030764       0.28111700       2.57105446
O        9.40906328       2.08530321       1.36475963
N        8.35530755       4.75912935       4.39497922
O        5.40985167       7.51085280      11.27739358
O        4.44680937       6.21944122       4.79776387
O        6.86515996       6.20893767       3.58717380
Li       6.51363725       4.32020690       6.67335825
Li       9.53546421       4.91024224      10.78002312
Li       6.25961837       1.59847757       2.28785418
Li       3.17922715       0.40906452       2.08325195
Li       4.15425529       8.98404869       4.76857400
Li       4.45216089       4.49825220      10.93389566
P        6.60422639       4.50201519       9.06997027
P        4.95732872       0.85038608       6.40156572
O        5.00201348       7.39460707       1.09765791
O        8.52254808       8.85158045       5.13489483
O        5.37727081       5.09508547       8.18108678
O        0.51025349       4.92305724       4.19635346
N        7.38903993       5.65088571       9.66648301
O        6.21450446       1.55027844       5.77467717
O        2.07725455       9.36023029       7.24071295
O        7.33363936       3.52890454       8.16547945
Li       0.10535451       7.08389938       3.80858032
Li       1.63305380       7.00650400      10.85806403
Li       5.88817448       2.31498669       8.72438330
Li       1.41898058       4.92305538       7.08835998
Li       4.11676325       3.40185571       7.18653812
Li       0.41078586       8.77910510       5.89143495
P        6.11215456      10.15691744       2.62623047
P        4.34414285       4.51936326       4.43842505
O        4.35860517       8.12465698       7.99722409
O        7.48106635       4.24706566       2.31496669
O        5.67778688       8.79301710       3.38060931
O        8.35326075       6.97634830       0.39359593
N        6.67058520      10.02738478       1.13617387
O        5.88882780       3.90652067       4.39300872
O        3.05163421       6.80360565      12.08970883
O        7.23142675      10.85116904       3.46010069
Li       4.78508947       6.15313781       6.84944975
Li       9.84526185       1.79211585      10.36595127
Li       3.62284651       6.84514507      10.02162941
Li       1.81657785       2.49507395      12.62800315
Li       4.20682094       2.09477009       4.07286447
P        8.06995230       8.33632970       6.52677154
P        2.70866581       7.97226105       7.91837288
O        6.07441051       3.68862426      10.28676104
N        8.16798469       9.67398878       7.49801324
O        9.06131898       7.68142384       7.57134501
O        2.30896759       6.83267103       6.99015612
O        3.61240030       1.17002246       5.63529130
O        6.80387481       7.30396591       6.39428450
124
Lattice="10.1931 0.0 0.0 0.0 10.9684 0.0 0.0 0.0 12.7908" Properties=species:S:1:pos:R:3 material=LiPON model=NEP89 temperature_K=1500 phase="NVT production" source_frame_index=390 relative_time_ps=39.0 pbc="T T T"
Li       3.72764693       8.06324601       5.05360255
Li       2.75340044      10.68614476       8.44290993
Li       0.03659802       4.56244924      11.20233024
Li       6.45807853       3.87922367      11.11256805
Li       2.87948002      10.86728741       2.25184521
Li       1.64372431       2.33701520       4.34410861
P        2.84724027       2.80618592       1.96361957
P        8.88561228       2.76248064      12.51304349
N        9.42663385       2.72115528       5.19461643
O        0.73107563       9.95161299       5.01572006
O        2.52437148       3.73934643       0.91144797
O        4.35617755       6.73037066      11.24153505
O        4.16183783       1.99806692       1.77319042
O       10.17133342       2.50282045      11.95932199
O        0.68391438       5.53123460       0.95380308
O        1.81745348       1.64589869       2.41738432
Li       1.44888215       9.88211768       0.25887848
Li       4.36224607       6.29580638       6.66611743
Li       2.17994590       2.70719226      11.78225818
Li       8.39960985       5.85590545      11.43516937
Li       9.89625869       3.99579508       1.55986131
Li       5.75878372       1.48447766       7.69182180
P        3.71681528      10.85784838      11.58772297
P        9.23896129       4.28446882       4.79179464
O        8.52664597       4.25305441      12.45447761
O        0.60861881       4.03163985       9.23581922
O        3.89765409      10.88344898      10.02745240
O        4.49496247       9.96888304       5.69597636
O        4.96962058       0.63596672      12.23507821
O       10.02926751       5.11514961       5.86440705
O        7.78129141       0.56850656       9.25432864
O        3.76118136       9.37988223      12.06204238
Li       4.73955038       2.44709008       3.82511951
Li       1.76503725       5.22931318       6.57219591
Li       0.73021206       0.81645250       1.14741393
Li       2.97073358       7.76282051      11.75192810
Li       7.62481249       5.73655024       6.25476553
Li       8.59498517      10.01517985       5.51497495
P        1.13479981       9.22296927       3.74176774
P        0.20809168       6.88396314       0.34359872
O        9.16722037       9.65345451      10.11193819
O        3.24171583       3.66426374       3.42941134
O        0.50713643       7.85130627       3.61527768
O        3.13396921       5.74737730       5.03656114
O        0.75057268       9.92976509       2.39614587
O        1.33648365       7.92836512       0.62190163
O        7.67622411       1.96048213      12.08279636
O        2.62700832       9.19102756       3.94123841
Li       8.65072392       8.82557748      12.53759586
Li       6.67175618       1.88236904       1.78222098
Li       8.70286422       2.93877719       8.01554648
Li       6.93730920       6.91177729       9.32448801
Li       7.23163142       2.19182175       5.23088596
Li       4.15512172       2.05837241       9.80440782
P        2.04738144       3.31414827       9.07181372
P        8.92374074      10.45229666       8.92898316
O       10.09768097       6.59156309      11.59162374
O        2.49224247       0.51243414      12.29177303
O        2.81209081       4.24782191       8.06469304
O        1.36425904       9.14428065       7.80990311
O        2.93414399       3.39819025      10.37542431
O       10.11833243       0.17700358       8.43211063
O        8.89824798       1.54072536       5.08248210
O        1.95757313       1.91305301       8.65219996
Li       1.42612968       1.08577124      10.20290893
Li       3.76877192       8.43541040       9.83605363
Li       6.68841414       7.90900640       1.49143522
Li       0.87581114      10.49714126       6.68051576
Li       1.70264624       6.07812224       2.53845921
Li       5.14093977       5.60471718       1.53946250
P        6.65836223       4.60326041       3.35341303
P        5.67594867       6.69090219      12.12235475
O        3.89838519       0.70654589       7.52182176
O        8.02401146       0.17810266       3.10590784
O        8.81977470       2.37347180       1.19345213
N        7.76646548       4.62174067       4.50634264
O        5.82474426       5.04993978      12.43188877
O        3.57155935       6.03302610       2.57047553
O        6.65559501       5.70763764       2.33279479
Li       6.00164470      10.10895562       9.68716516
Li       9.60338223       5.42864071       7.74673709
Li      10.18901636       8.41613482       7.14525198
Li       4.33831667       8.58783364       1.37806123
Li       3.01493800       2.52550432       7.06792941
Li       7.24023492       4.99403869       0.54904646
P        6.27900255       4.25723342       8.40787445
P        4.18805789       0.52573535       5.91131490
O        5.33581732       7.53317088       0.63902188
O        7.53326241       8.12413293       5.84561614
O        7.58637533       3.94789024       7.33963256
O        0.08656189       4.48009543       3.63008776
N        7.01145064       5.05272822       9.51588299
O        5.40409778       1.49417374       5.39961252
O        1.22616069       6.64190385       7.37311590
O        5.77878353       2.88668287       8.90401460
Li       8.61684596       1.80248198       3.00029293
Li       0.16165352       7.98286407       9.48842794
Li       3.86607216       5.94698959       9.12866304
Li       8.85013159       7.59476805       3.05467535
Li       4.87022830       2.43398992       0.27383002
Li       9.87870696       0.45641319       3.85002925
P        7.18518699      10.12994845       2.35187552
P        3.80910416       5.26548359       3.79797922
O        3.57394820       7.76864617       7.46327999
O        6.45866011       3.10770882       2.88516211
O        5.79343560      10.53663229       2.15354305
O        8.92366288       7.02319660       0.95264171
N        7.71760690       9.94758099       0.93685806
O        5.27939635       4.88213834       4.37360618
O        7.14615628       7.10739374      11.79821690
O        7.59340597       8.82187364       3.00143822
Li       0.80604394       6.41655716       5.34661829
Li       6.24119483      10.57782277       0.12508227
Li       6.53948795       8.74215239       4.68860756
Li       3.85269497       4.75138018      11.32170089
Li       4.52340382       9.49872925       7.74978775
P        7.64552474       8.43089351       7.36135037
P        2.16508072       7.78090697       8.05503009
O        5.26293618       5.22524171       7.69953744
N        8.66341040       9.65227579       7.56166867
O        8.56786624       7.34806716       7.79874210
O        2.18577145       7.49066114       9.61631714
O        2.96997239       1.11691167       5.20816730
O        6.45971630       8.69276051       8.21525088
124
Lattice="10.1931 0.0 0.0 0.0 10.9684 0.0 0.0 0.0 12.7908" Properties=species:S:1:pos:R:3 material=LiPON model=NEP89 temperature_K=1500 phase="NVT production" source_frame_index=420 relative_time_ps=42.0 pbc="T T T"
Li       1.38141798      10.33134902       6.43097156
Li       3.46319825       2.10490620      10.14827094
Li       5.23147755      10.68640234      10.52858977
Li       5.65500590       2.41536891      12.72848314
Li       0.93768992       1.11202964       5.10202381
Li       2.82614239       3.02282131       4.38962755
P        3.88908212       3.69881807       1.48588571
P        9.11678786       2.13129576       0.32600790
N        0.56003910       3.51487597       4.52761625
O        1.19713634       9.11570999       4.55023869
O        3.53050200       2.13862094       1.51606145
O        3.33913805       7.06181736      12.03704531
O        2.75209374       4.91999642       1.36106048
O       10.11894028       1.62699788       1.37908795
O        0.76626801       7.41997231      11.55220536
O        5.03425237       3.85839571       0.52558922
Li       1.64117655      10.79610825       8.81556760
Li       6.04942378       8.02625056       5.14450675
Li       0.62794497       6.25972389      10.17018925
Li       2.27432643       8.10160849      10.78711201
Li       7.10695132       5.48556285       0.77573847
Li       6.95148721       3.76631375       6.73171803
P        2.62348134      10.96514733      11.74285492
P        9.80274524       4.56247627       5.58720559
O        9.76668401       3.33770883      12.59905138
O        0.49881381       4.85639595       8.77770220
O        2.07863426       1.50319310      11.79803231
O        4.16814861      10.14789449       5.99047507
O        3.41134181      10.50226798       0.19195284
O        8.98064904       3.76076488       6.60541577
O        7.73427471       0.48986526       6.75629989
O        3.29847488      10.74039631      10.25212234
Li       9.63651104       0.94878621       3.04866014
Li       3.77354757       0.50365587       3.23331162
Li       4.98957972       9.64283816       0.73610199
Li       1.63167750       6.38744699      12.45220326
Li       5.15257016       7.01166799       7.19540656
Li       5.96274911      10.43914280       6.03973673
P        1.18568891       9.49437931       2.99352245
P        9.58281809       7.36866866      12.48667170
O        9.67653126       0.27398767       8.39979149
O        4.27237281       3.95088142       2.94937382
O        9.94161657       9.62623582       2.24863203
O        3.96670393       4.31303687       5.75766164
O        1.96440156      10.82284497       2.85408598
O        9.18931992       8.85395622      12.39716645
O        9.19884468       1.04740753      11.94475695
O        2.18425914       8.42211059       2.23288646
Li       7.36138419       6.24147744      10.73826040
Li       3.30580530       6.57309899       1.84124964
Li       8.16431606       0.23749710      10.55725739
Li       7.46211934       8.85645453      12.34034319
Li       5.73696198       7.44252005       2.86132686
Li       9.62138494       1.56611830      10.34846251
P        1.31227018       3.75220947       9.61979855
P        9.10109559      10.86358768       7.04299310
O        8.73839021       6.30640555      11.75272586
O        1.42629141      10.01233285      11.40055304
O        2.87597312       3.58875718       9.23938824
O        2.16156282       9.14825620       7.42891756
O        1.42799660       4.27185203      11.13890877
O       10.03967087       0.46778795       5.93356373
O        0.67938522       2.78268339       3.45052876
O        0.66400878       2.37094480       9.48247267
Li       4.49649956       3.26877985       7.49494861
Li      10.08954937       9.13734067      10.40665131
Li       3.92432462       4.64933290      11.20748482
Li       2.34244420       0.67667564       1.23566710
Li       0.73140077       2.03693632       7.42818196
Li       5.79342847       8.38183053       9.47032324
P        7.64345279       5.28661606       3.65401711
P        4.72413647       7.48606190      12.45149992
O        4.04294958       0.91915957       7.64881132
O        7.14283444       9.19149635       1.40976721
O        7.76520879       2.12178735       0.92693360
N        8.76091521       5.00425149       4.64380587
O        5.92281243       6.58592923      12.11432802
O        4.53308877       6.39488277       4.27358722
O        7.81171840       6.72665384       3.28573749
Li       0.51420384       0.01387743      12.76394094
Li       9.99728394       6.64536967       7.73618691
Li       1.47785515       6.55253230       3.20032252
Li       4.60349924       9.59246012       7.86326117
Li       6.07006932       1.24326025       7.75622645
Li       1.67536460       3.12691239       0.04785220
P        6.54455481       3.18075709       9.81440173
P        3.92216397       0.68118078       6.11770848
O        4.59040501       7.78380926       1.28826150
O        6.76383192       7.85180964       6.78601938
O        7.11687546       1.75050594       9.90011329
O        0.56983200       5.58144974       6.12156987
N        7.52263333       4.30571070      10.29697167
O        5.24120559       1.38661959       5.63291161
O        3.08026646       6.74531804       6.78818617
O        5.31466134       3.36441728      10.71869086
Li       8.78189093       7.84820014       1.95405785
Li       2.07840874       5.32664359       7.04124136
Li       9.00440787       9.29950862       4.84029547
Li       8.50062006      10.45143944       1.20393086
Li       9.35822961       4.69917117      11.05101527
Li       7.17604447       2.51402899       2.88136080
P        6.70773247       9.96172303       2.75722486
P        4.63248137       4.87469013       4.55314035
O        4.21785867       8.10393028       8.58055723
O        7.55087926       4.36976388       2.35702823
O        7.62644608       0.12457759       3.04038310
O       10.10254060       6.81182380       1.01732217
N        5.31915963      10.65390100       2.39612045
O        6.18141534       4.96535860       4.48187634
O        5.42593867       8.75907074      11.72890669
O        6.51085368       9.12832224       3.93541005
Li       9.34794878       5.06751602       1.09114634
Li       2.24965938       8.90228508       0.26368642
Li       4.04394069       9.26269089       2.83028405
Li       9.10107482       3.92256563       8.91748638
Li       2.67927634       8.68392048       5.62233874
P        7.67029779       8.55817624       7.82075817
P        2.77381724       7.79238487       7.95882031
O        6.21515102       3.48871707       8.25429494
N        9.02944738       9.20740053       7.10413381
O        8.21996260       7.52643474       8.73416001
O        1.98578082       7.14458070       9.04562655
O        2.70681124       1.26422061       5.57101850
O        7.01322148       9.63280601       8.73650601
124
Lattice="10.1931 0.0 0.0 0.0 10.9684 0.0 0.0 0.0 12.7908" Properties=species:S:1:pos:R:3 material=LiPON model=NEP89 temperature_K=1500 phase="NVT production" source_frame_index=450 relative_time_ps=45.0 pbc="T T T"
Li       9.25139265       8.06109437       6.08830833
Li       9.98186004       6.92297914       3.47664870
Li       7.84004670       2.70294551      10.23233895
Li       1.11950898       0.65499561       0.34385511
Li       3.12707212       9.89257414       6.20219455
Li       6.81640245       7.22723214       6.28591688
P        4.52806877       2.74085449       1.77666022
P        8.91885583       2.02741980      12.55767019
N        1.01459275       4.70759786       3.72312497
O        1.67300475       8.38538991       3.21917030
O        3.75482762       2.45550414       3.14990536
O        3.25922600       5.62626718      12.55530262
O        3.51415282       3.17598800       0.71556318
O        0.20390601       2.35846338      12.40407823
O        9.28624385       6.50416395      11.64669365
O        5.22101497       1.31048805       1.56845651
Li       9.89753027       2.70376193       7.53121220
Li       4.53632351       8.52713520       4.07091083
Li       2.56730821       4.30145769       6.83484799
Li       3.43007018       8.65790274       9.75941284
Li       9.52716599       0.05705531       5.08580457
Li       2.49257253       3.79425118      11.39063129
P        3.27233676      10.83433468      10.56983897
P        0.16280227       3.62782598       4.79646895
O        8.17246438       3.45810904       0.13058035
O        0.40513046       5.73167197       8.77816483
O        3.49329994      10.13946433       9.20623707
O        3.39918178       2.22413264       7.31945462
O        3.56298931       1.32150735      10.27617175
O        0.58113931       2.32660108       4.02054385
O        9.04577436       1.17612466       6.99856466
O        4.54244643      10.38358168      11.58375355
Li       0.56650838       8.98928063       4.61641622
Li       5.48371895       4.59567383       5.82430057
Li       5.40550800       0.90516114      11.66311254
Li       2.00657896       3.80685994       1.97234332
Li       8.72564803       6.35076614       9.25787874
Li       7.70238611       2.06312809       5.30214828
P        1.82215251       9.95296251       2.87304495
P        8.87289661       7.41033593       0.27170718
O        0.37988740       0.32143967       8.83538249
O        5.80627214       3.89072670       2.12716614
O        1.38979631      10.27230795       1.46196188
O        4.50230920       4.91114893       4.21249476
O        1.30021051      10.91308525       4.05738409
O       10.10164521       8.11078030       0.90848857
O        8.26121069       1.49580564      11.40432265
O        3.39059824      10.12362730       2.81386517
Li       4.47822793       3.78301831      12.05539749
Li       0.62229813       5.69667627      12.04941051
Li       1.64234733       1.45337404       9.57407069
Li       2.46736835       1.44664106       3.98707819
Li       3.36584987       6.97022984       2.03349225
Li       6.48230303       0.49643860       5.82251086
P        0.21239793       4.36156702       9.41075728
P        9.59450634      10.89063925       7.62059830
O        7.82238737       8.52907462       0.00664110
O        1.98724604      10.52597536      11.34164053
O        0.83841434       3.01160208       9.00599931
O        2.68141468       7.66307265       8.27964339
O        1.21678524       4.67997396      10.61886355
O        0.02998871       9.85606432       6.68684457
O        2.06576808       5.16242947       3.23720968
O        8.91269086       4.18648245       9.75855592
Li       4.51591633       1.94862091       8.96963768
Li       0.44930690       7.00613370      10.14917191
Li       9.55207943       0.94154492       3.05943603
Li       1.58489052       8.54083696       0.61630937
Li       6.46503794       0.70911829       8.84410088
Li       9.38511851      10.20407221       1.49019733
P        8.12154374       5.28737513       4.92206435
P        3.32661070       7.11871736      12.09098290
O        5.45071196       0.39403309       7.39319809
O        6.63845318       9.60746138       2.40033327
O        8.63743116       1.36490657       1.15760326
N        8.79138587       3.90572864       4.52833488
O        2.20556828       7.57305373      11.11926104
O        5.12660450       6.39564417       2.21436342
O        7.21124812       5.10690009       6.19097865
Li       6.15115446       7.32437993      10.42485403
Li       0.58272819       5.71917892       6.93315911
Li       3.06657603      10.54362690       0.44519947
Li       5.17414419       9.10178256       1.12610684
Li       4.66189870       9.62306157       7.56908501
Li       7.83874425       4.40280886       7.62328465
P        5.54096770       4.24451981       9.92247549
P        4.46382503       1.53919358       6.43011278
O        4.69599508       7.30596374      11.37579707
O        7.87905565       8.07708139       7.23221184
O        6.05902643       2.99165309       9.31348027
O        0.41371639       3.83243701       6.31941723
N        6.29608185       4.32894030      11.30776680
O        3.90682911       0.38213362       5.47990465
O        4.08600033       8.18502149       6.30043915
O        3.94613667       4.24168003       9.97461126
Li       8.38365353       4.06551757       2.00072381
Li       0.03864762       8.00715023       8.06724307
Li       2.52783196       5.60809666       4.86303394
Li       1.93098312       9.35740039       8.48603288
Li       5.78182715       6.09995712      12.63089327
Li       7.05517880       1.58654633       2.31998384
P        7.37735356      10.12175754       3.51860864
P        5.49364370       5.15974875       3.09562294
O        3.22857411       5.90389783       6.50021143
O        8.93392915       6.51666808       4.87874720
O        7.07721575       0.66425462       3.76216948
O        8.20898590       6.29733027       1.12369628
N        6.34376862       9.33043298       4.52039930
O        6.99356792       5.47903876       3.88005938
O        3.29474234       8.03859091       0.60293220
O        8.88952653       9.72539575       3.61955710
Li       9.32279541      10.78101334      10.98635854
Li       7.35683971       7.26596259       2.33899131
Li       3.68595411       6.21302256       9.74258416
Li       8.02360732       5.17338675      11.91396273
Li       4.66343358       0.88470321       3.65509411
P        7.79816852       8.84787405       8.56264758
P        2.70842202       7.42465867       6.77586978
O        6.19868453       5.45836907       9.13044312
N        8.27999164      10.40487701       8.44878356
O        8.94781324       8.37920527       9.37138902
O        1.51772076       7.73818358       5.98657042
O        5.44598914       2.66585958       6.00495264
O        6.32612503       8.95976334       8.87630971
124
Lattice="10.1931 0.0 0.0 0.0 10.9684 0.0 0.0 0.0 12.7908" Properties=species:S:1:pos:R:3 material=LiPON model=NEP89 temperature_K=1500 phase="NVT production" source_frame_index=480 relative_time_ps=48.0 pbc="T T T"
Li       2.46139934      10.30049204       6.00476625
Li       3.17777644       7.73953513       1.45823905
Li       8.62974405       4.31766678      11.79663184
Li       9.36764805       9.33113407       1.26244973
Li       1.88991436       1.89778720       4.01958522
Li       6.78060321      10.76582205       8.05830306
P        3.66905744       3.24356031       1.57592123
P        8.04654917       0.77310015      12.36357977
N        0.00429738       3.96326008       2.96559737
O        2.55328566       8.62803137       3.18207318
O        2.75766083       2.47774224       2.51475622
O        5.16042908       7.03047561      10.63383236
O        3.19358197       4.09422953       0.33726109
O        9.26344634       1.31230787      11.56519632
O        8.18287572       7.31877525       1.67296298
O        4.49655491       2.10863162       0.70877055
Li       7.30968015       1.91706843       5.04049375
Li       9.70646072       7.37934973       2.84505188
Li       2.45556471       4.27822180       6.50240450
Li       0.46034718       7.15113632       8.30285923
Li       1.62870577       9.97706613       8.64344049
Li       2.75447360       4.24411459      10.77297970
P        2.44505361       0.03559021      10.81094004
P        0.18647827       5.30961507       4.02956140
O        7.71125359       1.52918469       0.92923725
O        2.03136676       4.17312383       8.64176941
O        1.56696794       9.82391201      10.61024166
O        5.68302851       2.46922769       6.73700274
O        3.98385096      10.87332814      11.13387108
O        0.95447724       4.87492626       5.22464727
O        8.69216186       0.63361257       8.16003903
O        1.88507719       0.80565789      12.18182204
Li       9.66420209       5.61858906       6.57401352
Li       8.91448542      10.20001517       4.83629124
Li       7.38059213       9.19895739       0.26685282
Li       3.07501230       0.88558672       1.08287449
Li       6.85428374       6.31236088      10.22052831
Li       3.98399582       1.40031144       4.06762804
P        1.82886788      10.08329773       3.20718516
P        8.82988068       6.83029145       0.40802888
O        1.06007457       0.20625814       7.28672653
O        4.75254668       4.06895562       2.26045938
O        1.10933843      10.39387435       1.78990793
O        4.33448351       4.25808939       4.82287370
O        0.70293776      10.13790110       4.33937839
O        7.94640911       7.10582663      11.78973420
O        6.80782597       0.95062720      11.44929405
O        2.88124226       0.18704654       3.78964490
Li       1.72002806       1.95453176       8.12814015
Li       6.32079070       7.20750240       2.33244410
Li       0.67874254       1.94284775      10.75633988
Li       5.72634111       0.80477018       1.76539614
Li       5.12151831       4.86601116       0.02420511
Li       8.35072657       7.46666948       5.25112431
P        0.40102066       4.33844666       9.42523300
P        9.55287546      10.95573801       7.02237558
O       10.11127743       7.84300320       0.14889670
O        2.04004638       0.94654721       9.58035236
O       10.00039593       5.75386479       9.33215514
O        1.79481279       6.90962655       6.96578590
O       10.07765838       3.27505797       8.36846762
O        9.21350011       1.08045826       5.89771787
O        0.20665604       2.80851971       3.03269590
O        0.78768970       3.95212446      10.89843871
Li       5.06388270       1.24984356      10.25569840
Li       1.51103609       5.30690749       0.00185800
Li       8.79258315       1.82446263       9.74687844
Li       9.47872831       7.87070610      10.86034213
Li       8.49451986       0.85171927       2.27291994
Li       1.03565399       2.35464065       1.59380180
P        7.75257153       4.92659826       5.08084854
P        4.77386229       7.71754488      12.02729011
O        4.74332943       0.65278501       8.13578782
O        6.97900647       9.95427985       5.01433213
O        8.56446736      10.29449611      12.64450741
N        9.05141904       5.87681255       4.62387877
O        5.11134433       6.83386639       0.68676099
O        5.07660354       6.30913060       3.73371677
O        8.11619886       3.59394251       5.66257400
Li       5.46989648       6.80992243       8.46843094
Li       0.28363566       2.33737355       6.21933650
Li       1.42137054       8.98210471      12.57816452
Li       3.96233900       9.09839069       4.44006682
Li       5.15986200       9.44907524       7.47448320
Li       7.65146356       5.83092254       7.96947771
P        6.15189617       3.55644779      10.18597447
P        4.32077681       1.57420489       6.99490502
O        3.21645410       7.70474441      12.15395333
O        8.81641410       7.11289367       7.48125584
O        6.96483281       4.32931311      11.25668448
O        1.21210329       6.28710095       3.29410738
N        5.86712156       4.87716596       9.12992333
O        3.37972834       2.64676372       7.29571239
O        3.16619746       8.09950903       8.63156219
O        4.75700245       3.27007213      10.66333861
Li       1.71360840       8.09228893       4.99194195
Li       2.18647815       8.08676888      10.26122180
Li       4.74710920       6.59587793       5.78957069
Li       7.91378636       2.67154589       7.27794348
Li       6.51226731       8.78078204      10.00284515
Li       8.28074811       4.53230480       1.73446749
P        6.55742261      10.36043025       3.59531840
P        5.22732891       4.80135633       3.74373748
O        4.16697216       6.26873247       7.38702477
O        6.91837948       6.01948530       5.95011578
O        6.03611987       0.89918517       3.66260215
O        9.29152088       5.39751077       0.25347111
N        7.86448862      10.22881951       2.65211658
O        6.70565233       4.30507423       3.70607307
O        5.74406556       8.86214719      12.22193535
O        5.46619530       9.35984355       3.03794400
Li       5.69226088      10.48802125      11.70701940
Li       8.99440575      10.28571361      10.65832818
Li       3.85229323       4.14610160       8.74248373
Li       6.21961084       2.58230682       0.29078557
Li       5.27069603       4.14213967       6.40236718
P        8.26564038       8.47655927       7.91961908
P        3.20748712       7.45032885       7.27865537
O        6.98506966       2.64256201       9.16265014
N        9.01204379       9.43402800       6.81057283
O        8.76307309       8.69039302       9.37216844
O        3.49765293       8.44724267       6.09234732
O        4.11803224       0.60140681       5.89384915
O        6.76213237       8.63351770       7.96340815
124
Lattice="10.1931 0.0 0.0 0.0 10.9684 0.0 0.0 0.0 12.7908" Properties=species:S:1:pos:R:3 material=LiPON model=NEP89 temperature_K=1500 phase="NVT production" source_frame_index=510 relative_time_ps=51.0 pbc="T T T"
Li       4.57118728       9.56346155       8.34590307
Li       9.26542509       4.40165267       1.10926345
Li       8.42967100       4.06413030      10.99082301
Li       8.73908268       9.79920431       0.80423005
Li       5.08850695       2.98711891       7.12329982
Li       5.46284127       1.76472749       4.58279425
P        5.59893997       3.51942800       2.42606692
P        8.68892702       1.32342281       0.65524358
N        1.66618096       3.98445025       1.67008520
O        0.03357114      10.82065948       4.37639678
O        7.02421845       3.01837083       2.40741519
O        2.80294421       8.29917799       0.91577492
O        4.55625306       2.52541942       3.05425502
O        9.49551393       0.10087987      12.55496123
O        9.29956053       7.32556978      10.83553772
O        4.99157769       3.92352630       1.05370237
Li       5.41687206       1.07232167       9.18035213
Li       8.60092578       2.89619949       3.12470455
Li       0.42136471       7.49461065       8.86315915
Li       7.99685640       5.96944476       9.26482236
Li       6.25460455       7.42425416       7.23760534
Li       4.82078764       6.70026681       2.67998289
P        3.00162475       0.35027483      10.79867868
P        1.42743212       4.41431018       3.19794707
O        9.13619250       2.69646049       0.24512061
O        9.49152804       4.75996280       8.12342969
O        1.86059006      10.27565736      11.07287601
O        3.84496865       0.62258251       4.89978929
O        3.98175775      10.71686479       9.88516086
O        1.69952009       3.41413284       4.42887290
O        8.04588574       1.40653217       5.14592939
O        3.51058027       0.74246672      12.15177122
Li       1.15499215      10.03733920       7.90974338
Li       8.94915740       9.17832175       5.27875674
Li       5.81543977       8.53722644      10.41196853
Li       3.54554402       8.34158759       5.15805983
Li       2.63632655       8.58566367      10.34402223
Li       2.28562490      10.41750770       0.63097475
P        0.81250036       9.88541248       3.27675168
P        8.58903655       7.29708176      12.21993759
O        7.43736190       1.71661584       7.62217658
O        5.57891544       5.00754579       3.42081671
O        9.90200376       9.26348160       2.44425817
O        5.51866197       3.64404848       5.46454112
O        1.86433494      10.89698693       2.59194281
O        9.85254641       7.29832012       0.52430780
O        7.16754731       1.07653920       0.31936973
O        1.58311348       8.82496847       3.97186950
Li       4.32233234       1.13289811       1.47051987
Li       5.71808505      10.24218598       0.27296894
Li      10.11185370      10.33315000      10.86772648
Li       6.81665224       1.00735940       2.13324393
Li       0.25883545       5.76597123      11.13152917
Li       6.02948603       7.60490940       0.56440610
P        0.32652770       4.03009203       8.98149540
P        8.35138082       0.89903912       6.70072033
O        7.68119617       8.66358853      12.23833985
O        2.26715521       1.55464603      10.20824804
O        9.89899673       2.85351616       9.74268161
O        1.57717935       8.59913687       7.50513032
O        1.42623908       3.57129518       7.83415014
O        9.61526642       1.42416067       7.17291538
O        2.04554750       3.82635911       0.48827598
O        1.30431015       4.91587859       9.92519870
Li       3.00147956       2.81665124       8.80204011
Li       0.78429286       2.47704885      11.19988918
Li       8.41782508       1.34325935       9.55339605
Li       1.03830134       1.61932807       7.88409526
Li       1.33706277      10.00446240       5.67230207
Li       1.22294144       2.06984529       2.62372180
P        9.08881323       5.20650206       3.88535151
P        3.82615824       7.61738577      12.71006336
O        2.21870556       0.13270968       6.84562816
O        6.72168026       8.11370335       2.25225785
O        9.04680703       0.93628636       2.10850817
N        9.98887963       4.18836875       3.12929293
O        4.97819402       8.33269934      12.06551585
O        6.29013861       5.96170251       5.66321424
O       10.00979899       5.93254766       4.77483769
Li       3.03526041       5.79962150      10.20052356
Li       3.30082678       3.86648265      11.91923444
Li       1.05322863       6.96910007       1.58966237
Li       6.25392746      10.10970953       5.93475251
Li       4.09055155       5.75361249       6.87543625
Li       8.04475956       3.50618209       7.09426477
P        5.55375396       4.11836837      10.18400305
P        3.57392323       0.72135331       6.39867710
O        2.73554296       6.99155400      11.81405018
O        8.97294102       7.89600261       7.76516435
O        4.48390001       4.88458639      11.17116616
O        2.22595353       5.64083833       3.19644726
N        6.31278688       5.25070125       9.29156664
O        4.72360890      10.95730123       7.19833457
O        3.08258979       7.23322260       9.05917344
O        4.68177623       3.06322137       9.38997958
Li       1.37319912       6.64998287       4.59157966
Li       0.88639811       8.66438104      12.55744661
Li       3.79465804       3.25759848       4.87048547
Li       3.47930148      10.02441085       3.73728070
Li       9.81621548       6.34047523       6.85178579
Li       6.12493232       5.00753478      12.75605834
P        6.17469272       9.21881766       3.13425158
P        6.33294405       4.81887528       4.84616713
O        2.29902718       6.58654707       6.51942780
O        8.32894456       6.06848546       2.97727149
O        4.90418605       8.81154922       3.84365086
O        7.79548101       6.04746954      12.56156648
N        7.20586308       9.35429248       4.26712588
O        8.03120442       4.17392499       4.38288784
O        4.68935066       6.52003968       0.88128865
O        5.76230152      10.42701153       2.17671844
Li       8.65709643      10.86716364       3.63250685
Li       8.85493391       7.63840715       2.03663487
Li       0.56826490       1.84908844       5.16544748
Li       6.33737234       2.79352301      12.54143334
Li       1.26555119       4.64102670       6.10912216
P        8.41833414       9.23958978       8.06518855
P        2.66852287       7.68824408       7.42876680
O        6.83015963       3.40474207      10.60256931
N        8.23933434      10.24603908       6.89001622
O        9.24184427      10.00266662       9.18758568
O        3.90656874       8.57724418       6.90266292
O        3.43406477       2.25387575       6.63784000
O        6.90808400       9.16282089       8.19918604
124
Lattice="10.1931 0.0 0.0 0.0 10.9684 0.0 0.0 0.0 12.7908" Properties=species:S:1:pos:R:3 material=LiPON model=NEP89 temperature_K=1500 phase="NVT production" source_frame_index=540 relative_time_ps=54.0 pbc="T T T"
Li       4.32045662       8.98789570       6.67273102
Li       4.47624267       5.24746375      11.98168904
Li       0.50883176       6.71267449      12.14334237
Li       2.85631578      10.80336879      10.02351462
Li       6.48987232       0.55422638       7.00103519
Li       9.41394060       9.86844402       4.61399608
P        4.58697292       3.68494467       1.90892256
P        8.37119509       1.45937029      12.11839121
N        0.41071590       4.00775423       1.99613151
O        2.29714667       0.07730293       3.35858627
O        3.83380069       2.78680678       2.87793562
O        3.24283448       9.59688517      11.33015113
O        3.73064960       4.51101163       0.91864313
O        6.97747975       1.09405446      11.21779004
O        8.25251924       6.81671529       1.81613548
O        5.77151675       2.61223243       1.69857914
Li       8.25807986      10.55437049      10.75571515
Li       3.51219123       6.03555763       9.72567658
Li       4.07468142       3.82600649       7.94428529
Li       9.43889513       8.22237432      10.02426981
Li       8.51511285       5.73862081       8.32707190
Li       7.93972090       7.36472882       4.31568562
P        2.60866346       2.10540161      11.69426863
P        1.07876957       4.52917018       3.54154952
O        8.90378991       2.47673508      11.06697831
O        0.77518681       4.93665169      10.89799607
O        2.01476135       1.06287460      10.66091947
O        3.39986973       2.18197799       7.24824089
O        3.48301741       3.15103760      10.96086749
O        1.63594709       3.24829190       4.17546128
O        8.41903182       0.59844752       5.96950913
O        3.59837777       1.22016988      12.39940472
Li       4.66635156       6.51819268       4.01351859
Li       1.60255303       7.53749592       4.46746079
Li       7.74219460       1.01820957       2.73333977
Li       6.99637027       1.96374134       9.58130185
Li       9.31464361       8.51651579       2.47359882
Li       2.39299033       4.57663676      12.48945741
P        0.98849041      10.52441118       3.01657818
P        7.78499347       6.48016622       0.40317062
O        8.93929347       0.95625430       8.68121878
O        5.35559119       4.73981480       2.84950911
O        0.92882434      10.47432714       1.40787274
O        5.59278160       3.15427843       5.21877469
O        0.43155091       9.02001341       3.53550099
O        6.23616437       6.47184456       0.30387115
O        8.12197609       1.93064881       0.76701344
O        9.83743990       0.50164480       3.38200264
Li       5.03308512       0.97994412       1.41240634
Li       3.02669437       9.38461164       1.30110719
Li       1.92481571       8.53618946       8.68572326
Li       4.50041745      10.19540806      12.65682667
Li       1.12679960       9.93375018      12.33116001
Li       5.63868550       7.75333575       9.54874041
P        0.86922361       4.81200944       9.26828844
P        9.32333728       0.25456114       7.09801909
O        8.56146279       6.97701877      11.99685202
O        1.55422786       2.76656872      12.40759144
O        2.51358161       4.61469839       8.89212434
O        3.82420590       7.54160599       7.81086573
O        0.59852370       3.42828425       8.72501010
O        0.61602233       0.45899999       6.83699021
O        0.67766410       4.97431519       1.20147141
O        0.13290482       5.77450246       8.30138696
Li       0.74608574       2.25407897       6.90982121
Li       5.65355954       0.17127679      10.21706961
Li       9.09261115       5.10989584      10.95735758
Li       0.18402090       0.92870289      10.10337833
Li       5.45151080       8.31269656       0.01611548
Li       0.65069212       5.41884174       6.28306095
P        8.96129581       4.57264568       5.10939135
P        2.48862113       8.16832312      11.62119966
O        4.63497135       0.14501247       6.33344606
O        7.85318007       9.93009218       1.88759460
O        9.60098442       0.49480242      11.97382291
N        0.13073200       5.14930494       4.41057674
O        3.46946511       6.75978353      11.51185032
O        5.99428395       5.61930786       5.37832920
O        9.39121224       3.34015151       5.90562333
Li       9.56436919       0.81808338       1.20460939
Li       2.34500167       6.17536895       1.48602746
Li       1.90473348       1.74480459       2.24232678
Li       5.31896628       1.95175989       3.83489111
Li       3.41883961       2.16206864       9.41709505
Li       6.47706263       6.84482593       6.86419513
P        6.54853786       5.03547877       9.79690290
P        4.09558469       0.75454341       7.55253369
O        1.36029864       8.15094147      10.65298494
O        6.39194858       8.96588632       7.02512342
O        5.70327817       4.65087086       8.57461536
O        2.07185469       5.74046237       3.28356383
N        6.26346535       3.81214240      10.83153977
O        5.20005290       1.02466753       8.69068793
O        3.65807114       7.81306875       5.33653295
O        6.35071773       6.36335108      10.40051334
Li       3.21892604       2.16325296       5.12684209
Li       7.18969976       3.36440997       0.40110482
Li       3.25935888       9.53730225       4.16537735
Li       6.77790165       6.04567718       2.39993678
Li       9.85190931       7.55373809       7.07918852
Li       5.39561808       2.37035360      11.57481882
P        6.52433930       9.69935132       2.61815896
P        6.07604523       4.34540989       4.52494624
O        3.71472097       5.29874609       6.30260913
O        8.67240163       5.98758243       5.75727294
O        6.56573253       8.37709063       3.73276886
O        8.06275738       4.84782852       0.30610804
N        6.22000743       0.02955508       3.39636580
O        7.83275918       4.13389706       4.03888447
O        1.86000861       7.80177403       0.23479669
O        5.37725058       9.46694035       1.52551648
Li       6.61917543       9.64427202       5.44140177
Li       8.54800926       4.15223716       2.06346542
Li       0.03902371       1.66740658       5.05479203
Li      10.07659273       3.26672388      12.38892913
Li       9.19843464       2.80111938       9.10512535
P        7.59589020       9.00666625       8.05861118
P        3.19043847       6.74351891       6.46007068
O        8.07395682       4.57383767       9.62812315
N        8.80602065       9.70758481       7.48919000
O        7.77993231       7.33201946       8.07816184
O        1.58187754       7.09694349       6.64593498
O        2.92807742      10.83514735       8.29880689
O        7.27198595       9.46471817       9.54636197
124
Lattice="10.1931 0.0 0.0 0.0 10.9684 0.0 0.0 0.0 12.7908" Properties=species:S:1:pos:R:3 material=LiPON model=NEP89 temperature_K=1500 phase="NVT production" source_frame_index=570 relative_time_ps=57.0 pbc="T T T"
Li       8.13685007       2.20050871       9.10302918
Li       6.08049190       5.40713702      12.27949092
Li       0.40438210       6.85966958      10.69807967
Li       3.48672528       6.53072430       9.23717285
Li       4.27653657      10.24761051       5.94416580
Li       0.70416368       6.72284674       7.45000035
P        6.30815220       3.10425773       2.04159584
P        8.22630628       0.58798648      11.74079342
N        1.42643810       4.28468124       1.91096412
O        1.58122289      10.36510688       2.83896804
O        4.95809698       2.28618478       2.07686358
O        3.39532269       8.25105173      10.88707881
O        6.53894794       3.76218722       0.59333819
O        7.26285608       1.63944965      10.91853796
O        7.90540916       7.48538931       1.25659679
O        7.55154326       2.36274416       2.37483565
Li       9.00650933       4.61582249       8.04886376
Li       4.57913454       7.17041531       5.61922352
Li       1.27821301       5.30100774      12.77690907
Li       3.17385282       9.53269788       9.80260025
Li       8.25417659       0.00986718       4.44758406
Li       8.18356087       7.80546223       3.36803246
P        3.21540867       0.61782042      11.24546979
P        1.04227098       5.42071698       3.13178381
O        9.15480195       1.60724901      12.64909542
O        0.24492264       5.69230749       9.42423255
O        3.39484184       0.09442876      12.71055991
O        2.49697306       2.39250781       3.82067126
O        4.20993648      10.84045138      10.28269357
O        1.91636381       5.48210226       4.34028155
O        8.06683388       0.70977197       5.95279529
O        3.64389963       2.04963310      11.52052336
Li       2.57974738       8.49577405       2.68734412
Li       0.74486069       3.77689062       7.14025055
Li       8.56498988       1.44817096       1.47895027
Li       4.70004156       3.37481788       6.85753890
Li       0.87526417       8.61273578       0.84006225
Li       7.33454066       6.04861091       9.85586241
P        0.19281721      10.63473603       3.16630631
P        8.83871778       6.64832237       0.17456686
O        6.99842717       0.64095755       8.34716294
O        5.87358774       4.41398143       3.00460727
O        9.41672486       9.81656130       2.00984399
O        6.45275682       3.11297837       5.26388999
O       10.05114471       9.95777584       4.44598681
O        9.19036904       5.42932991       0.92893953
O        7.67347527      10.14432594      12.23234462
O       10.17089491       1.12907326       3.19230492
Li       8.88780552       8.69475070       5.40738606
Li       4.85647140       0.75106931       0.99736654
Li       5.61132012       1.09126955       9.47958982
Li       0.71804322       1.03421644       9.19255650
Li       5.58722797       2.58479289      12.26251416
Li       3.59715019       4.44580007      10.95046917
P        1.02343786       4.45372697       9.65701518
P        8.11739931       0.01312019       7.32085796
O        7.86294065       6.48266966      11.64539688
O        1.81821849       0.30727247      10.71660713
O        2.53088650       4.45333597       9.19195929
O        2.86334459       6.93517798       7.06086629
O        1.04616463       4.51050946      11.22339157
O        9.59402772       0.36774634       7.71629223
O        1.55060641       3.40548895       1.02991681
O       10.08143228       3.19941078       8.93157674
Li       8.06378929       8.87907164      11.05254797
Li       0.19240260       9.68481311      10.40399337
Li       0.88282567       2.52787802      11.61629376
Li       8.29030493       3.66914002      12.24160784
Li       5.95951439       9.78340354      11.37671559
Li       3.35786264       5.16617940       5.77739970
P        9.18979538       5.63732918       5.11519958
P        3.69053044       7.39459283      11.99957070
O        1.49154273       1.29551816       5.71563189
O        6.86430613       9.27951748       3.75423159
O        9.30211579       0.27054992      10.54286836
N        9.70837093       5.11658929       3.55689084
O        3.14410352       5.90272974      11.80488444
O        5.03837926       5.28920416       5.55517692
O        9.51689282       4.32575700       5.88761303
Li       5.87760837       7.91764637       1.01454400
Li       6.06724754       6.84418011       7.81723859
Li       3.97808212       9.52416499       0.91513462
Li       3.31000682       0.33404975       3.06971472
Li       3.46427969       2.66661785       8.41104013
Li       0.72143048       9.79425382       7.59435739
P        5.79772193       4.12664114       9.34524257
P        2.54762524       2.37084911       5.43653548
O        3.14938204       7.98924318       0.64095734
O        9.25109618       8.71999815       9.41330142
O        7.38533324       4.37937212       9.22283618
O        1.34298406       6.70825007       2.22152632
N        5.61214864       4.20929066      10.92510801
O        3.99759442       1.77999004       5.95327774
O        4.22659030       8.98734789       7.68943816
O        5.24653291       2.87885745       8.75701550
Li       8.13008286       2.54328273       4.60372360
Li       7.75780142       9.73207619       1.65845483
Li       9.84772042       1.65190449       6.21613569
Li       2.30086872      10.87016604       5.42563199
Li       0.77089589       8.02572759       4.45424935
Li       2.83360748       2.26723036       1.66542864
P        5.40099234       9.32222715       3.20929383
P        6.29150621       4.59357162       4.72029198
O        2.03075425       9.23073310       6.26665357
O        9.72782871       6.99039929       5.34109998
O        5.57094793       9.55032177       1.63431287
O       10.09240393       7.47324558      12.62544927
N        4.89151246       7.85180239       3.75103231
O        7.63904332       5.49027550       4.76160323
O        5.28787141       7.32954629      12.16060451
O        4.62363759      10.53266900       3.91078472
Li       5.35331821       1.56517265       4.86862456
Li       6.83737454       6.45246688       2.26689887
Li       0.48566014       2.97588632       3.36892108
Li       4.43871399       5.83273204       3.41844967
Li       5.79341584       9.76017297       8.32063812
P        7.91084120       8.41030791       8.61977083
P        2.75706849       8.47573232       7.51199687
O        5.28409421       5.30255893       8.54497805
N        8.06942768       9.25036089       7.32215648
O        6.89356654       8.79682085       9.63562236
O        1.89798912       8.50421872       8.67091876
O        2.33278592       3.76461120       6.31523348
O        7.73683433       6.92926522       8.28450327
124
Lattice="10.1931 0.0 0.0 0.0 10.9684 0.0 0.0 0.0 12.7908" Properties=species:S:1:pos:R:3 material=LiPON model=NEP89 temperature_K=1500 phase="NVT production" source_frame_index=600 relative_time_ps=60.0 pbc="T T T"
Li       1.91479952       2.69557050      11.53415651
Li       8.54679870       6.01059176       8.24917221
Li       0.30348405       7.95696775       2.44442329
Li       6.63998685       7.06548849      10.29302891
Li       8.19328665       9.45059828       4.58532925
Li       9.55350580       8.06348821       6.98756181
P        6.27931941       3.73221283       2.14897663
P        9.24964260       0.59205153      12.30222814
N        1.11666643       4.13072551       2.39398491
O        1.65081192      10.25484730       4.29748432
O        4.97674707       3.22513542       1.61426056
O        3.02464229       5.30362672       0.17997777
O        7.17392695       4.95393742       1.62853222
O        9.07097452      10.49332717       0.50957725
O        9.15900756       7.63721349       1.02845477
O        7.38545922       2.66191309       2.54137198
Li       8.46608237       4.10767058       5.93864290
Li       1.84601208       0.39780042       0.49061405
Li       9.61501044       3.30492819       0.61459734
Li       9.26581900       9.93794479       9.63879057
Li       9.20707459       4.95496154       1.83060611
Li       3.57835130       9.57628338       0.64978257
P        3.78944128       0.70662792      11.07606284
P        0.69482133       5.07039662       3.75236834
O        8.90845261       1.96778248       0.25876338
O        1.58144763       3.83392935      10.01924250
O        3.59483711      10.06686655      11.40882550
O        4.60209794       1.17157188       6.42769255
O        5.11853630       0.63861605      10.16425190
O        1.62581788       4.60828136       4.88543529
O        8.97448672       9.83181479       6.00867924
O        3.64828116       1.60428888      12.39611846
Li       1.09611872       5.76465227       0.72423531
Li       3.58356222       4.54493544       2.32677922
Li       0.90504978       8.58948449       5.02996018
Li       8.68085895       2.40912106       8.20374307
Li       6.40476868       6.77376976       2.20827594
Li       8.41798668       5.03569507      11.33545818
P        1.42743560      10.74647605       2.83471657
P        8.99429602       7.02350125      12.39762094
O        8.25088829       1.41371198       6.61620727
O        5.82159585       4.11797021       3.75651854
O        1.39677449       9.69251912       1.60796033
O        4.67482636       5.49096080       5.75576953
O        0.03030533       0.33893574       3.25234256
O        9.79654456       7.88257141      11.22933062
O        0.38829131       0.64036753      11.60259859
O        2.06977494       1.04832760       2.28344337
Li       4.40550253       7.39340482       9.60563449
Li       8.71155327       1.26138105       1.93125871
Li       1.12693218       0.22891666       9.82204926
Li       1.63036484       8.92189309      10.93618625
Li       7.71564270       2.34947555      10.63409878
Li       4.37133253       1.31729926       1.26671309
P        0.21409567       4.01528181       9.42832851
P        8.36575253      10.79628810       6.98316052
O        9.43302575       5.49132054      12.59921284
O        2.70207179       1.07342899      10.02817076
O        9.09130642       3.57689515      10.15849058
O        3.59449091       7.13273833       7.83551131
O        0.05398063       5.43977030       8.89520797
O        9.53735132       0.01036089       8.10476621
O        0.93805011       3.15054538       1.66667329
O        0.20769599       3.09207307       8.17859361
Li       5.06933018       3.54476932      12.28915861
Li       5.60394056       1.49164744       8.42884840
Li       0.92859119       2.05934031       3.35249678
Li       2.13020968       6.47131137       5.87576355
Li       5.54246347       9.46823591       6.12124596
Li       3.51439101       4.70132744      10.51751603
P        8.48731228       6.39165411       4.61207447
P        3.56482851       6.62166743      12.22477827
O        3.55526242       2.64925329       4.73209899
O        6.85821285      10.42606807       3.64179251
O        8.23190754       0.09053067      11.13388780
N        9.33432754       5.15343450       4.16512484
O        3.81125068       7.67454582       0.52779374
O        4.29059208       6.36464766       3.37293287
O        8.33152598       6.10714074       6.24593135
Li       0.38697298       8.94272181       0.28055171
Li       6.13713732       2.42430525       6.50918962
Li       0.58689555       6.74308545       9.91170126
Li       8.53473656       9.09052772       1.67645167
Li       1.10832810       3.34525041       6.81295242
Li       4.99738334       7.74897463       5.62503976
P        6.10293252       4.27754759       9.57795325
P        3.35794484       1.87789544       6.11301852
O        2.44125061       7.04943397      11.38364531
O        8.46406416       8.20801539       8.39519324
O        6.98116120       5.46472576       9.21542308
O        1.07343176       6.29176412       2.99647935
N        6.29658207       4.05437672      11.17424452
O        2.20268403       0.80780184       6.21583025
O        1.85242295       8.49692127       9.02175791
O        6.38134976       2.97760285       8.79194459
Li       6.18274670       6.10508196       7.03407958
Li       7.00002384       9.34855500      12.69059829
Li       2.34130724       2.57435550       8.93733884
Li       0.69423869       0.10702066       6.43128631
Li       2.96172365       7.12027216       2.25640137
Li       3.84831346       5.15011927       7.64233082
P        5.54370183       9.91959608       3.16007142
P        5.18152257       5.53910798       4.30969523
O        3.52928780       9.51266231       7.39344544
O        9.14786170       7.68231141       4.03972633
O        4.87561054      10.94448729       2.19497290
O        7.54256106       7.30420391      11.94956976
N        5.87506632       8.71789538       2.24855422
O        6.81903761       6.45763928       4.22041715
O        4.81033564       6.48928261      11.48445681
O        4.66651400       9.25513055       4.29437429
Li       4.95014977       2.16509915       3.22340907
Li       6.46474909       5.65415006      12.53223750
Li       7.95345581       1.98285336       4.00880429
Li       3.27424059      10.18714039       5.48378926
Li       5.26006652       9.82085301       9.82051172
P        7.02367804       8.65505697       7.93850212
P        2.65618697       8.27047074       7.70390991
O        4.72510577       4.85001034       9.09535633
N        6.89276324      10.35515376       7.49143214
O        6.05281406       8.51881785       9.09067234
O        1.61864540       8.02421905       6.59462187
O        2.97848135       3.09378042       7.08293308
O        6.57253281       7.87496976       6.57431843
124
Lattice="10.1931 0.0 0.0 0.0 10.9684 0.0 0.0 0.0 12.7908" Properties=species:S:1:pos:R:3 material=LiPON model=NEP89 temperature_K=1500 phase="NVT production" source_frame_index=630 relative_time_ps=63.0 pbc="T T T"
Li       9.77199068       2.92038291       3.22864282
Li       2.91849740       8.37640660      10.62967209
Li       8.47095443       8.00519738       2.63232700
Li       7.29131227       3.49684897       6.57605507
Li       0.60321998       3.37069287       6.84687703
Li       2.41265408       4.22653246       4.83615897
P        6.63882760       3.47119845       0.91307365
P        9.17616266       1.18024895      12.07587322
N        1.75078116       3.48960089       0.77513126
O        9.27926623       9.70856028       2.32405911
O        6.49302048       2.82221655      12.35280927
O        3.46955819       8.06470018       1.31162142
O        5.26762401       4.22199925       1.19602016
O        8.15704270       0.15466952      12.61105200
O        8.76274446       6.51648376       1.20739366
O        6.48346571       2.15041568       1.81637825
Li       9.37595577       6.51656523       7.21520810
Li       8.38476340       0.37037300       1.78919711
Li       5.22125841       6.61255134       1.85545076
Li      10.07471774       9.14526667      11.05324209
Li       4.93120485       2.03437350       8.83717759
Li       2.87571255      10.86792518      10.12954775
P        4.91560490      10.55450423      10.83197825
P        1.62500685       4.32860587       2.31960134
O        9.49620122       2.20753982       0.48062023
O       10.05218348       4.07826681      10.59305817
O        5.74384464       9.95243375      12.06669436
O        4.30553637       2.29681839       6.95416205
O        5.78718178       0.60722861      10.02957427
O        2.07431883       3.06517135       3.19892985
O        7.25404010       1.27271544       6.36767659
O        3.76079918       0.37081226      11.38058173
Li       2.73534587       4.62429790      10.97762497
Li       6.21496044       0.25452188       1.08565587
Li       5.75766113       6.53545428       7.91779072
Li       7.92600770       4.10753723      10.49133503
Li       4.34527524       2.87563373       0.01715227
Li       8.24337729       6.72958457       9.65029751
P        0.15131233      10.55093448       2.99933763
P        7.96404822       6.55217283      12.65160897
O        8.68530561       2.70003137       7.61960532
O        5.95221418       4.02989501       5.20957206
O        0.59856269       9.69550562       4.23239226
O        6.77530482       6.18489958       6.03282877
O        1.31060449      10.53500626       1.88880295
O        7.93773149       5.11717070      12.02990664
O        0.12407164       0.23345488      11.53848652
O       10.01974604       0.97841928       3.45359567
Li       6.63662261       7.86007033       5.72807549
Li       1.42000604       1.75909807       1.63565202
Li      10.18999205       9.69151339       0.71103306
Li       0.78774185       6.95607030      11.92833996
Li       0.29710072       9.53407134       7.19968741
Li       4.34347604       4.29413819       3.13511028
P        0.62813520       4.97159148       9.61551619
P        8.47374420       1.23140102       7.42261613
O        6.58714582       7.00972398       0.10633992
O        4.31709342       9.61421980       9.70566003
O        1.14619531       4.27274533       8.37367161
O        3.39730402       5.96056223       5.98404913
O        9.96153417       6.31052054       9.35349082
O        9.63098016       0.41066026       6.90793730
O        2.30979409       3.09514264      12.49142304
O        1.79186071       5.71612212      10.32444943
Li       5.44479221       7.60637115      10.39751964
Li       5.73396915       4.78186761      11.92583671
Li       7.75266943       2.82234609       4.50412104
Li       4.63594296       4.08577187       6.60500174
Li       5.38424258       1.63039813       5.51135766
Li       2.71312419       5.22213698       7.62178928
P        9.57664462       5.49859559       4.00926118
P        2.98023803       7.48007520      12.72251737
O        1.95040798       2.21516499       6.39762226
O        4.04174586       0.17244452       4.55530624
O        8.57699805       2.05726426      10.91220669
N        0.03000741       4.79009977       2.62983040
O        3.75214148       6.56376843      11.73086602
O        5.71378793       6.27827741       3.85242788
O        0.24086208       5.13459309       5.23267758
Li       1.93379793       0.27714713      12.07867068
Li       5.95004227       0.21578843       8.09697753
Li       0.36569647       6.45990000       1.80168942
Li       5.03028167       9.12499420       0.85873435
Li       2.46274424       1.89623305      10.59657163
Li       3.28208370       9.42043148       7.97367849
P        5.37805109       4.58741563       9.35712661
P        3.01484559       1.50689810       7.34756377
O        2.42331952       8.76283913      12.16612280
O        9.84283705       9.51830027       9.33795661
O        4.60300328       4.09929516      10.46884292
O        2.64049943       5.42095283       2.67357094
N        6.08878707       5.93580879       9.62402550
O        3.02434820       0.03356424       7.29597271
O        1.62120460       7.37418037       6.95570026
O        4.40617127       4.84081607       8.24388610
Li       8.17661570       9.56048534       5.08866986
Li       0.03439213       3.82244633      12.49376296
Li       9.85470316       2.39539412       9.09093571
Li       7.33533432      10.94924100      10.56105342
Li       3.32770413       6.85929718       4.07437345
Li       2.50399183      10.13138662       5.27897134
P        5.16543533      10.65003395       3.64002877
P        6.45633689       5.35909013       4.85497696
O        4.29437967       7.96464603       7.26652576
O        9.47502273       6.92893319       3.57389342
O        5.98877926       0.96816779       3.73941645
O        8.90016220       7.56159591      11.97915343
N        6.05698145       9.52016109       4.24268329
O        8.07147280       4.84703409       4.06526831
O        1.71692092       6.48094102       0.35306569
O        4.71106779      10.42159525       2.15217834
Li       3.06288939       9.41202864       2.24529317
Li       6.69449436       2.25233989      10.73375495
Li       0.48984733       1.48081481       5.23085774
Li       0.89931545       7.85536362       4.81968184
Li       7.96225117       9.29643162      12.01952620
P        8.53220628       9.50566243       8.55933429
P        3.01890936       7.38560969       6.38865100
O        6.42975723       3.52946793       8.98096624
N        8.07593524       0.19954741       8.61858955
O        7.48222699       8.87689131       9.48917120
O        2.85133586       8.23276515       5.11483287
O        2.75731948       1.71236761       8.80992019
O        8.67367814       8.73838662       7.21213904
124
Lattice="10.1931 0.0 0.0 0.0 10.9684 0.0 0.0 0.0 12.7908" Properties=species:S:1:pos:R:3 material=LiPON model=NEP89 temperature_K=1500 phase="NVT production" source_frame_index=660 relative_time_ps=66.0 pbc="T T T"
Li       0.27714600       2.62491954       3.36483666
Li       4.32380402       9.98676182       8.35136777
Li       7.11117202       1.51375079      11.71208347
Li       8.79559874       3.38938672      11.86746268
Li       3.48111042       9.83258793       5.52596788
Li       6.01193293       5.19413850       5.17592980
P        4.73268229       2.20485984       0.61305652
P        9.88716953       1.24357569      12.34140415
N        1.40818693       5.02216307       2.17268494
O        1.57813608       9.93308943       4.84652176
O        3.84552140       0.97563871       0.05285140
O        3.60662768       7.08492309      11.65250441
O        3.96012280       3.41168087       0.24233949
O        1.17858858       1.28733819      11.86206803
O        8.64657447       7.54452922       1.64164944
O        6.10347828       2.08748018       0.20405755
Li       9.73664551       5.61803622      11.42775443
Li       9.23549830       4.45390306       1.51744210
Li       3.57264422       7.52674031       3.11883792
Li       4.90229883       7.41315922       8.85546157
Li       1.43489130       3.44503221      12.75717198
Li       3.87401156       1.47010900       9.95490346
P        5.70572199      10.06274786      10.46793091
P        0.74060146       5.20266506       3.82109846
O        9.65833674       2.40599529       0.58229302
O        2.28267799       5.02238631       9.25930980
O        6.01175084      10.18239020      12.05272778
O        1.89530753       2.27984294       6.37501185
O        4.31436829      10.73605038       9.79891335
O        1.66648840       4.80651275       5.07545598
O        8.89883126       1.85337852       8.22139706
O        6.07590191       8.57197406      10.01941239
Li       3.52265045       5.27507202      11.01081566
Li       7.87070188       3.37363342       7.52472291
Li       7.48790481       7.22058780       2.81512685
Li      10.11146919       8.43066526      11.85518659
Li       6.77252639       4.91380343       0.28948337
Li       8.43022136       9.47732285       1.35191728
P        1.06219127      10.40459722       3.41265022
P        8.08821526       6.99801519       0.26889202
O        9.37481812       0.81947051       5.99553249
O        5.14784519       2.34433120       2.18986344
O        0.17374287       0.70695152       3.52333793
O        5.07306070       3.79137202       4.47317424
O        2.49196050      10.60432014       2.68315036
O        8.60715125       5.59287689       0.38967420
O        8.90915121       1.89445478      11.09193910
O        0.35818431       9.54458236       2.41574522
Li       8.54262310       0.14329625       3.84007753
Li       3.88938409       5.53854522       0.60467765
Li       8.96892297       0.67563452       9.56329398
Li       7.37975710       7.34133876       5.86778346
Li       6.43030523      10.35501710       6.12041726
Li       6.12613976       0.44732303       1.06063783
P        0.80525538       4.64807563       9.49474554
P        8.28776454       0.78823527       7.05754850
O        6.61909257       6.97120863       0.30370251
O        6.74605739       0.02196953       9.67744475
O        0.12427705       6.18982431       9.38621640
O        5.68590581       6.73098521       6.08335192
O        0.06738789       3.76956259       8.37212031
O        6.86102399       1.05781433       6.66583532
O        2.43084753       5.27042065       1.25118246
O        0.72191364       4.27500712      10.96004627
Li       5.26931071       2.93618006       6.51570323
Li       2.08038452       6.85485085       8.80205743
Li       3.73154872       1.03393825       3.97080632
Li       0.99975798       0.19284991       6.00582257
Li       2.15760370       0.58789249       0.46178085
Li       8.99415486       5.82863623       8.32233692
P        8.34524409       4.25868873       4.54244721
P        2.56094312       7.89968492      12.50709981
O        3.42402516       0.28748554       6.92164686
O        5.33595708      10.61569685       4.33678133
O        9.30012341      10.90563762      12.76902758
N        9.65969335       4.31086997       3.66586740
O        2.36043531       9.26991441      11.79184835
O        5.77569705       4.94360924       2.17166060
O        8.58547485       3.57334512       5.82897632
Li       8.71973081       3.01114570       9.45870584
Li       6.04183212       1.66266190       8.41554719
Li       3.21278113       3.44301066       4.79988512
Li       9.02854420       7.63364388       9.80018451
Li       0.04054016       2.00479705       7.26481129
Li       3.82226209       4.26936279       8.86256126
P        6.41022958       4.46422130       9.97531040
P        2.79309486       1.69421515       7.44525182
O        2.88688876       8.00214465       1.32827006
O        8.96263243       7.78822405       7.60247869
O        7.02875828       4.23690139      11.27841476
O        0.19215004       6.67118268       4.11756251
N        5.52690410       3.19585561       9.39416595
O        4.06528694       2.70941100       7.78248922
O        3.50609600       6.72155278       7.33982109
O        7.65212788       4.77047906       8.91258652
Li       9.41443409       8.36016434       3.68867895
Li       1.16228672       7.21868652       1.92356256
Li       0.42463724       3.91362848       6.36381760
Li       2.11960184      10.69058880      10.36593114
Li       5.29958840       7.30400137      11.16684971
Li       1.42304946       8.23641374       5.29018904
P        6.42003072       9.58866717       3.62645473
P        5.83282026       3.65454352       3.11365281
O        5.27739092       8.79843615       7.24632455
O        7.89022406       5.75613627       4.45847942
O        7.64247322       9.02758087       4.54278502
O        8.51951206       7.77123963      11.73122126
N        5.70576045       8.47302774       2.72693221
O        7.43232051       3.40436555       3.44480041
O        1.24603986       7.07265855      12.41139491
O        6.98921079      10.51170883       2.41158830
Li       3.91324629       9.97899657       1.65989668
Li       7.82058478       2.23571645       1.01132421
Li       8.07017187       9.71128352      11.32128397
Li       6.69734763       8.49504121       7.87432568
Li       5.97483463       8.70102602       0.96100577
P        9.54562676       9.24687661       8.13451493
P        4.40934649       7.60265240       6.51980671
O        5.29608962       5.57006559      10.04194240
N        8.42946021      10.26183315       7.56372644
O        0.72856002       9.38177328       7.51410228
O        3.88148476       8.22276085       5.29707740
O        1.94889876       1.41368031       8.75768506
O        9.64382205       9.35717666       9.57368636
124
Lattice="10.1931 0.0 0.0 0.0 10.9684 0.0 0.0 0.0 12.7908" Properties=species:S:1:pos:R:3 material=LiPON model=NEP89 temperature_K=1500 phase="NVT production" source_frame_index=690 relative_time_ps=69.0 pbc="T T T"
Li       5.51694976       0.90501015       0.63500226
Li       5.99610007       7.81557510      10.90186677
Li       5.24249741       2.03010587      10.06377581
Li       1.08586375       6.86333742       1.54944285
Li       9.09205078       9.77647650       4.08386693
Li       9.88198189       3.02971155       6.05991980
P        4.56905895       3.10384760       0.90167981
P        0.11759797       1.16178807      12.23577661
N        0.35888087       4.49321639       2.58323753
O        9.71885894       0.82203952       3.57427037
O        3.94421939       1.98883448       1.77173812
O        4.07749679       7.34739900      12.29523498
O        3.77910058       3.32788106      12.27177311
O        9.64693762       2.35693574       0.08875733
O        9.79952858       7.68598745       0.69868490
O        6.14592053       3.05216716       0.75148653
Li       0.90411312       5.80201139       7.08795232
Li       7.67454120       3.84477730      12.40027155
Li       5.47039764       6.80215880       3.95809923
Li       9.23384655       3.43208866      11.11265277
Li       0.83966711       7.60328775       4.91672970
Li       5.71350283       0.03222181       6.21450420
P        5.57986196      10.21112297      11.62240041
P        9.98931013       5.69088023       3.91756667
O       10.08656423      10.87706265       0.31439020
O        2.96683586       4.69106726       9.43238097
O        7.01723925       9.44889031      11.92477805
O        3.97596599       1.81454565       6.43876402
O        4.54839580      10.29519950       0.11475451
O        0.66061926       5.41107724       5.08729903
O        9.88242039       1.28259731       6.96489800
O        4.83473805       9.24740757      10.54354459
Li       3.60705980      10.90097703       1.72081249
Li       0.38163008       1.71777572       8.80222042
Li       3.34074413       7.56242735       2.44998852
Li       9.66492462       2.21993544       2.56289942
Li       2.04696178       8.04988663       9.10179486
Li       7.88691916       7.04974267       2.53557033
P        0.95014763       0.76663486       3.90958382
P        8.91525431       6.96856201      12.43874031
O        7.34828366       1.40993580       6.04077541
O        4.11295077       4.48929569       1.51238232
O        1.63127442       0.17663350       2.57964210
O        4.21986426       3.73843177       4.13414815
O        1.80667848       1.97748693       4.02965382
O        9.09004119       5.44847460      12.20085430
O        9.14481599       0.79853212      10.99674430
O        1.27654832      10.91177999       5.18848388
Li       7.05191581       2.81380467       7.44021725
Li       4.42423385       5.92809196       9.38852502
Li       7.61387663       1.17007394      10.21364769
Li       3.44669038       2.32040161       3.34380855
Li       8.27911436       1.74221650       4.59308972
Li       7.38922710       0.34447971      12.62609452
P        1.31797762       4.43510819       9.04981540
P        8.36995005       0.69682595       7.03373096
O        7.41697554       7.19716297       0.23687348
O        5.81464084       0.69893240      11.34802713
O        1.03221121       5.83725016       9.16255790
O        3.42426547       5.24618086       6.62199873
O        0.81295107       3.82572808       7.66886017
O        7.84667401       0.67138712       8.54948454
O        0.85721179       3.49855621       1.84449849
O        0.19565810       3.57402581       9.80695154
Li       6.53793631       9.74604263       9.39166536
Li       0.02926725      10.34755432       9.71381437
Li       7.05998377       2.68222190       2.29457512
Li       0.54019271      10.59130616       7.04448486
Li       4.39758392       8.86886749       4.76288351
Li       1.95737715       3.95925013       5.43560489
P        7.24467075       4.67381498       3.97699599
P        2.59519584       7.76906245      12.36250058
O        4.74571579      10.77900028       7.64001111
O        5.86824823      10.44188122       4.24795779
O        1.49604833       1.41203595      11.73987783
N        8.37795946       5.70301101       4.05563669
O        2.17223468       8.54790463      11.10870417
O        3.59315518       6.19291377       3.59434156
O        8.02278678       3.59699936       3.40778445
Li       9.48134076       9.49923797      11.73097540
Li       5.62402838       1.78145881       5.31053900
Li       8.07737849       7.88395275       5.01005897
Li       0.67949444       4.68626466      11.71091920
Li       3.58106746       3.62960683       8.37243567
Li       0.74859345       7.48517141      10.74747430
P        6.75147007       4.89013120       9.81099909
P        3.62730211       0.88170645       7.68498867
O        2.11567628       8.30291892       0.96775804
O        9.27071236       7.30696923       6.57849180
O        7.36943842       3.72903931      10.69594684
O        0.00295560       7.07213290       3.29892797
N        5.83214478       4.04653031       8.83372992
O        3.58756521       1.70643316       8.95198355
O        3.83994386       7.38378326       8.06459835
O        7.54049667       5.70426684       8.88033390
Li       8.94103413       9.56828660       1.88042995
Li       6.28188749       5.69395105       0.27768936
Li       3.51690699       4.98534141      11.48979022
Li       5.12506444       8.28754506       0.89694342
Li       4.99011695       4.90368371       5.67158267
Li       3.87985912       9.54592486       8.75700483
P        6.40130749       9.77570969       3.05561416
P        4.38553943       4.91002506       3.08109074
O        5.12259498       7.11809288       5.77358685
O        6.74745691       4.30200850       5.45515460
O        7.82015747       8.98974453       3.30290379
O        9.16010097       7.62039488      11.00822025
N        5.12425741       8.77038262       2.65936215
O        5.99422853       5.24733936       3.00710480
O        1.87754372       6.30161993      12.20232346
O        6.90707921      10.56094411       1.86847184
Li       2.05246014       2.05867572       0.98782760
Li       1.17005432       9.93926207       1.17924866
Li       3.72493171       1.00706170      11.27990360
Li       6.73383138       6.99282236       7.35902389
Li       8.48628555       6.97651379       9.57707274
P        8.75244572       8.61481382       7.57506992
P        3.75241567       6.82717650       6.49374462
O        5.74743834       5.66443477      10.69408332
N        8.32490320      10.07303356       6.86927073
O       10.02536301       8.87434125       8.43429169
O        2.50372937       7.40092218       5.91964300
O        2.16532080       0.21360873       7.80148130
O        7.37066018       8.53763570       8.39902541
124
Lattice="10.1931 0.0 0.0 0.0 10.9684 0.0 0.0 0.0 12.7908" Properties=species:S:1:pos:R:3 material=LiPON model=NEP89 temperature_K=1500 phase="NVT production" source_frame_index=720 relative_time_ps=72.0 pbc="T T T"
Li       2.33455492       1.96889253       0.80309705
Li       5.92666538       0.95322025       8.78945912
Li       1.42119332       4.28250988       0.31151863
Li       9.24998930      10.25864495       1.86350253
Li       0.32348407       6.93877191       4.73681372
Li       0.75252559       6.04026929       6.88578730
P        4.41921768       3.12612876       1.12547755
P        9.72400435       1.57631402      12.67939990
N        0.33164011       4.38035976       2.74043621
O        2.05247599       7.58256102       4.50069660
O        3.60927238       3.05019155      12.63433533
O        2.50774819       7.21370089       9.94751005
O        5.93712029       2.82009429       0.82402165
O        9.67507463       1.28409096       1.42265770
O        7.59379097       9.39921024       0.73619453
O        3.90880015       2.22132230       2.19923657
Li       4.17655703       0.29624860       1.17349836
Li       9.44348618       6.19761365       9.92384743
Li       4.57046628       8.46175838       3.64949346
Li       7.64487599       1.92888568       9.91327958
Li       3.33837555       4.63251015      11.36048616
Li       6.03705266       7.26478526       8.93619031
P        4.70911413      10.29469332      11.09807635
P        0.26321498       3.99406380       4.34878731
O        0.35502173       0.30914568      12.05642332
O        2.50693701       5.17041684       7.33696436
O        5.76361834       0.23222512      10.36920915
O        4.07063914       1.94745042       7.99234336
O        4.83174464      10.08207472      12.52938707
O        1.31764323       2.83957366       4.71449682
O        0.27286270       0.54933262       9.02646191
O        5.03202409       8.85272216      10.28629786
Li       2.63920142       4.77489718       3.22382561
Li       3.07523824       9.42204683       9.34595693
Li       5.07614522       8.68288920       1.13551860
Li       1.97340007       9.29727014       6.00545726
Li       7.06601989      10.32597864       6.76403177
Li       7.18976521       7.44210214       5.05811498
P        1.99550727       8.59751720       3.33558077
P        7.53091793       8.01138985      12.62961974
O        9.63325531       0.47023932       6.49441647
O        4.60468642       4.90579633       1.65231120
O        3.18052328       8.97448871       2.20409928
O        4.05340021       5.04813888       4.19073395
O        0.70623715       8.11994539       2.54808184
O        6.16140970       7.46784257       0.00279834
O        8.21498955       1.64883795      12.29873214
O        1.46956331       9.88665844       4.07115752
Li       0.84088449       1.82666159       6.24210795
Li       4.72268122       2.21463485      11.11687414
Li       3.81736149       6.48733111       1.49778636
Li       9.48263798      10.58084108       4.92566731
Li       5.18494273       2.73175478       3.37612203
Li       8.02595132       1.94945169       1.55521006
P        1.48889863       4.32888678       8.36058490
P        9.32157463       0.33073371       7.99457688
O        7.84008390       8.50600001      11.33057165
O        3.41372118      10.84285013      10.42509328
O        0.11569843       5.10407881       8.31795215
O        4.99798121       9.50081121       7.71970006
O        1.22726362       2.95483826       7.60197722
O        8.59303500       1.67741934       8.21755253
O        0.24837780       5.16721675       1.75996457
O        2.21405174       3.95733454       9.66346686
Li       2.61279588       4.37667060       5.51675768
Li       4.30019858       7.32252780      11.25355356
Li       1.88276694       8.79669236       0.83307346
Li       5.29818010       5.67826327      12.51016481
Li       2.74760864       1.12621810       8.82122277
Li       5.44207350       5.12551350       6.71670269
P        7.94874168       4.83664910       4.62728581
P        1.89013348       6.86872738      11.34667157
O        5.46550247       0.81040374       6.68819795
O        8.08283483       0.69391985       3.16847397
O        0.49912491       2.93970153      12.34785061
N        8.96925700       3.68640948       4.47016128
O        1.37675562       8.30658854      11.91801472
O        5.42415126       6.99447823       2.86803733
O        7.04391739       4.80903517       5.93311391
Li       7.86510855       7.49144877       2.36519630
Li       6.91855346       2.86350423      12.08972466
Li       4.02367213       5.28912530       8.46432803
Li       1.53119793      10.09053925      11.30277329
Li       3.45124861       6.55930396       4.94579525
Li       9.94316295       9.01789411      11.27021240
P        6.18428272       4.49819812       9.92946085
P        4.22574584       1.82871774       6.57611431
O        3.04196391       6.41901400      12.26669744
O        7.54798855       8.02086029       8.35712758
O        4.75463900       5.11422470      10.52394229
O        0.52103286       5.24364104       5.24504511
N        6.13901275       2.99593151       9.83584675
O        3.19518815       1.07938080       5.78702019
O        2.83027172       8.19640117       7.19288620
O        7.25442225       4.79799740      11.00179878
Li       6.87425879       0.36563161      12.50923965
Li       9.69091374       1.74503430       3.48312355
Li       6.70530166       9.39781755       9.87839588
Li       0.21921085       6.84342330       0.30742567
Li       6.93049938       1.29417920       5.58534847
Li       7.31411257       6.54298979       7.41072098
P        7.19783171      10.39812196       3.46376284
P        5.39242061       5.29584951       2.96490814
O        4.78104890       8.00769072       5.39250640
O        8.17622126       6.35746802       4.19767589
O        5.92033762      10.27915819       2.68946572
O        8.60927380       6.94562300       0.34440665
N        7.76799704       9.02957768       3.40471642
O        6.74787133       4.59924264       3.45872981
O        0.61162045       5.94466256      11.50245302
O        6.94898123      10.48888667       4.92347882
Li       2.69862591       1.10908518       3.76085636
Li       9.07830130       3.29020261       7.14327960
Li       0.83677441       2.40095552      10.68083025
Li       1.57161524       7.75446962       8.31692221
Li       8.43056615       4.62074440      12.41956177
P        8.86803669       8.62374790       8.02390664
P        4.43723901       8.20996263       6.84656004
O        6.81488755       5.22166158       8.54432116
N        8.35537580      10.14848644       8.56416589
O        9.21832109       8.44276394       6.52126685
O        5.29476994       6.86534776       7.50846740
O        4.78419347       3.13566299       5.72931640
O        9.92850211       8.29921099       9.06748291
124
Lattice="10.1931 0.0 0.0 0.0 10.9684 0.0 0.0 0.0 12.7908" Properties=species:S:1:pos:R:3 material=LiPON model=NEP89 temperature_K=1500 phase="NVT production" source_frame_index=750 relative_time_ps=75.0 pbc="T T T"
Li       5.05506987       1.51227810       3.18372704
Li       2.65467226       1.40125835      10.13753539
Li       1.42648037       0.28536387       0.05130242
Li       9.46916163       7.50054343       2.65375762
Li       2.04138697       5.22626027       0.68332729
Li       8.14412389       0.51409571      10.13321505
P        4.98394741       3.41849744       1.07961018
P        9.14157108       1.74293959       1.05662579
N        2.30968748       6.10424728       2.39540304
O        2.43416575      10.92832384       1.90355934
O        5.59882220       1.99103459       1.36277597
O        1.29250440       6.67113380       9.83160238
O        3.52477632       3.58089148       1.04535111
O        0.46236791       2.13380881       0.92223738
O        8.40958372       6.44675660       1.72821166
O        5.81052283       3.80752610      12.48537934
Li       9.13197282       9.64038814       1.30986881
Li       9.25251631       5.94061731      10.06983069
Li       9.58737398       7.97941721       5.63025209
Li       7.84166193       4.29506946      12.28524338
Li       2.21425631       8.24315591       0.79158735
Li       4.98788039       7.47643715       0.23652078
P        5.48794715      10.79909499      11.46577636
P        1.28414848       5.12322402       3.52223684
O        8.98637529       0.31105104       0.58085724
O       10.17648332       3.17494420       8.24894434
O        4.77689326       1.16522206      11.73367827
O        1.38764647       1.00744848       6.66705439
O        6.94848791       0.18028723      11.58876341
O        1.58309172       3.80283872       2.80070421
O        7.43501007       0.93891012       8.67267349
O        4.98153857      10.02783488      10.24662171
Li       3.49059261       5.38127543       6.18933661
Li       3.57970708       4.39870905      10.81993239
Li       3.71369857       7.95392392       3.45611884
Li       6.63195212       8.74734638       6.82270872
Li       9.57414307       4.62650796       1.41902436
Li       5.45514194       6.70650959       5.49233211
P        1.79355875      10.23213834       2.98600403
P        7.95682185       6.78809164       0.26780170
O        8.05366340       1.06365310       6.06035445
O        5.64328172       4.61734178       2.30856997
O        0.63585055       9.37454314       2.48028873
O        6.06588398       2.96354384       3.95418998
O        2.72706619       9.39256172       3.86118841
O        6.44657009       6.39869026       0.21221376
O        9.12135927       1.45223139       2.67606832
O        1.32218579       0.44414423       4.08545888
Li       1.28895048       0.04709331       8.41140496
Li       5.17736733       0.05494318       5.30724647
Li       7.11233399      10.54043193       0.43686949
Li       1.90815593       8.18233249       4.59571198
Li       4.35233112       6.54860278       8.90336259
Li       2.28874689       2.13939584       2.12914924
P        0.54208867       3.01655905       9.77024139
P        7.66037617       0.22201982       7.37493665
O        8.37125858       8.35154373       0.28299216
O        5.37369100       9.71528316      12.66523097
O        9.72616487       3.70746486      10.60680024
O        4.06795177       8.70272527       7.98411672
O        0.77230804       1.58470601      10.11955831
O        6.26750007      10.63384252       6.86670217
O        3.45907518       6.53389692       2.04493883
O        1.98784415       3.78640646      10.01262938
Li       0.89689344       3.47399898       6.17395475
Li       8.31908522       6.30321573       7.56321529
Li       0.25359714      10.67297501      10.75211366
Li       5.87004602       5.58707495      11.68814295
Li       4.78858126      10.70400591       8.46541248
Li       3.75339004       2.86822013       4.94743110
P        8.97492603       5.09666295       4.57423067
P        1.88633262       7.19140405      11.18641621
O        3.28213313       1.28054547       8.30135989
O        6.33028261      10.77802688       3.93597443
O        8.34178616       2.92759110       0.63835231
N        9.96732802       5.77939337       3.50774306
O        1.43883496       8.51099395      11.91708414
O        4.81808539       5.12437098       4.67032412
O        9.12227739       3.61849723       5.10492068
Li       6.37915729       6.45021635       2.31581153
Li       0.72475486       3.41385410      12.14249438
Li       5.64233100       8.28147492       9.36171228
Li       7.70327862       9.08943666      11.34270667
Li       4.06173992      10.42061960       1.03825411
Li       2.49022013      10.53151748       5.27454214
P        6.52091927       4.89926476       8.35034289
P        2.83236238       1.47750441       6.86930881
O        3.43658052       6.85635691      11.16530503
O        9.43181455       9.52196924       9.78070296
O        7.59605341       5.47312382       9.22471718
O        1.61818038       5.43207547       4.92706489
N        6.98390587       3.52424571       7.68802304
O        3.84828203       1.14410737       5.64239269
O        1.81719841       8.92295088       6.64499237
O        6.03063416       5.88971979       7.07571294
Li       6.54777394       2.10505863      11.98508841
Li       9.24368827      10.89058022       3.32050054
Li       6.44891510       3.15588013       5.89375150
Li       9.96976532       8.57286273      11.64279541
Li       0.39074170       2.02066135       3.45827671
Li      10.17570835       0.20362070       6.67260856
P        6.94788639       9.40209603       3.61769649
P        5.89526877       4.52112038       3.90014540
O        3.74035438       7.42008769       5.64281200
O        9.13852778       5.82631680       5.94120295
O        7.20594213       8.40705071       4.74289824
O        8.63800108       6.04903524      12.00427666
N        5.86606370       8.46531772       2.92365155
O        7.29712674       5.34080415       4.25846728
O        1.21360626       6.13617272      12.13504421
O        8.32429270       9.32308952       2.77811482
Li       3.40157082       3.04509085       8.69870000
Li       7.30398959       1.60818027       4.22996363
Li       8.66535454       3.48245359       7.49902842
Li       1.95188796       5.16021833       8.91940524
Li       0.81288284       7.11217307       7.93395691
P        8.73781698       9.03334247       8.53330741
P        3.17181760       7.99071399       6.88244307
O        5.17703104       4.63690819       9.13352015
N        8.37490887       9.80164020       7.26904386
O        7.46006799       8.40371193       9.02258071
O        2.63838021       6.71798155       7.67795889
O        2.74538951       3.15774401       6.61344568
O        9.55511306       7.95148707       7.70878132
124
Lattice="10.1931 0.0 0.0 0.0 10.9684 0.0 0.0 0.0 12.7908" Properties=species:S:1:pos:R:3 material=LiPON model=NEP89 temperature_K=1500 phase="NVT production" source_frame_index=780 relative_time_ps=78.0 pbc="T T T"
Li       6.37849781       6.74074269       5.27818643
Li       3.80632675       3.70336948       8.16185950
Li       2.04449078       3.10518484       1.16724929
Li       1.82904256       7.31680382       1.35890735
Li       3.34548386       5.30434149       1.65662098
Li       5.63719265       4.79911642       6.49893567
P        4.54460289       2.80935065       1.49162749
P       10.09967428       0.37288295      12.16657835
N        1.94030032       5.52120626       3.36491651
O        9.17004486      10.88788352       2.95686055
O        5.58259248       2.35747926       0.54697571
O        4.29444582       8.09237779      11.33007363
O        3.37612011       1.67434367       1.62737260
O        9.55258834      10.05728386       0.00230676
O        8.90213598       6.80468327      11.53314673
O        3.66046976       4.01380342       0.77725116
Li       8.46561818       8.18791146       4.57442849
Li       8.89810373       5.94901814       9.78244524
Li       9.63436035       6.86461594       6.37690403
Li       7.56594190      10.37302444      12.78995252
Li       3.46800878       0.58526085       3.13020254
Li       0.75238423       5.38900815      11.98656678
P        5.02898752       0.05523164      10.86458674
P        1.00159162       4.12230138       3.78542477
O        8.88071085       1.28860675      11.77383114
O        0.26319412       4.31241091      10.22499640
O        3.96926464       0.84920882      11.68625215
O        4.66697556      10.39837492       6.79996442
O        5.97770422       0.81437601      10.03659920
O        0.90425615       3.45065050       2.43988983
O        6.99364263       0.55728003       7.19306145
O        4.45464160      10.03007093       9.63538335
Li       4.96533210       0.07640518       4.80734608
Li       5.02511213       0.67948929       0.64722092
Li      10.06557099       7.36150574       3.26082601
Li       7.80196403       2.25905395      10.14781222
Li       8.16467496       3.25087289      12.23265808
Li       7.00307595       6.53374660       2.35842856
P        0.24966646       9.91996207       3.34621297
P        8.56384176       5.97854730       0.28476226
O        8.74583044       1.86131072       8.64188098
O        4.96979777       3.14103703       2.89094398
O        1.41851436      10.91316213       3.45476303
O        6.50258943       1.48508375       3.82438486
O        0.04031219       9.05429901       4.59941615
O        7.11493762       6.29024936       0.71169675
O        0.85727681       1.25079606       0.33228551
O        0.76762865       8.78248623       2.33111800
Li       2.52429257      10.18614393      10.65938294
Li       1.23738799       8.74459865       6.06460460
Li       0.09014572       8.47849353      11.36386331
Li       2.87771170       8.74504272       4.13699577
Li       5.87998572       9.07722227       6.45472309
Li       7.73724496       1.93522345       2.06597784
P        1.16506476       4.48231426       9.02084420
P        8.51359856       0.70116130       7.57900287
O        8.86764257       4.56334210       0.38332096
O        5.89674953      10.35249355      11.88756068
O        2.56224530       4.48755902       9.44501769
O        3.69403702       5.52149182       6.63955072
O        0.75558665       3.38563912       7.97078099
O        9.35757075       1.02489078       6.31610736
O        2.41532460       6.71175509       3.34550367
O        0.88872207       5.82331970       8.14667742
Li       3.64831362       3.12606921       5.18618867
Li       5.88580984      10.48862230       8.28982067
Li       0.58778123       2.19821284       9.40696089
Li       4.98756780       9.24061812       0.33603064
Li       3.49666625       9.15097567       8.26480620
Li       1.54832436       1.13423246       5.14160167
P        8.40734065       4.79394101       4.68837234
P        3.01326579       7.85537678      12.22419344
O        3.98651872       1.83707561       7.33310754
O        6.28769897       9.03064982       1.75384248
O        0.68743169       0.32373809      10.69078972
N        9.77021228       4.26978621       4.17961041
O        3.05804169       8.68629495       0.69463712
O        5.39216129       3.58016404       5.27490630
O        8.30797246       4.06298870       5.96852363
Li       4.72493062       6.43073106      12.33517033
Li      10.02651752       8.57195057       0.96087421
Li       0.96457697       0.10630487       8.61326131
Li       3.93426438       3.41417334      10.62441194
Li       2.26630835      10.74870133       0.75128433
Li       6.66960676       7.15521208       8.32093878
P        6.31556695       4.83859827       9.64121428
P        3.50855647       0.51161293       6.73454407
O        2.60829525       6.33478907      12.56138599
O        9.18138783       8.00514351       9.37688204
O        5.59373947       3.66867965       8.80582851
O        1.90393844       3.69203832       4.84901197
N        7.43416456       4.15224896      10.46163929
O        3.47259877       1.20394713       5.15960651
O        3.88796315       7.29348311       8.56446341
O        5.49073550       5.83937162      10.37582489
Li       6.11678373       2.10262241       7.92663286
Li       0.49262563       1.38660434       2.17864954
Li       8.14914239       0.37615394       4.43467107
Li       1.21451699       7.59134801       9.11801061
Li       9.76708171       2.69037396       6.62761907
Li       1.65582211       4.51996837       6.48397868
P        5.64755190       9.17799886       3.20001432
P        6.17388818       2.95002177       4.09718169
O        5.43265426       7.27171420       6.89627217
O        8.28454559       6.38175969       4.37408055
O        6.50720397       9.64631709       4.40274267
O        9.95378309       6.54430673       0.96727622
N        4.32500541       9.99707668       3.34057295
O        7.16579144       4.23499607       3.65046530
O        1.78844137       8.26416200      11.26748398
O        5.41484946       7.55022645       3.34593701
Li       9.04818787      10.60502202      10.07663546
Li       3.12774077       1.95073748      12.46646826
Li       8.36926520       4.00645679       7.65194960
Li       5.83145546       8.44150200      10.34446001
Li       3.56746845       6.00398361      10.16925268
P        8.40598117       8.87543295       8.40624828
P        3.94758010       7.02712524       7.01725648
O        7.44935773       5.55749421       8.72545493
N        9.19588049      10.34499956       8.10324652
O        6.85549862       9.11941233       9.01843432
O        3.12041605       8.02836638       6.23508971
O        2.18427612      10.89991590       7.21341608
O        8.16218116       8.42462924       6.94302131
124
Lattice="10.1931 0.0 0.0 0.0 10.9684 0.0 0.0 0.0 12.7908" Properties=species:S:1:pos:R:3 material=LiPON model=NEP89 temperature_K=1500 phase="NVT production" source_frame_index=810 relative_time_ps=81.0 pbc="T T T"
Li       4.45612997       9.90552428       7.17801276
Li       4.69713307       7.57555521       2.59662963
Li       1.66913998       3.65281233       1.28722027
Li       7.91266091       6.02198220       9.39785878
Li       3.49332529       6.96277883       5.58130789
Li       4.59932214       1.29198485       3.64468487
P        5.24788097       3.37620697       1.34187593
P        0.86463772       0.57978032      11.68149535
N        1.59070478       3.61423892       3.32017910
O        1.10813738       9.40546737       5.02763070
O        6.07852933       4.16118308       0.34213348
O        3.69337033       6.13308893      11.41747065
O        5.34356454       1.99527688       1.68164064
O        1.15945575      10.13422743      12.42079880
O        8.95357667       5.79659313       0.18628564
O        3.76943693       3.35958372       0.77571793
Li       6.26172541      10.68475399       5.31596132
Li       4.24924547      10.28612225       2.03301033
Li       0.61094025       1.17471023       8.29384326
Li       5.41636017       5.80268809      12.10652636
Li       1.39337509      10.36893900       6.48124636
Li       9.03096607      10.71636482       5.20986382
P        4.73510891      10.39045211      11.96039373
P        0.45292224       2.37952482       2.91502938
O        9.61719313       1.06751673      12.51715238
O        9.56683809       3.58444628      10.20265349
O        4.23838533      10.04557936      10.45680891
O        3.73609555       0.89451780       8.30380112
O        4.38674085       0.77224118      12.20651027
O        1.31072334       1.63871819       1.89020420
O        9.80467320       0.01427109       7.61951808
O        6.27642960       9.88736638      11.86204307
Li       2.23345500       0.77664696       4.80767552
Li       2.67177966       3.84756963       8.13849289
Li       0.02066727       8.75413859      11.98854592
Li       8.31103395       3.13389305       8.62977582
Li       8.41996292       2.45174797       1.17108720
Li       0.13149953       7.04076404       1.87580493
P        2.07005225       9.14810393       3.87760996
P        8.27121279       7.11984031      12.37100319
O        7.87656608       1.14609672       6.59825859
O        5.21788580       4.05219931       2.79967351
O        3.26550591      10.32273160       3.80599209
O        5.91623435       4.34498997       5.25944531
O        3.17653433       7.88063792       4.20895300
O        6.78244505       6.81333006      12.47212202
O        1.79317119       1.74538666      12.02609930
O        1.18346344       9.12850715       2.59675599
Li       2.10041192       8.59505510       0.62241455
Li       9.97395408       8.10467311       5.41312969
Li       8.12110999      10.94511696      12.40968969
Li       6.90958316       5.35989106       1.18130453
Li       4.42231252       9.15026724       4.68135268
Li       9.49245695       2.02761336       5.63960660
P        0.27055070       4.25698739       9.02566433
P        8.33177595       0.26094401       7.93129185
O        8.67122694       8.48691091       0.28984212
O        4.02543154       9.59673515       0.33366586
O        0.48345057       3.20898036       7.90816172
O        0.69953299       8.37024774       7.73523582
O        9.52857834       5.27615962       8.56420453
O        7.84075777       0.62970420       9.35941926
O        2.40915383       4.38941200       3.82172337
O        1.56457232       4.73240218       9.58111753
Li       7.80854756       2.22937405       3.70601960
Li       3.12229435       1.56315471       0.69071094
Li       8.53084014       2.03178414      10.73873328
Li       4.86270210       8.05975314      10.06075680
Li       2.12779066      10.07748785       8.72832265
Li       9.51718726       9.42925222       8.80714263
P        9.17174312       4.86809489       3.85816627
P        2.70122175       6.16254343      12.60409589
O        4.33454204       0.76416233       5.81171396
O        7.91689764       9.53488887       3.98951824
O        0.45712585       0.12830386      10.26769994
N        9.44906002       3.51903145       2.67382955
O        3.53495024       6.50712389       1.08296830
O        5.41278254       6.35897672       3.92030288
O        9.38156568       4.38961682       5.21703566
Li       0.62344326       6.34873314      10.67517415
Li       3.31371214       5.31913686       9.89802704
Li       9.49559591       6.59144870       7.32069989
Li       5.27468514       1.02401051       9.88170677
Li       1.19732385      10.77230475       1.43969805
Li       7.76089320       7.49768236       4.35421153
P        5.84453821       3.59304755       9.81010823
P        3.37255729       1.53604324       6.81261433
O        1.93011271       4.87888771      12.66819287
O        5.57342814       8.90967774       6.36029170
O        4.25170769       3.42500229       9.93632479
O       10.05634188       1.58655096       4.07571949
N        6.08133490       2.91898782       8.39300294
O        1.80089598       1.09393511       6.43944806
O        2.61432495       8.13442974       9.51267926
O        6.49832016       2.45963738      10.69162430
Li       7.58435692       9.14996654      10.43851649
Li       0.30452463       3.07314587      11.86586969
Li       2.58066748       4.56982461       5.68381026
Li       5.17228445       4.33035908       7.31636674
Li       2.72213549       1.41535669       9.95495312
Li       2.77357455       9.21262540      11.16031380
P        7.01986817      10.31098211       3.04613355
P        5.99181061       4.97021998       3.88433676
O        2.14963364       6.45934029       7.32882600
O       10.07311677       6.26202942       3.43255376
O        6.60196663       0.76535082       3.79205710
O        8.77079982       7.49779718      10.88172446
N        7.87279725      10.74157216       1.80203197
O        7.47775763       5.11163578       3.44145268
O        1.66105568       7.35884090      12.21552147
O        5.70850685       9.44179804       2.54515304
Li       5.13636532       2.26768937      12.14704347
Li       2.51468639       6.53693393       2.90771025
Li       5.75080841       1.73698915       6.28421146
Li       6.64721829       9.21653235       0.80381607
Li       3.51415266       3.67226726      11.61441505
P        7.00368501       8.39726256       7.22903062
P        2.23261592       7.83254611       7.97722510
O        6.42715377       4.96105028       9.92561303
N        7.71648069       9.60900660       8.00226994
O        8.08765382       7.72476036       6.14852479
O        2.90503282       8.94215649       7.18357253
O        3.46980473       3.02503822       6.73608271
O        6.74307332       7.43515871       8.42593467
124
Lattice="10.1931 0.0 0.0 0.0 10.9684 0.0 0.0 0.0 12.7908" Properties=species:S:1:pos:R:3 material=LiPON model=NEP89 temperature_K=1500 phase="NVT production" source_frame_index=840 relative_time_ps=84.0 pbc="T T T"
Li       3.41643312      10.12505960       8.65689732
Li       8.98130353       7.16083689       4.96421879
Li       5.66938076       5.52866756       4.64160929
Li       8.94167550       7.39643878       8.49879776
Li       5.97966759       6.50767858       1.20600653
Li       7.20765884       4.36509301       6.68604744
P        5.00743525       1.09686985       2.39159044
P        0.14954436       1.60018520      11.16266034
N        0.93695178       6.33826573       4.95996017
O        4.30200160       9.20552702       4.04843907
O        5.93444608      10.79332544       2.59655759
O        2.45172856       6.33344210       0.87356260
O        4.56179414       1.70831703       3.81322026
O        1.52686697       0.80991870      11.07930994
O        6.66450674       7.13783653      12.40117916
O        3.81612901       1.22206683       1.41874322
Li       6.81200448       9.19894908       5.31889941
Li       6.50542641       5.08587615       9.57481590
Li       7.20416013      10.86937289       0.72163565
Li       2.91542910       0.86159275      12.42388436
Li       1.90854447       6.36817740       9.28071235
Li       5.39371024       2.27516676       5.34686458
P        5.00237120      10.52657467      11.03978395
P        0.81953077       4.85301230       4.27310659
O        0.09125966       3.04095250      11.65739729
O       10.16406874       4.20786352       8.07116523
O        4.87206581       9.39976035       9.93260184
O        3.79788830       0.94522565       7.81162870
O        4.99106413       0.82485844      10.19902780
O        2.00427955       4.54874811       3.51801979
O        8.75280686       1.07066121       6.96724783
O        6.24569544      10.05012255      11.78308364
Li       5.44589662       0.13817543       8.85341856
Li       1.34814573      10.94030157       9.02491495
Li       7.35293692       1.43611399      10.08116845
Li      10.18270073       0.00697684       6.27225712
Li       9.27680993       2.63609812       5.81329981
Li       3.02138878       3.14028216       4.13320771
P        4.99186318       8.04816167       3.14565457
P        8.09377665       7.47351023      12.75113654
O        7.00020889       0.22899348       5.10987909
O        6.14250244       2.24739034       1.64025265
O        6.47301486       8.11925060       3.38108891
O        5.09682513       4.40879817       3.08952579
O        4.41591344       6.73131125       3.91511176
O        8.37998402       8.91735346       0.66198213
O        9.51251722       1.27245045       9.84302013
O        4.66566508       8.06905014       1.71226318
Li       6.44136950       6.52347881       7.73793736
Li       2.04112042       9.27461436       5.42396179
Li       7.55970887       9.29597833       2.69487320
Li       6.97757546       8.41883952      10.54018374
Li       3.87088346       6.87616661       5.62838618
Li       7.97483496       4.51979460      12.66038725
P        8.81635776       4.78161570       8.64267951
P        7.30353721       0.80512416       6.57756062
O        8.91818077       6.25201290       0.49438286
O        3.79885235      10.18229759      12.10084154
O        9.13915436       5.45305237       9.96243901
O        0.76027414       7.31954718       7.94331561
O        8.14409553       5.97023456       7.95898722
O        6.75685714       2.22658762       6.93660084
O        1.54822809       7.49626239       4.98145851
O        7.84470955       3.52140050       8.86228274
Li       5.36667883      10.67652599       4.46167234
Li       5.09953014       8.81661882      12.57219822
Li       9.88525133      10.36110687       0.81357745
Li       9.40181510      10.18085099       9.16847721
Li       2.77063675       8.62332967      11.09803217
Li       1.96166742       6.72937948       2.90816469
P        8.38261184       4.12416152       3.63955769
P        2.35327082       6.63796747      12.18585329
O        3.59086946       0.05082312       5.52589406
O        0.52080846      10.10031287       4.68399122
O        9.36179917       1.00235852      12.48868182
N        9.78911842       4.51156508       3.11565465
O        1.40519546       8.00636625      12.13514536
O        5.38878171       4.34230549       0.33495620
O        8.26971699       2.63838689       4.04685652
Li       0.19825868       6.10455392       1.51269922
Li       2.03506294       3.94390444      11.42996890
Li       0.55672866       5.68762117       6.84822602
Li       3.56359004       2.14613668       9.28103330
Li       0.91650490       9.89765310      11.34286718
Li       4.62618336       2.61567911       7.51203614
P        4.24222581       5.28480148       8.17480368
P        3.12425621       1.26580904       6.49031327
O        1.54483207       5.81227356      11.24711751
O        7.50669938       8.79481576       8.95367862
O        3.85842013       3.89404057       8.68567242
O        0.46119690       3.99537432       5.58367960
N        5.13349608       5.38496379       6.78424007
O        1.63399001       1.29956427       6.39206462
O        2.65360542       8.55102534       6.89618839
O        5.06510429       6.04078231       9.39832238
Li       0.26737970       3.36150662       1.15794465
Li      10.04219179       4.77948108      11.43089885
Li       9.27129725       2.15649721       8.12085078
Li       4.31797540       8.07875117       8.75475462
Li       5.16499385       5.96465393      12.05037871
Li       1.86053998       3.92002415       7.07335198
P       10.18455175       9.61448382       3.37856302
P        5.89693779       3.79989366       1.80797441
O        0.59198814       9.82746300       7.71449652
O        7.69623083       4.91039178       4.60798635
O        9.36752473       8.06684073       3.25648449
O        8.66536863       7.79395447      11.26027398
N        9.21475075      10.65017092       2.62839415
O        7.38987716       4.09822530       2.15449779
O        3.61332660       7.06416380      11.52242871
O        1.23316439       9.08220890       2.39912081
Li       2.36913215       9.62849232       0.45490414
Li       3.60814260       5.35759778       1.93713117
Li       2.46047131      10.90293881       3.77051076
Li       7.62198399       1.05536792       3.30859608
Li      10.16466459       6.71887822      11.17054433
P        6.95117342       8.90877498       7.59311004
P        1.60495760       8.63671901       7.94784238
O        3.00301031       5.92625727       7.66786852
N        6.66800503      10.49230046       7.19754802
O        5.57823911       8.14336012       7.32593236
O        2.22388146       8.96638652       9.35366957
O        3.65103891       2.61690533       6.07064240
O        8.06541687       8.36144005       6.62473375
124
Lattice="10.1931 0.0 0.0 0.0 10.9684 0.0 0.0 0.0 12.7908" Properties=species:S:1:pos:R:3 material=LiPON model=NEP89 temperature_K=1500 phase="NVT production" source_frame_index=870 relative_time_ps=87.0 pbc="T T T"
Li       4.18763349       2.61930650       8.67943662
Li       8.72752834       0.69880341      10.26114981
Li       5.55303279       5.52650552       6.04145351
Li       2.86296685       4.28464189      10.87824231
Li       3.70398981       6.10924856       2.60342130
Li       5.34477048       9.50261650       6.06700179
P        4.30264657       0.21467796       1.07944353
P        0.66038263       2.31298550      10.93442789
N        0.87057567       2.23545524       4.05736589
O        3.88623450       8.32542757       4.95880026
O        4.38100843       9.82878962       1.94010265
O        2.24069092       8.16071258      12.52333499
O        2.81901298       0.61198540       1.26644197
O        2.22600912       2.13781420      11.36652715
O        7.38431531       7.07250458       0.48022101
O        4.41515243       0.07397065      12.25831009
Li       0.87019255       6.84040248       7.80706529
Li       5.92760641       5.84480840       8.59794263
Li       5.55961032       0.77551190      10.76882349
Li      10.01926358       4.89478483       4.88795662
Li       6.35836602       6.61647587      10.96011739
Li       2.37878229       3.15025291       2.56277482
P        6.15509720       3.38969908      10.50460980
P        9.84837166       2.29667869       2.96186576
O        0.17442425       3.57086219      11.45616553
O        9.75975770       6.13677752       6.19078428
O        6.04597300       2.40205738       9.38494954
O        4.42186892       0.05167010       5.80353290
O        6.51649907       4.87429076      10.14811106
O        0.37366616       3.07845221       1.89592998
O        9.57402661      10.42507652       5.88022616
O        7.40662636       3.01012199      11.51824728
Li       5.82758195       0.82180815       8.36625827
Li       8.77263007       3.08940207      12.51931223
Li       1.98800464      10.21236001      11.49205107
Li       0.63996176       0.08926992       4.44866393
Li       8.83086202      10.00463661       2.93871122
Li       7.06943291       2.71789130       6.76593044
P        5.10443916       7.48806861       4.57134632
P        8.79592805       7.37294415       0.04918991
O        6.94182763      10.11233761       5.22550916
O        5.30862355       1.51405041       1.27668770
O        6.21523984       7.36570968       5.66535411
O        4.12275388       2.11661013       3.41260416
O        4.45025979       6.04783015       4.50248467
O        8.98154358       8.95438926       0.07025796
O        0.13613995       2.39346739       9.42119189
O        5.89992585       7.68001299       3.15221207
Li       1.29103454       0.63827880       8.26841353
Li       3.55075824       7.88573077       9.32857271
Li       5.72700429       6.66706659       1.44202791
Li       0.57812927       4.75525432       0.25931118
Li       0.96493018       3.82955102       8.53745350
Li       4.69280667       4.91602051       0.19732239
P        8.97066593       5.14161507       7.06193886
P        7.97319117      10.45675801       6.34311704
O        9.91986219       6.61673561       0.78772770
O        4.67305092       3.52695534      11.27885595
O        9.82959309       5.32108552       8.34326401
O       10.04150793      10.10000035       8.84370271
O        7.52802883       5.51529160       7.44790611
O        7.70968082       1.00570188       6.79536316
O        1.30238356       3.40159205       4.33168792
O        8.95340116       3.60163804       6.64961819
Li       7.53693423       7.36336101       6.90981853
Li       9.83112664       5.08756171       2.06111575
Li       4.35698130       8.21699961       2.14753573
Li       4.25997102       3.52925087       5.11185642
Li       3.72821839       2.20554635      11.99816023
Li       5.62990936       9.11378728      11.61312294
P        7.20320426       3.67892514       3.71186065
P        3.35346195       7.10574913      12.27441097
O        2.05364593      10.93983592       5.58266319
O        0.93222860       8.27897280       5.00596675
O        0.03031816       1.10998409      11.69126754
N        8.69830450       3.49521274       3.37198956
O        4.50964705       7.60547358      11.47491473
O        3.85385977       3.66272099       1.39052126
O        6.70805488       2.84106094       4.81295397
Li       8.89933955       0.04741839       0.49081171
Li       2.34688066      10.49456292       2.37203800
Li       2.71909839       6.47584390       5.45734953
Li       8.99885530       6.62706513       9.50771091
Li       8.41881209       4.98539208      11.04441755
Li       3.51868185       9.02799400       7.37857996
P        3.42501626       5.24746759       8.13794815
P        3.23794380       0.86313622       6.18197919
O        2.73385640       5.75781684      11.73012154
O        5.22805201       8.73441077       7.81010970
O        4.23365470       6.16935518       9.10301479
O        9.41406220       0.86210639       2.70956878
N        4.53412388       4.58178303       7.33298671
O        2.99917212       0.91278175       7.77177359
O        0.66421595       7.70207148       9.41385980
O        2.37908069       5.86915057       7.24919254
Li       6.28936800       1.22540868       4.12972636
Li       1.53699794       6.53128710      10.76856448
Li       9.52940159       1.79254990       7.48200408
Li       9.87358977       8.98904193       6.55440502
Li       0.88791814       8.69039611       0.98994111
Li       8.87509308       8.82528186      10.18254864
P        0.78968409       7.76797395       3.52238727
P        4.81424583       2.73625004       2.15362936
O        1.54796066       9.04662494       7.45492251
O        7.34567636       5.12685970       4.10257007
O        9.59410532       8.09002464       3.19220233
O        8.95163781       6.75334063      11.39082327
N        1.83216791       8.67949608       2.80956245
O        6.05955449       3.43402790       2.42436755
O        4.13889587       6.73795921       0.98356473
O        1.12918258       6.31065206       3.32070949
Li       3.12655778       0.16898906       9.68397604
Li       2.54971311       9.13011138       5.22209569
Li       5.48199936       9.98172687       3.38612195
Li       7.51574612       7.64282939       2.59288848
Li       0.98233116       1.59154683       0.72471456
P        6.48586805       9.09883241       8.48922796
P        1.07833669       9.15787177       9.09109257
O        2.55241026       4.02760160       8.83529938
N        7.69709579       9.33931948       7.44003664
O        7.24089608       8.14552581       9.48939870
O        2.42906510       9.58759737       9.89899564
O        3.14067903       2.31007116       5.79544553
O        6.07974389      10.52070154       9.34371211
124
Lattice="10.1931 0.0 0.0 0.0 10.9684 0.0 0.0 0.0 12.7908" Properties=species:S:1:pos:R:3 material=LiPON model=NEP89 temperature_K=1500 phase="NVT production" source_frame_index=900 relative_time_ps=90.0 pbc="T T T"
Li       5.17274397       3.02274360       9.02989797
Li       9.96926342      10.93432335       9.12492565
Li       7.69485307       6.75507283       7.68371641
Li       2.37468890      10.13698351       3.00241997
Li       8.46141803       6.05159652       2.19763759
Li       8.47765310       6.25304940       4.75922041
P        2.50878444       1.56057191       1.43181561
P       10.06933509       0.14122706      11.57762961
N        8.35291116       2.26478435       2.66817958
O        6.84563821       6.77981978       5.67770390
O        3.42198601       0.88975197       2.35476589
O        4.24470060       8.46765432       0.89486022
O        1.07867185       1.13808503       1.87173433
O        9.29208507       0.97989339      12.58457115
O        0.93246252       4.57769275      11.28907506
O        2.73719810       1.17903896      12.78673728
Li       0.52379976       3.33903147       4.85503312
Li       6.82495075       4.83170392       0.04634415
Li       6.67995818      10.81840408       0.22603964
Li       5.03637405       2.11947525       0.85676693
Li       8.15922914       9.01873352       5.75942573
Li       5.99599704      10.96795213       5.45406959
P        5.66623912       2.66267253      11.39305894
P        6.76083695       1.42905459       2.77409871
O        9.28307675      10.07022869      10.55428564
O        1.36834788       4.13790233       6.60571109
O        4.69801451       1.63228520      10.57995504
O        4.24809018       0.77289764       5.14177204
O        6.39347567       3.49149001      10.22448488
O        6.63758721       0.13936467       1.90958108
O        8.31869454       1.43267154       9.16735807
O        6.58034282       2.12066343      12.49756570
Li       4.67580731       0.34678871       8.82424256
Li       1.05283599       2.76913030       2.82622108
Li       1.52568445       2.76287690      11.54585983
Li       2.95499133       4.29649269      12.46512816
Li       3.58971306       9.73259686       6.73242510
Li       7.83586453       3.53538691       9.36905467
P        6.15572355       7.62617081       4.43249576
P        0.00184103       4.96668168      12.43476588
O        8.72307927       1.69205024       6.82842020
O        2.96831615       3.24387649       1.66107340
O        6.77071872       9.06622403       4.48574836
O        2.08757729       4.46268508       3.82155382
O        6.72802719       6.99952314       3.12698779
O        0.29554627       4.24879350       1.03244136
O        0.68569469       0.87016665      10.54691074
O        4.64921320       7.48672300       4.54592059
Li       1.69896591       6.34367158       8.16184622
Li       4.88333358       8.66802878       9.65004875
Li       8.88993896       2.09308846      10.95696433
Li       2.29515589       9.25398024      11.59856429
Li       7.96903853      10.46406655       3.77171531
Li       4.47108366       6.77270513       1.93159082
P       10.07070472       4.84353201       6.96447011
P        7.65135448       1.21187833       7.77184299
O        0.37820538       6.55939659      12.72299511
O        4.75028678       3.72488704      12.02331157
O        9.43874435       3.93365609       8.07080599
O        3.28361518       9.52111457       9.52723080
O        0.30964726       6.32583194       7.15604541
O        6.25896769       1.68375845       7.68651351
O        9.37401907       2.68635659       3.29597538
O        9.25883597       4.51600643       5.79755473
Li       7.73392782       8.09635875       1.77491823
Li       2.17121468       6.59950752      11.04191871
Li       1.46938449       8.20168552       0.38855142
Li       4.53038121       2.11642740       3.78360000
Li       9.99035834       2.22923898       8.72351833
Li       8.70267832       2.69854037       0.86122304
P        6.23470621       4.18843028       3.01718728
P        5.10780608       8.08838594      12.43097033
O        1.85872385       0.10923892       5.68766310
O        1.39381145       8.63043827       3.34803468
O        0.61574662       9.98213154      12.32342331
N        5.86487832       2.63735823       2.48736037
O        4.13678079       7.59754548      11.23840858
O        2.71462108       5.80712989       1.54992748
O        7.00800774       4.23724908       4.35624710
Li       2.74706266       0.40866047      10.17952122
Li       2.97927597       7.63852284       4.52498373
Li       0.83049149       5.80979638       1.93721857
Li       0.75363067       0.44052940       4.04308544
Li       5.30247056       5.51390856      11.56686525
Li       3.59322512       4.75381491       4.76647924
P        4.64355965       5.51631463       7.98768250
P        2.90542647       1.33551079       5.71613704
O        6.03334102       6.94060945      12.72304104
O        5.35418544       9.90228511       7.45037492
O        5.85785671       4.57680941       7.66974090
O        6.98614725       1.03784886       4.21820719
N        3.92919615       5.64014362       6.56628819
O        3.11742224       1.72039250       7.17626334
O        2.49485750       8.28230438       7.25573942
O        5.09667369       6.88808597       8.67344915
Li       7.55626994       3.17147854       5.97535949
Li       9.13731849       5.93435587      10.19491520
Li       7.15049652       0.52512162      10.30505224
Li       0.48464617      10.42663446       6.70331965
Li       7.52931982       9.29480088      11.10802152
Li       5.62848230       7.63084581       7.37996255
P       10.04828524       8.54738666       3.64128671
P        2.89015112       4.64635141       2.47685945
O        1.61848341       7.80237835       9.62996777
O        7.20206494       4.54271150       1.82728425
O        9.91380991       9.30251508       4.87494443
O        8.53936437       4.86043160      11.93797503
N        9.26751928       8.97028335       2.41305673
O        4.67514056       4.71393360       3.00554897
O        5.62453072       9.38901985      12.08649525
O        9.74253361       7.06263874       3.51559871
Li      10.17525168       8.36737772      10.85016352
Li       5.37275579      10.27590298       3.44241779
Li       2.61785994       3.32759992       7.76616730
Li       5.78520976       5.14373154       5.69704527
Li       9.53818322       0.27161320       1.66447383
P        6.76095128       9.71598589       8.02908510
P        2.06541887       8.84685166       8.54764509
O        3.68643571       4.73635454       8.92260314
N        7.58927245      10.64971110       7.07572964
O        7.44902030       8.39169953       7.77813676
O        1.16175487      10.15167083       8.35683537
O        2.52797402       2.60036098       4.97169655
O        6.90639033       9.75732361       9.65952431
124
Lattice="10.1931 0.0 0.0 0.0 10.9684 0.0 0.0 0.0 12.7908" Properties=species:S:1:pos:R:3 material=LiPON model=NEP89 temperature_K=1500 phase="NVT production" source_frame_index=930 relative_time_ps=93.0 pbc="T T T"
Li       7.09349577       3.03859666       6.28128194
Li      10.10525260       1.57443450       1.08608616
Li       7.51994046       8.61971773       5.98700110
Li       7.50189814       5.78302422       0.47599070
Li       1.22689739       3.65975308       4.09983749
Li       9.27834402       9.65232594       9.61950289
P        2.82352531       1.03833296       1.86380339
P       10.04934629      10.28673021      12.50946176
N        9.19765270       2.59010748       2.64397189
O        6.45203490       8.33168695       4.44388619
O        4.23456246       0.85911443       1.09205117
O        6.15333335       9.53118500       0.25830888
O        2.65621616      10.71023440       2.60774414
O        9.24728790      10.52076456       0.99616128
O        0.12614314       4.51916321       0.28653285
O        1.61390285       1.61840418       1.14394771
Li       0.89529996       5.56484704       1.93530845
Li       0.86723022       7.92904073      12.50064893
Li       6.61615698      10.19026895      10.67991248
Li       7.80846671      10.14560405       2.22997210
Li       9.86238635       8.84057961       6.61016290
Li       5.28228296       1.33612539       2.44629655
P        5.19562845       1.99010597      10.80154936
P        7.85581581       2.20119280       1.90155725
O        9.28245747       9.14411161      11.62781374
O        9.29439043       5.14169651       8.07865462
O        5.57282330       2.54794150       9.34003847
O        1.76742207       1.45608304       6.18389293
O        6.24971484       1.04048242      11.20057871
O        8.34733921       2.04827321       0.34049707
O        9.08092714       1.32331564       8.52283947
O        3.77729393       1.65281473      10.89051063
Li       3.90066535       2.55801665      12.69458146
Li       7.24585899       4.87154566       8.48197372
Li       3.36088937       2.89450144       9.26194425
Li       8.67441999       4.57646208       2.52472461
Li       3.43356931       0.40750321       8.19643981
Li       4.19445023      10.05332075      10.33836974
P        5.08440365       8.91817552       4.12110960
P        9.98202626       5.16256029      11.68705364
O        9.43396596      10.43853213       6.70266739
O        3.40192403       2.15594265       3.04177623
O        4.88024390      10.43462738       4.50411315
O        2.14596459       4.83526284       3.35460887
O        4.82737517       8.35856209       2.62892897
O        0.78201945       6.32576098      11.40111650
O        0.09252655       0.67543622      11.81350718
O        3.88383795       8.10754147       4.88776330
Li       0.13637025       7.53051119       9.77567678
Li       8.00287149       7.90241219      12.42407081
Li       0.22179086       1.54405258       3.69775013
Li       2.85629498       9.19772200       1.24958281
Li       3.29974247       0.18174186       4.91328415
Li       3.34805398       5.96513485       0.93040671
P        9.58775347       5.57097780       6.67393478
P        8.58584379       0.73045730       7.21857086
O        0.11750496       4.01305577      10.63373223
O        5.55987621       3.20597271      11.78337534
O        9.40816930       4.22884471       5.94518400
O        1.90790140      10.38837946       9.31438419
O        8.74103755       6.80693076       6.54374417
O        8.39028975       1.73866816       5.93793972
O        0.06492452       3.26375929       2.72701358
O        0.83797890       6.04836892       6.38640142
Li       8.11233904       5.78820803       5.08091170
Li       9.98663568       2.84966581       7.22257568
Li       4.19776278      10.68077674      12.29094484
Li       5.82450809       1.05730164       5.06652001
Li       6.95504887       7.32359163       2.46554462
Li       9.84787898       2.58985418      11.53487901
P        6.19703048       3.90688834       3.50272675
P        5.26137850       8.19830727      12.50796883
O        1.89859562       2.78633397       8.38616354
O        1.09881337       7.38004924       1.48797491
O        1.13663349       9.62496610       0.07492559
N        6.59178310       3.38986555       2.03936912
O        4.17295905       7.40726875       0.40971296
O        3.24850517       3.85134869       1.34758863
O        6.22894218       2.92671935       4.66231626
Li       7.32217347       0.54673051       0.13522609
Li       4.21408067       8.67172914       7.16832391
Li       1.44976476       3.53234573       0.99762143
Li       2.64563294       5.45928778       5.56575178
Li       0.68092151       4.51450612       9.07240010
Li       4.69407716       3.39342971       5.67907078
P        4.98302211       5.47226749       7.91928868
P        2.48885421       2.48275960       6.98313347
O        6.45052512       7.05997869      12.23461912
O        7.51340683       9.46370933       9.28748636
O        5.98145176       4.41791960       7.25539726
O        6.93195288       0.94430505       2.09274286
N        4.23972436       6.43165946       6.98910678
O        4.00690376       2.07281499       7.15146535
O        2.51143900       9.60211403       7.21987324
O        5.80875511       6.35676670       8.86032055
Li       0.91457393      10.74006852       6.69275036
Li       4.39967463       6.77367197      10.20720155
Li       5.72611304       1.53571691       7.89080115
Li       0.90119008       1.49025000       9.29347908
Li       2.52439975       6.39046007       8.20261154
Li       7.01213667       4.99348841      10.93423000
P        9.91268407       7.62428127       2.33052859
P        3.22958276       3.92571740       2.91694796
O        2.42539496       7.88926847       9.13160649
O        7.33588983       4.97963652       3.47598416
O        8.65134038       7.44724061       1.34966238
O        8.60229572       5.61923007      11.59645442
N        9.72546789       6.29893997       3.22644164
O        4.64611818       4.50305800       3.43822631
O        4.86082493       8.56388074      11.07032514
O        9.88889604       8.50028887       3.55780536
Li       7.20172337       7.47920454       8.24444555
Li       5.02547107       4.34415508       0.86066276
Li       7.60082529       1.32261061       9.71022156
Li       5.58305170       7.32431602       5.96710791
Li       1.50082116       9.21887765       3.60700911
P        6.50761846       9.88520970       8.20537407
P        1.58078832       9.12659479       8.50668334
O        3.74173782       4.97121826       8.64080075
N        6.94906584       0.29599847       7.46527105
O        5.11205529      10.22685951       8.60698542
O        0.00536611       9.04697835       8.37202332
O        2.49215828       3.79688141       6.23467729
O        6.31505736       8.68234977       7.35408831
124
Lattice="10.1931 0.0 0.0 0.0 10.9684 0.0 0.0 0.0 12.7908" Properties=species:S:1:pos:R:3 material=LiPON model=NEP89 temperature_K=1500 phase="NVT production" source_frame_index=960 relative_time_ps=96.0 pbc="T T T"
Li       1.04844642       3.66926840      10.40179909
Li       2.40152080       0.14308581       1.22315553
Li       1.28480897       9.34496333       5.76558734
Li       6.81415939      10.34393192       1.29805233
Li       9.10371633       3.07134442       5.15164341
Li       0.65826776       8.11375962       9.71176362
P        2.69668507       3.13515970       1.91828984
P        0.80952168       0.47034599      11.37725982
N        8.66134647       4.90068189       3.23492995
O        5.68062365       9.05450562       2.29611735
O        2.79364466       2.48221414       3.32935473
O        6.98419695       7.29275747      11.33824848
O        1.99900765       2.17797205       1.08666884
O       10.00533717       1.33655487      12.26641477
O        0.42035906       5.04562610      11.40757700
O        3.95071720       3.52898119       1.09924156
Li       5.81835949       7.05871904       8.06427366
Li       0.39574119       7.56881117       2.75489893
Li       2.43276456       0.32540561       3.46598282
Li       5.55800208       1.99745238       4.39520129
Li       6.31484974       8.24351449       5.49971016
Li       1.25205960       9.88496289       8.58060561
P        6.14742242       0.79563055      11.65524548
P        7.65202162       3.58775466       2.89231746
O       10.03476373      10.37441960      10.37710845
O        9.52324849       5.47433635       8.86399669
O        6.68842887       0.85862988       0.27169092
O        1.03257181       0.04278303       4.99709585
O        6.27770835       2.14599816      10.97742468
O        7.49853916       3.27623431       1.38329415
O        7.53584847       0.37831046       8.11165258
O        4.49325032       0.73100308      11.92435456
Li       9.60315215       1.25401970       4.23875517
Li       5.12591520       5.70280632      10.07622652
Li       3.03232591       3.84030468       5.66681035
Li       8.16508615       8.09932448       0.20227031
Li       2.90415927       8.88975781       3.18185624
Li       4.26141173       3.13663257      10.87034671
P        5.23985154      10.14083439       3.17474035
P        0.60569733       6.41105476      12.05455849
O        8.25737706       0.28590861       5.56212636
O        2.08486532       4.56147349       2.43753180
O        4.87977318       9.58263263       4.61172435
O        2.38610446       5.23680992       4.85352610
O        6.07527883       0.49692317       3.33005760
O        2.20258915       6.73263208      11.86957144
O        1.43714368       1.48147441      10.45040977
O        3.89000174      10.66618743       2.59843065
Li       3.80477739       5.58049017       0.36238051
Li       6.47056240       1.78622114       8.94392195
Li       2.86050000       7.99182705       0.05844524
Li       2.47721357       5.85729458       9.59185475
Li       9.29204203       9.74473458       4.87709225
Li       7.57572394       8.22979316       3.16645782
P        8.33512521       4.46162547       8.27197857
P        7.27196501      10.72833717       6.64236021
O        9.91203465       7.50960863      11.34959984
O        6.70181257      10.63497918      10.74696168
O        6.81362607       4.65508439       8.75933621
O        2.95102144      10.19722292       9.00358424
O        8.52394084       4.00043876       6.84922259
O        5.81702989       0.07799834       6.36088561
O        9.41402731       5.86364841       3.16730001
O        8.63718186       3.09795376       9.13794808
Li       0.66447861       4.06550439       6.69633047
Li       6.39301849       3.72537559      11.59771644
Li       4.97279504       1.31524263       1.07766345
Li       5.10716632       7.44231142       3.32222275
Li       8.56655072       5.42875151       1.13754271
Li       8.69247812      10.04767888      11.50857452
P        5.55541452       5.15059139       4.23215674
P        6.62901882       6.10361182      12.37031106
O        0.92382244       0.05668675       7.57013606
O        1.28528583       9.90022127       2.12568848
O        1.63624319      10.44306711      12.17314840
N        6.37220509       4.02419012       3.55385837
O        7.71195962       5.12205818      11.93771481
O        2.37554409       7.08153536       3.04267694
O        5.17358098       4.39688739       5.55263683
Li       8.59821431       1.13966630       0.64827090
Li       6.13034571       9.70776373       8.95956647
Li       0.06219985       2.98565232       0.48810911
Li       4.06264572      10.25950827       5.93860741
Li       5.68920074       8.42503582      10.72373975
Li       6.70293147       4.97957877       6.48411827
P        3.71064370       3.94630118       8.70058281
P        1.16134992       0.95861725       6.29254282
O        5.14956928       5.68837586      11.97256862
O        8.87286126       8.02724932       5.40096552
O        2.70632215       3.88685869       7.43149100
O        8.33911182       2.34696211       3.66227078
N        4.49921333       2.60024639       8.42143854
O        2.66275577       1.20755041       6.70450598
O        3.51414141       8.65892844       7.26120500
O        2.95046126       3.64064043      10.06595377
Li       8.83516337       4.83062010      10.62800272
Li       0.08029700       8.88933970      12.24202454
Li       2.15335871       1.42621917       8.77176844
Li       8.73730315       1.93906437       7.59236440
Li       7.91891006       0.84614191       3.32156095
Li       3.18094911      10.82151196      10.74786825
P        9.94817565      10.23350728       2.05780884
P        2.57744513       5.61938246       3.34260136
O        4.94177473       8.42459781       9.29129153
O        6.20153201       6.53548805       4.33554995
O        9.35415746       9.74916564       0.61335263
O        0.26326199       6.53275899       0.70436942
N        9.32494440       9.23819165       3.15231568
O        4.39489259       5.50468390       3.15580955
O        6.90561474       6.53538712       1.12644161
O        9.39836549       0.50617635       2.53384407
Li       8.36958827       6.93307886       8.99042995
Li       5.67847937       3.67573808       1.33108975
Li       8.61647776       1.60901980       9.90188512
Li       8.58789744       6.13539109       5.33276755
Li       9.23813546      10.52273904       8.89319324
P        8.21548542       8.20404745       6.78128497
P        3.51343153       8.78301656       8.80210561
O        4.49809631       5.27537005       8.84226678
N        7.10880532       9.17365171       6.95939052
O        9.17377187       8.27332568       8.05578859
O        2.42204475       7.70209180       9.33351286
O        0.39276262       2.32029591       6.33587140
O        7.18732240       6.90529657       7.09226922
124
Lattice="10.1931 0.0 0.0 0.0 10.9684 0.0 0.0 0.0 12.7908" Properties=species:S:1:pos:R:3 material=LiPON model=NEP89 temperature_K=1500 phase="NVT production" source_frame_index=990 relative_time_ps=99.0 pbc="T T T"
Li       8.67990806       5.00013681      12.31876899
Li       0.72503836       2.91485470       0.03577128
Li       2.53697758       5.14690673       7.39602627
Li       8.58984711       8.44962418      12.30962488
Li       5.71136690       6.60769738       4.98617633
Li       3.36330767       8.23798450      12.15451925
P        3.63553960       2.87500610       1.72341829
P       10.07526138       1.42481833      11.01871500
N        9.90169541       3.75921090       3.56130351
O        4.69643812       7.90903111       3.83492375
O        4.91659949       2.17553442       2.26465641
O        5.91489155       7.51343325      10.77792826
O        2.61724529       1.78329164       1.38011946
O        0.85199052       2.62165057      10.79538131
O        1.75600826       6.26619361      11.33557952
O        3.92120632       3.82524088       0.62104557
Li       0.07984111       6.17733758       2.19355243
Li       9.00465508       0.38831111       1.12037405
Li       2.95969825       1.84886485       6.23589393
Li       0.69070902       1.29854502       2.62822205
Li       6.49451779       9.23135333       3.68387461
Li       2.10423902       0.22816811       8.65563463
P        5.63455533      10.76124948      11.55091652
P        8.68558666       3.17005406       2.31518464
O       10.18717500      10.76430175      10.45555350
O        8.38874834       5.86337109       9.44620332
O        6.99457017       9.93301583      11.79860787
O        0.07694359      10.52283418       6.57428009
O        5.36585824       0.20140514      10.04844651
O        8.81155760       3.98770046       1.08812207
O        7.21725443       1.03783961       7.14425267
O        5.32428576       1.03725104      12.39430350
Li       8.31474379       0.68550169       3.69629234
Li       5.87489695       3.75952665       1.53830595
Li       6.92263728       5.11331126       7.38228939
Li       6.84265375       9.37732271       9.23791267
Li       9.61163115      10.22728107       8.54264447
Li       9.84956405       5.74015368      10.33280877
P        4.29705551       9.15585333       2.84665199
P        0.92405558       6.85899610      12.53104266
O        6.23676673       0.74167724       4.86910529
O        3.10113466       3.79889700       3.00062446
O        5.59742081       9.55268145       2.09710173
O        4.14836146       2.67801519       5.12548574
O        3.17921034       8.88017274       1.69198440
O        1.22476974       8.30090577      12.25863473
O        0.08818892       0.98484495      12.45171468
O        3.85922017      10.37242938       3.78379432
Li       3.50963915       5.60915000      12.25181040
Li       6.80608604       7.70143536       2.11153568
Li       7.40249826       5.50343651       1.05973825
Li       2.30846012      10.88021188       3.38897593
Li       0.29568067       8.66606769      10.18528779
Li       6.33120172       0.96094754       2.18571224
P        9.34033574       4.96893157       8.32079689
P        6.15138458       0.29890141       6.37163109
O        9.77205387       6.37819391      12.44831801
O        4.49769762       9.77572639      11.89783222
O        8.39141843       3.84695704       7.97241839
O        1.47794109       7.94896315       6.08259985
O        9.86062560       5.69933206       6.97402926
O        4.69000220       0.40323510       7.02833701
O        0.24663928       4.94162931       3.30891239
O        0.46933663       4.55416312       9.17614907
Li       1.80103567       6.08904149       9.73640060
Li       0.74890943       9.89222975       5.02798734
Li       0.49643426       6.82554382       5.10447233
Li       1.49388994       8.47846312       1.50566436
Li       6.38912103       2.67401640       7.49896167
Li       0.71069365      10.13779431      12.01870211
P        6.85895205       4.70680054       4.05357407
P        6.01884067       6.97149744      12.19514478
O        1.50055108       1.44310525       7.40975043
O        8.25647674       9.38567977       3.56467266
O        8.68540413       1.79561993      10.57022396
N        7.22541881       3.57841170       2.91453295
O        6.55272449       5.59285633      12.36881613
O        2.69460962       4.82053467       5.14418268
O        7.12291279       3.86929526       5.46449094
Li       4.94313026       1.30693609       4.05924742
Li       5.07444298       1.59783318       8.88180049
Li       1.69915978       4.25430029       2.35161999
Li       3.23489030      10.65012502       5.65838959
Li       4.27352042       7.31681220       7.18333027
Li       0.02365416       4.38411365       5.63332299
P        4.66404594       4.35609537       9.06004270
P        0.57016606       0.97414645       6.39528469
O        4.53098293       7.12981803      12.78266823
O        6.75028354       7.41542216       6.08246356
O        5.29039060       5.45808830       8.20440057
O        8.36503568       1.61275267       2.16129759
N        4.05942845       4.69333228      10.42961288
O        1.39966659       0.66212371       5.08144512
O        0.44031374       8.46140812       8.67022886
O        5.58660070       3.12982764       9.22422823
Li       7.02683499       6.72190494       8.74851811
Li       6.97506902       9.72071147       0.79517467
Li       8.38528801       1.90054996       8.50706801
Li       1.47206612       3.28818663       8.77267446
Li       2.67657029       7.07527665       3.76597299
Li       2.66416327       1.35522212      12.31827524
P        9.48002290       9.03394557       2.69344378
P        3.76706656       4.00913104       4.45190581
O        2.46428308       6.84646119       8.13931295
O        7.23258020       6.10768289       3.67099162
O        0.11819691       7.78925443       3.22514466
O        1.77467779       6.64069470       0.97766891
N        9.13954867       9.12647170       1.18201676
O        5.18292737       4.84172225       3.92965610
O        7.15634075       7.63844641       0.41491450
O        0.37141484      10.26850324       2.78591667
Li       4.43111300       9.91015833       8.31184502
Li       6.94261924       1.80052292      11.33862622
Li       9.92567103       8.50018081       6.54745915
Li       4.48082161       7.01690882       9.56139616
Li       8.32846348       2.39156839       6.11545747
P        6.68032075       8.60640631       7.01346975
P        1.75571825       8.18558002       7.59613855
O        3.26403402       3.64523787       8.30409371
N        6.85649529       9.89777587       6.12691526
O        7.91691004       8.75079304       7.74579030
O        2.54327243       9.60364665       7.84198868
O        9.84704895       2.13642075       6.17259986
O        5.67682423       8.63268444       8.02500805
124
Lattice="10.1931 0.0 0.0 0.0 10.9684 0.0 0.0 0.0 12.7908" Properties=species:S:1:pos:R:3 material=LiPON model=NEP89 temperature_K=1500 phase="NVT production" source_frame_index=1020 relative_time_ps=102.0 pbc="T T T"
Li       5.90576313       5.46262014      10.18991360
Li       1.56919873       3.70708782      10.46337170
Li       5.25743869      10.06214651       7.23298589
Li       6.02057253       8.90719764      12.48954343
Li       4.62285917       7.62081529       4.08018512
Li       4.84326305       0.06293805      12.17466936
P        3.30965169       2.44624037       0.86198620
P        9.17638869       1.67518281      11.51309262
N        0.06509468       4.93432173       4.48232788
O        3.55231548       8.08910992       2.49469612
O        4.50361948       2.05846773      12.62348701
O        6.70801642       7.09255856      11.61035246
O        2.26310517       1.35618461       1.04291446
O        9.64963406       1.41022426      10.00988704
O        9.65688996       7.34506421      12.37017714
O        2.95816610       3.78733743       0.55223760
Li       0.09630585       7.54216972       1.37936871
Li       2.06291743       1.39800393       9.14712615
Li       4.05129196       1.05745235       7.78106580
Li       5.23156425       5.92133421       1.90575434
Li       1.76851800       0.32257930       2.77580237
Li       9.55236061       2.07785081       8.20099772
P        4.32176764       9.78027644      10.29920865
P        9.40845273       4.90674530       3.13538670
O        9.64982927       0.48206881      12.39629270
O        0.07557808       4.22521621       9.52296091
O        3.94930934       8.26048641       9.80907544
O        0.61519900      10.71134802       7.54161363
O        4.57039694      10.63781953       8.99289928
O        9.97300177       5.95984434       2.06517013
O        7.27562076       1.47555231       7.63063848
O        5.63490825       9.69552209      11.10734117
Li       8.40367570      10.95040906       9.24301211
Li       3.06832851       5.28117610      12.36762536
Li       5.88608150       2.61743089      12.18787958
Li       8.17640943       6.84466416      10.95604898
Li       5.82156484       6.03001797       6.94368348
Li       2.81799601       6.54059717       9.24322448
P        4.15521999       9.46249737       2.52385606
P        0.75525461       7.31842408      11.47957464
O        7.35108167       0.99800949       4.99420618
O        4.17202036       2.14124436       2.59721924
O        5.54764131       9.63662560       3.24869050
O        3.87353740       3.39405657       4.75659066
O        4.78779219       9.85212119       0.93984251
O        1.95907921       8.03848822      12.13575226
O       10.01163701       3.04152658      12.15862190
O        3.33324704      10.58352502       3.35437378
Li       3.51257537       7.54048878       0.79257172
Li       7.67806782       7.16338675       2.66837740
Li       6.70138583      10.80791677       2.51000372
Li       0.83631450       5.03901719       0.15076935
Li       6.32860040       8.02308712       9.50738028
Li       0.46046950       1.89461855       1.27096836
P        9.04146192       4.74377901       8.83493063
P        6.73880449       0.60505085       6.45022635
O        1.03708389       5.76717361      11.25449414
O        3.32287011      10.40632112      11.25617120
O        9.39232293       5.65437582       7.67628655
O        3.38325761       6.56730685       5.66040368
O        8.21081573       3.67072738       8.16404659
O        5.18290497       0.78379611       6.25030408
O        0.43413286       4.85572804       5.68192140
O        7.85097954       5.57526634       9.64789306
Li       2.89420807       9.32929224       8.28559530
Li       8.01539922       5.69921453       6.52600480
Li       9.34524246       7.58545012       4.85168342
Li       1.99549110       7.96534369       3.29743435
Li       2.69100960       4.63234219       6.54126415
Li       2.83349642       5.81419327       3.93358521
P        6.62827257       5.18178518       4.16834813
P        6.12842384       5.99939378      12.51193838
O        2.56792806       1.28783280       6.96386224
O        9.98459143       9.13167820       4.25329791
O        7.68793969       1.99793312      11.62435768
N        7.90040272       5.12833722       3.31759208
O        6.98701136       4.73323815      12.43574263
O        3.79658641       4.87497670       2.83120866
O        6.77686491       4.87270007       5.70526079
Li       5.69553216       3.04077038       7.20403244
Li       8.76904647       4.32718605      12.77822375
Li       3.31005371       1.73963723       5.58040913
Li       4.48289093       0.63764927       4.67183322
Li       5.70815443       9.20967388       4.94634326
Li       7.45412410       2.43854889       9.71269366
P        3.82023484       3.42509980       9.53228227
P        1.23228203       0.72823688       6.56122357
O        4.60487129       5.83132220       0.11945618
O        6.47497684       7.68718968       7.33264078
O        3.55629684       4.84962092      10.12134041
O        9.37365190       3.71182202       2.21474944
N        5.33135466       3.12269056      10.10092258
O        1.46893648       0.24445458       5.06483663
O        2.29142606       7.80991789       7.66118252
O        4.08578867       3.41336839       8.03452669
Li       3.46725845       7.41755137      11.31321236
Li       0.28879362       9.44826515       6.02590313
Li       8.45776553       2.20468006       2.31820556
Li       2.47605840      10.45119234       0.53909752
Li       0.88793412       6.56429452       7.12064687
Li       1.05510048       9.78749880      11.31781529
P        9.76101606       9.89954520       2.95114723
P        4.43602197       3.55009231       3.30287876
O        4.13845350       8.94041571       6.15756296
O        6.13750515       6.59990766       3.91636945
O        8.41426293       9.66677146       2.33589933
O        0.70420463       8.02071780      10.11218306
N       10.03758893       0.44420350       2.94513827
O        5.97132335       3.90432518       3.46997175
O        6.72126053       6.80655863       1.03744096
O        0.53148300       9.25038477       1.98590948
Li       8.72954007       3.25385920       5.94908928
Li       8.50858361       6.64103769       0.75566399
Li       0.35472341       8.56461212       8.42093419
Li       2.75049156       9.99995960       4.74612570
Li       9.20054085       0.37903070       4.86355685
P        7.63214685       8.78266422       7.40975362
P        2.95612122       7.93880336       6.19424693
O        2.85822661       2.43817620      10.16572866
N        6.94840981      10.03702432       6.56737635
O        8.78696489       8.30826373       6.65629198
O        1.71350337       8.59069418       5.34409966
O        0.07470193       1.84533821       6.55295957
O        7.71005321       9.01151126       9.00777315
124
Lattice="10.1931 0.0 0.0 0.0 10.9684 0.0 0.0 0.0 12.7908" Properties=species:S:1:pos:R:3 material=LiPON model=NEP89 temperature_K=1500 phase="NVT production" source_frame_index=1050 relative_time_ps=105.0 pbc="T T T"
Li       3.26231352       7.46942456       8.64099788
Li       1.33549461       3.85871471       7.20821895
Li       4.91170662      10.45194494       7.57860054
Li       7.37656294       5.92281547       9.57234709
Li       1.41067414       8.33550276       8.32191853
Li       4.24173804       0.70486111       3.51336601
P        5.31782252       2.72682448       1.89327976
P        9.05136968       0.83193982      11.97832108
N        9.99468290       3.06144961       3.30797010
O        4.13937669       7.47700077       1.89939779
O        6.46335375       2.49897579       3.13600266
O        7.28039900       7.90181160      11.16654128
O        4.34655894       1.54450936       1.73113777
O        8.95431700       0.70825475      10.36534240
O        0.13006364       8.69014880      10.75589586
O        5.87295909       3.18201417       0.38766591
Li       8.92278505       8.78964302      11.59511285
Li       1.94484170       1.84431399      11.87414234
Li       5.05551076       4.35612210      11.96993999
Li       0.31071881       6.23211355       4.00176707
Li       9.40291549       4.98996518      11.29042682
Li       7.15896378       3.57033939       7.27538751
P        4.61076142       0.22929109      10.50125102
P        9.19936491       4.13182494       2.46701387
O        0.12409239       1.32385273      12.59152791
O        9.64557698       3.62933967       7.63162081
O        4.28451915       9.76157963      10.20214472
O        1.84442742       0.03281506       8.51455306
O        4.60060480       1.08140618       9.09140999
O        0.08997605       5.29607185       2.40174634
O        6.26828973       1.69623493       6.90738135
O        6.08651784       0.60682240      10.96480352
Li       3.59130783       0.51815602       0.65725974
Li       3.87340334       6.74719143      10.86234443
Li       1.18501046       3.59595494       2.16394061
Li       2.28064262       3.50341083       4.99551612
Li       2.18862119      10.11742859      10.96232961
Li       9.55401866       6.90058517       1.17277633
P        4.41771934       8.89466972       2.56474494
P        1.12753535       7.55938905      11.18153410
O        8.37174781       0.91358447       5.70206353
O        4.55397970       4.19334139       1.98181763
O        5.76038255       8.73016933       3.56743337
O        3.92995795       3.18174679       4.54960512
O        4.40552250       9.80771947       1.38922436
O        2.35459169       7.96464197      11.97276560
O        7.97543855       1.96935606      12.32196376
O        3.34220760       9.49780022       3.52445500
Li       6.37919211       1.17025610       0.16121074
Li       7.39849910       7.75382926       2.60418126
Li       1.79790848      10.38532261       4.05639291
Li       9.15237814       1.50455367       1.17497534
Li       5.83051846       7.66655377       9.86572826
Li       0.56766221       9.96381307      12.53499127
P        9.31218330       3.77231317       9.02624748
P        6.94479646       0.49781490       6.21352804
O        0.19277215       6.55354944      12.05937157
O        3.46039374       0.83582525      11.24983377
O        9.03894525       5.41419935       9.46855009
O        1.39791185       5.25183746       5.58929137
O        7.81303217       3.16273134       9.24761184
O        6.11772615       0.34234356       4.88591345
O        0.69375885       2.42221835       3.97144214
O        0.11013032       3.48428460      10.09526615
Li       5.73672343       2.71990381       4.96430355
Li       3.82252823       4.82812332       6.24657695
Li       6.58141533       8.44837816       5.14020349
Li       7.07836380       9.92951732      10.88503170
Li       0.74917304       5.43500637       9.39164738
Li       1.95963472       7.80928295       3.12457873
P        6.96270641       5.08561377       4.39460331
P        6.80211692       6.78430477      12.25443149
O        3.28970069      10.72440651       6.24771296
O        0.12569761      10.15297256       3.48627200
O        8.71340596      10.30570479      12.61960739
N        7.81346393       4.68253199       3.08944383
O        7.44004067       5.33927600      11.80377765
O        2.60665253       4.76207275       3.17237968
O        7.23375786       4.04871715       5.40713222
Li       6.88696894       6.52158690       6.85375695
Li       8.68640002       7.61174092       9.79168306
Li       8.98202199       7.51943006       4.95266429
Li       9.39375686       3.64436893       5.48457313
Li       5.13556877       6.07879331       1.55717454
Li       6.49764868       1.74551979       8.85717071
P        4.56000913       4.84349182       9.12452760
P        2.17951514       0.55422733       7.03448842
O        5.25876286       6.49282184      12.03354227
O        8.20017631       8.32306092       6.28547888
O        4.61507970       6.38727252       9.36341633
O        9.05936664       3.65363296       1.08716990
N        3.28001823       4.25186118       9.80509990
O        1.05775726       0.08898632       6.23332037
O        0.42819663       7.00310782       7.29474030
O        5.85600457       4.27509584       9.90846019
Li       4.21760059       7.95528371      12.55231661
Li      10.05344890      10.36027041       9.90142400
Li       0.05550105       9.39116473       6.07986182
Li      10.00577209       0.50191593       4.60370714
Li       4.44206243       2.82327472       6.97799949
Li       2.03734973       2.76814033       9.39851608
P        9.62479424       9.14913967       2.54569339
P        4.07229416       4.37198408       3.52017491
O        2.88884645       6.97632400       6.93363075
O        7.32955664       6.61564126       4.74764536
O        9.25187027       7.71865119       3.08709361
O        1.79714900       6.80192760      10.11974766
N        8.33670043       9.97802272       2.35131307
O        5.38586423       5.43881468       3.93169089
O        7.53812555       7.30581993       0.71782497
O        0.40633244       8.79553077       1.38836534
Li       7.64092489       0.54708638       3.41344323
Li       7.70213542       3.82807838       0.08031368
Li       6.96998349       2.79400754      10.77543540
Li       4.47253104       9.76290809       4.74011003
Li       9.56243556       0.34325915       7.01950802
P        7.87302565       9.17518702       7.62398237
P        1.43668001       6.63088362       6.34198123
O        4.91172681       4.41000778       7.64696411
N        6.88655463      10.43055060       7.35514520
O        9.21620460       9.82938090       8.07952943
O        1.11704304       7.67019778       5.09626409
O        2.37523066       2.13795463       7.08152714
O        7.03212929       8.38895982       8.49526184
124
Lattice="10.1931 0.0 0.0 0.0 10.9684 0.0 0.0 0.0 12.7908" Properties=species:S:1:pos:R:3 material=LiPON model=NEP89 temperature_K=1500 phase="NVT production" source_frame_index=1080 relative_time_ps=108.0 pbc="T T T"
Li       3.18870702       8.59641509      12.13646403
Li       1.11281105       6.44022286       3.34015363
Li       4.98248505       3.09005068       6.62057547
Li       0.72385761       3.80938634       6.67223883
Li       9.15579909       6.19465802       7.52340995
Li       3.72986651       7.76267424       4.96992139
P        5.02040619       2.58230597       1.58149631
P        9.47605868      10.66719422      11.38798180
N        1.31769914       4.95534183       2.28830587
O        1.90318674       8.00873119       2.92150703
O        4.59769258       1.33973898       2.35309262
O        6.91397678       7.19526881      11.35774338
O        3.73771853       3.17366513       0.87422794
O        0.34237530      10.91238011      10.21802310
O        1.48655818       8.08331249      11.12967565
O        6.03473015       2.25555349       0.35976140
Li       1.71896166       0.04084747       8.78048980
Li       8.96365091       3.54426452      11.74258473
Li       2.90287447       2.90732971       2.80947337
Li       0.38793647       8.65071785       3.90086656
Li       6.52171733       3.87844771      11.06389401
Li       0.43765081      10.41027031       6.72201579
P        4.25415046      10.41455577      10.72156234
P        0.02338905       3.86045492       2.21228513
O        0.17419704      10.25618971      12.64449241
O        9.88545054       2.80941271       7.98416355
O        4.11479205       8.94478309      10.31330077
O        3.96618997       1.29284267       5.10808423
O        5.61463222       0.00169792      10.67501608
O        9.26397592       3.54547499       0.82373475
O        8.85869627       0.48874689       6.77709031
O        3.70578574      10.57839331      12.19980708
Li       6.56245577       0.63763485      12.42175669
Li       2.18914411       4.23145649      12.50306688
Li       9.33444007       7.59127183       1.87064009
Li       8.10729323       1.01307949       5.05724111
Li       0.84563670       9.25398690       9.65785703
Li       2.69877572       7.82382941       9.54352309
P        3.04214932       9.18379056       2.97097136
P        1.24704304       6.80689758      12.00721995
O        6.33333891       0.08872710       5.87465919
O        5.56293288       3.82917574       2.54863790
O        4.02861160       9.37378677       4.16933306
O        5.46865806       4.63895032       5.24535440
O        3.89389415       9.00181891       1.68951186
O        0.28175144       7.32085626       0.37215089
O        8.56491955       0.89450127      11.82253306
O        2.25531538      10.54198601       2.96942305
Li       7.11634930       3.61491949       1.45292590
Li       5.47437715       7.33937573       9.34328523
Li       9.00570808       2.59716981       6.42980321
Li       0.82715065      10.50268064       1.33857005
Li       5.61086211       1.47511689       9.00557307
Li       2.99406846       6.96181251       1.71442313
P        8.58465018       3.61019114       8.71075884
P        7.42390629      10.78381194       6.89169718
O        0.73121421       5.51933257      11.54693759
O        3.32341710       0.30178126       9.67652502
O        9.01735288       5.16060148       9.05433265
O        2.49485063       7.21683284       6.22920323
O        7.36160860       3.47407658       7.71038217
O        6.91642682       0.33395026       8.28464789
O        2.65750002       4.91724682       2.63135532
O        8.33391653       2.88822950      10.21678604
Li       9.31044420       1.02156779       8.88378207
Li       6.20574983       5.33189422       7.15547652
Li       8.93939003       1.71866015       0.65788227
Li       9.22806642       5.73099254       0.82517017
Li       0.94912320       5.45158828       9.34752344
Li       3.18875063       0.61888084       1.33358370
P        8.88507197       5.31855709       4.15325698
P        6.67006098       6.28837980      12.72069534
O        1.65065696       0.87073099       6.31347424
O        7.87607359       0.68320445       2.31551177
O        8.57599522       9.49921575      11.05943809
N        9.37883766       3.86798056       3.57389162
O        7.05176570       4.82696574      12.53436446
O        4.92987015       6.35231973       3.32944060
O        8.67783901       5.65112040       5.71926212
Li       4.50939527       9.80473141       7.38750637
Li       5.86227936       7.87880570       2.26159485
Li       8.16028225       8.08916472       4.86654842
Li       5.11120780       9.81951738       0.63216458
Li       4.20969269       5.16444870       1.57410081
Li       6.58894454       9.77541683       9.30673762
P        3.88527425       4.61918984       9.48486841
P        2.84182543       1.95508812       6.08621915
O        5.15244739       6.44986316       0.57353248
O        7.77436342       7.04596406       8.08297413
O        4.05791108       6.09648432       9.97446879
O        0.91049315       2.41632745       2.16539651
N        4.02885221       4.57526368       7.94115130
O        3.50403879       2.14269278       7.43052014
O        0.67067910       6.91848964       7.69784550
O        2.40199409       4.03661752       9.90959865
Li       4.38888528       7.29714554      11.33756112
Li       8.22865960       7.21197621       9.90851095
Li       5.01298285       0.35881899       4.24893362
Li       0.82590168       0.99394972       3.24744413
Li       1.99547886       0.44648823      11.58860174
Li       2.71556319       2.52094788       9.12730838
P        8.11019520      10.28428630       2.79666863
P        5.66183176       5.00723926       3.75273817
O        1.74425898       9.02660817       8.07081190
O        9.37830569       6.74294503       3.82101243
O        7.04754299       9.27072808       3.47974472
O        2.70448992       6.66610392      12.60137864
N        8.40464389       9.43426306       1.48029051
O        7.23987429       5.22581713       3.53402045
O        7.76385204       7.00621845       0.89856721
O        9.30421777      10.16779487       3.84801101
Li       3.06416915       5.32510133       6.20065347
Li       8.60636324       8.23745745      12.13149124
Li       4.21548423       2.03589262      11.75584235
Li       2.45233824      10.41533485       5.70813092
Li       6.15900648       9.35114362       4.93094353
P        6.90214093       8.09877360       7.46374628
P        1.39750033       8.09860898       6.88170166
O        4.92824659       3.48160761       9.96879050
N        7.71377471       9.24896555       7.00320546
O        5.59731033       8.63861310       8.24921241
O        0.47707795       8.73702204       5.77716641
O        2.24473085       3.32654832       5.58089314
O        6.13573105       7.64990293       6.29180902
124
Lattice="10.1931 0.0 0.0 0.0 10.9684 0.0 0.0 0.0 12.7908" Properties=species:S:1:pos:R:3 material=LiPON model=NEP89 temperature_K=1500 phase="NVT production" source_frame_index=1110 relative_time_ps=111.0 pbc="T T T"
Li       0.80857334       9.61020906       0.55521241
Li       1.87921059       3.92613755       0.90810396
Li       5.92472853       8.19879940       3.21967853
Li       3.85440039       5.72281086      11.76769960
Li       5.70355506       5.25199691       8.20401293
Li       3.73087750       8.52667850       6.09850183
P        4.59730370       3.68805864       1.14119472
P       10.11793058       0.39040385      11.66698796
N        0.44554746       3.38455894       3.75797585
O        3.55702450       9.26768598       4.30071721
O        6.04345803       3.83957979       0.75429175
O        8.05598795       6.27965281       1.06568839
O        3.65574696       2.63725236       0.46080820
O        0.06267940      10.78616971      10.23140014
O        1.83172627       6.22023364      10.60560211
O        3.57496405       5.07632149       0.90090863
Li       1.84806356       9.15519508       4.15839741
Li       2.45455465       0.12917224      10.30740333
Li       8.19789255       6.65132071       3.82916021
Li       2.49830269       3.19481883       5.08296409
Li       7.93936389       7.36390723       9.52055305
Li       9.35607872       9.59356520       8.37407357
P        5.39558872       0.14736560      11.38216295
P        0.01602633       4.67484910       2.79209860
O        1.35155318       0.29691503      12.36949623
O        9.59375280       4.06567213      10.92982485
O        4.26247514       0.94228075      10.64115640
O        0.89705542       1.88251352       6.82533128
O        6.00674913      10.13614443      10.30145271
O        1.01484654       5.83586040       3.15368834
O        8.61415890      10.39200404       7.10139872
O        4.71257796      10.40322983      12.49475694
Li       7.13321068      10.25250781       1.15459715
Li       9.42170075       1.51614807       0.84347239
Li       0.64099184       7.52176113       3.23926811
Li       4.46473785       0.94505260       1.54050721
Li       0.06640900       9.59433667       6.03323362
Li       6.06092793       5.51109168      10.22083481
P        3.87718302       9.56045696       2.76514098
P        1.84647707       7.61002498      11.20797406
O        7.02468015       0.31955587       5.21781575
O        4.57952546       3.41249180       2.85396876
O        5.41795334       9.74551376       2.50870793
O        4.17276205       4.78533561       5.07712635
O        3.45810705       8.21156793       2.03262568
O        3.37029790       7.53040787      11.92381920
O        9.49610261       1.79121885      11.52640026
O        3.26097232      10.83532738       2.37680578
Li       4.77940908       2.77574568      11.62014981
Li       8.10487123       9.28469292      11.21853139
Li       9.10858665       1.38062362       7.74378759
Li       8.24952019       8.25054285       5.79054578
Li       4.46728402       1.64069586       8.71550675
Li       4.90813308       6.52538776       1.25080876
P        8.85758507       4.23615870       9.58117204
P        7.13680700      10.71852900       6.83395350
O        1.79038646       8.64639137      10.06365880
O        6.42179342       1.15860868      11.80326546
O        9.17312483       5.59176093       9.32612023
O        2.18792759       7.70633792       7.27362141
O        9.43206073       3.16260606       8.61313452
O        6.43927253       0.65877639       7.73446996
O        1.21300187       2.41078179       4.06530872
O        7.13441815       4.04421916       9.44439681
Li       7.12444118       2.39386447      12.57700733
Li       8.98078351       3.80720316       7.00378145
Li       3.97564494       8.86201942       0.35385744
Li       2.16004050       6.85547432       1.38207663
Li       0.78058213       6.53606489       8.68987491
Li       2.86723386       5.42565882       6.37817675
P        8.01372849       4.11764100       4.58570087
P        7.33450918       6.96773201      12.64002019
O        1.59050701      10.40157718       6.33087024
O        9.95624640      10.65695065       4.32469809
O        9.09223163      10.36904489      12.51548893
N        8.65430966       4.56049183       3.17360013
O        8.43508188       7.27790161      11.45923902
O        5.44996871       5.94311619       3.08923653
O        8.38691971       2.95622636       5.47660543
Li       8.86817431       1.05045834       4.54963708
Li       6.54251072       5.20519267       2.01826499
Li       2.87234280       0.60991468       4.20090813
Li       8.96890910       8.37196424       1.57405304
Li       3.38540128       6.99655830       4.40464626
Li       4.88675771      10.37938203       8.45755051
P        3.44704106       4.08459726       8.99860332
P        2.03674969       0.80324275       6.76332153
O        6.94941510       8.39032633       0.12972490
O        4.45848490       8.52516509       8.06417763
O        3.08934540       5.41246150       8.21350291
O        0.18220035       4.13011460       1.17427308
N        4.73529585       3.38378738       8.28033733
O        3.37854683       1.50927780       6.09756990
O        1.08954585       5.64220815       6.48927783
O        2.26847402       3.12485699       9.15793214
Li       5.32632879      10.42895513       5.38989548
Li       9.34821677       5.16287650      12.55491868
Li       0.43008085       2.48310715      10.13822411
Li       2.55140074       1.30087401       0.13222233
Li       2.54607668       9.25636322       8.36506254
Li       6.81111386       0.81539578       9.77165067
P        9.25584961       9.87298688       3.25012589
P        5.11702993       4.60084559       3.83710110
O        9.95658345       7.76516517       7.13949335
O        8.22736887       5.51293344       5.21402606
O        8.14335975       8.95829823       3.73846643
O        1.14256062       7.84523086      12.55888585
N        8.55621300       0.03382765       2.43692275
O        6.35211815       3.96685025       4.60154265
O        6.14106011       6.06325131      12.09911683
O        0.22519784       9.03772290       2.54587274
Li       1.11901952       3.67166404       7.56817479
Li       3.45521902       7.08608221       8.50270456
Li       4.18174524       8.74629297      10.92659703
Li       5.03207986       2.23933464       6.52493676
Li       8.43018626       6.33173929       7.14582274
P        5.75471445       7.80178803       7.25774589
P        1.01761524       7.19390659       6.42489276
O        4.15090096       4.33350387      10.35287861
N        6.50310475       9.17833304       6.91979960
O        5.14930782       6.94197409       6.18816378
O        0.97724606       7.70355234       4.98749115
O        2.61189933       0.35411580       8.14840667
O        6.65320075       6.89086930       8.32614471
124
Lattice="10.1931 0.0 0.0 0.0 10.9684 0.0 0.0 0.0 12.7908" Properties=species:S:1:pos:R:3 material=LiPON model=NEP89 temperature_K=1500 phase="NVT production" source_frame_index=1140 relative_time_ps=114.0 pbc="T T T"
Li       3.83250087       6.20139234       0.99332581
Li       7.40102775      10.32472746       0.19618098
Li       2.49371877       0.93094586       4.31578565
Li       0.46278215       3.08072581      10.79663793
Li       5.36039774       5.95872743      11.62079266
Li       0.96900063       7.38357495       0.97013001
P        5.57671810       4.88647436       2.19149456
P        9.78987890       0.80181738      11.67423487
N        0.53487076       4.97624037       3.77747012
O        3.42326768       9.06543488       3.86080637
O        6.82747719       4.27018023       1.68262164
O        8.80931511       7.54995442      11.36503835
O        4.25316270       4.40163377       1.50417829
O        8.69353344      10.60564441      11.32101548
O        1.39922115       6.96732333      10.47708989
O        5.69806463       6.46667179       2.27330554
Li       5.81685926       1.17110493       2.14798889
Li       3.62925924       7.45912395       8.57191172
Li       5.29080112       8.26904404       9.56048122
Li       2.48415511       8.03282083       5.22012297
Li       0.25665537       9.98833859       8.00524820
Li       7.30257544       8.08147469       8.43272411
P        4.42180582       0.97052804      12.27429010
P        0.18080414       3.47887696       2.76270066
O        0.72112903       0.73774852      10.56188118
O        7.38869758       4.34278215      10.63180086
O        3.78556274       1.81512866       0.50286360
O        1.89880553       0.72895670       8.23337742
O        3.62407376      10.87289484      11.56843387
O        0.45267574       4.00908112       1.39398490
O        7.50150808      10.30225101       7.90137040
O        5.71569067       0.40231913       0.04268762
Li       9.69829984       9.25891867      12.35705351
Li       9.44179431       5.46444499      10.62655387
Li       1.78310139      10.30376182      10.68160063
Li       6.70664820       2.63061735      11.19804716
Li       9.57099922       7.90208216       9.91797141
Li       8.24341705       2.68394294       1.09217775
P        3.68469126       9.98734528       2.70468807
P        2.21646975       7.33466105      11.70385769
O        5.99000103       0.34290018       6.10140994
O        5.16506542       4.84235363       3.96157815
O        5.14759957      10.51745855       3.18904863
O        4.30727273       2.40837580       3.59781504
O        3.69667436       9.44472411       1.22715856
O        1.56488548       8.74868731      12.22772167
O        9.11564952       2.16025988      11.82113949
O        2.57977725       0.13993048       2.74355771
Li       9.81359526       4.56346600       7.33184646
Li       7.25539219      10.14404156      10.04646427
Li      10.11453367       0.77543465       2.18910101
Li       0.79809284       9.97090315       5.63201186
Li       6.99075535       2.85511428       7.10520070
Li       4.81244571       7.24917969       3.80126591
P        8.22950869       3.79139654       9.36505075
P        6.06239209      10.52680558       7.44397023
O        2.22189277       6.36257083       0.20250179
O        4.96344741       1.92735106      11.10424420
O        8.07717439       4.82643062       8.09356016
O        0.75380405       6.34461415       7.51536137
O        9.76846471       3.76666502       9.41926290
O        5.13054029       0.07498502       8.55730074
O        1.47727287       5.87177360       3.75297679
O        7.73099711       2.40127868       9.09295316
Li       6.04964100       1.68254915       8.92097505
Li       7.86426900       7.95415701       4.83283965
Li       2.93907640       1.69269595       2.30895589
Li       4.24927081       3.54109628      12.72569158
Li       1.18021387       5.65761692       8.98945495
Li       3.11396747       4.83627490       5.35743234
P        8.13720565       3.69628645       4.41391077
P        7.28186872       7.60329972      11.28596007
O        2.87712847       0.44918035       5.89588858
O        8.41994454       9.35241543       1.70634623
O        0.42771495       0.36638114       0.08092909
N        8.95549062       2.99688833       3.32481148
O        6.55144673       9.09025000      11.35615888
O        5.00090518       3.37854177       6.25229691
O        8.82684878       3.47012051       5.81457637
Li       9.68021023       6.38986998       4.33415225
Li       6.35325922       8.28629142       1.79641051
Li       4.94876213       9.77038962       4.81138858
Li       2.31270642      10.52815120       0.22631490
Li       6.15200054       5.42056399       8.91751425
Li       3.44684698       0.92040289       9.39972853
P        3.62259698       4.21213052       9.79148849
P        1.87520879       1.27711642       6.64630380
O        6.69405891       7.06207300      12.68426790
O        6.25798392       8.25310602       5.53574979
O        3.68512299       5.56470010       8.99647446
O        1.22269134       2.26352397       3.01062388
N        4.78681201       3.61966613       8.89074547
O        0.58387512       0.82435342       5.96448860
O        9.11019604       6.91128591       6.13784241
O        2.17438703       3.82498164       9.49714018
Li       7.27143921      10.71595483       4.95543952
Li       2.06647136       2.11188403      12.55922999
Li       7.75616371       5.66771404       0.02712717
Li       2.35639876       4.28171511       1.49449143
Li       4.62551321       1.26862431       5.51340240
Li       3.54764834       3.33590622       7.60142956
P        9.50319456       9.12253625       2.62139620
P        5.16729001       3.29026163       4.55720511
O        9.16943488       8.11369798       8.25109982
O        7.90575027       5.13522196       4.20806325
O        9.32449909      10.38028002       3.77122663
O        3.63747874       7.69380745      11.10994627
N        8.89971978       7.89206168       3.30814345
O        6.86511435       2.83979501       4.32523773
O        6.72570161       6.88671991      10.00118170
O        0.71853718       9.04916247       1.99282873
Li       9.10839129       2.07034529       7.82324314
Li       3.47331932      10.05380105       7.79325054
Li       4.07122038       9.05660480      12.23637324
Li       7.57872841       5.72725661       6.59633860
Li       9.68866061       1.27714738       4.15951768
P        5.32178359       7.77593346       6.65366085
P       10.06213152       7.60674316       7.12028373
O        4.21747703       4.42993329      11.15785239
N        5.17199497       9.20982466       7.39659028
O        6.10359929       6.64923666       7.35084630
O        0.75969445       8.76809128       6.77763465
O        2.36949664       2.79177402       6.40642683
O        3.90216246       7.05804508       6.33671314
124
Lattice="10.1931 0.0 0.0 0.0 10.9684 0.0 0.0 0.0 12.7908" Properties=species:S:1:pos:R:3 material=LiPON model=NEP89 temperature_K=1500 phase="NVT production" source_frame_index=1170 relative_time_ps=117.0 pbc="T T T"
Li       2.13624745       5.13054799       2.71901511
Li       4.67562208       8.80798963       0.12278715
Li       6.97005924       3.15381834       8.72662884
Li       7.87708939       1.57145740      11.40554250
Li       6.29790663       5.47109268       7.51346520
Li       3.94629356       3.71011111      12.34730556
P        4.73703970       5.14813729       1.31845914
P        0.06599217       0.83358793      12.43339455
N        0.68636311       5.06291243       4.54511585
O        3.08547800       8.34624373       4.18794783
O        5.50439043       4.84859106      12.67909001
O        7.93260821       5.94931714      11.88323750
O        3.22231428       4.92617045       1.33492300
O        0.82673951       0.67196598      11.08593232
O        1.24061329       8.49206679      12.19208686
O        5.46006613       6.41124059       1.68274997
Li       7.34437653       9.72244348       0.16679875
Li       3.83409812       7.25329254       1.54008476
Li       4.96483729       5.94789232      11.45718969
Li       1.34554264       5.67174021       8.41625669
Li       0.44426843       3.45541630       6.13847664
Li       8.61369060       5.65480916       6.54308387
P        4.83045589       0.83406937      12.13699800
P        9.74499682       4.65124315       3.49999064
O        1.20022681       0.34925905       0.69349271
O        0.03717217       4.65142617      10.01017482
O        6.00043658       1.88302865      11.90610640
O        2.58799492       0.52495182       6.49641327
O        4.33515569      10.94087202      10.89305078
O        8.48439826       5.46300692       3.15584892
O        6.03221737       1.39385445       8.23861702
O        3.71879107       1.72934976       0.13576070
Li       1.98713820       4.61595622      10.31994391
Li       0.67567947       6.41448685       1.14446553
Li       6.92061119       6.30032843       9.61032272
Li       2.93025848       8.58610949       9.49987531
Li       9.13171029       1.70149904       7.15855537
Li       2.15681368       1.98112077      11.06771688
P        2.62524009       8.76039841       2.79188387
P        2.15335217       7.23192091      11.79998900
O        7.95414653       0.34636400       9.54847898
O        5.93597012       4.03481086       2.37265749
O        2.32426659      10.28915264       3.08127322
O        4.96832745       1.68623869       2.88635904
O        3.97275334       9.01357062       2.01363050
O        1.40431155       5.86022564      12.37056794
O        9.78416749       2.23533684       0.05448034
O        1.57657715       7.81695384       2.17211549
Li       3.18688737       9.87568482       6.66271706
Li       4.61959061       2.51781825      10.42692407
Li       0.15254389       9.76452462       1.21907809
Li      10.01758975       9.08491722       5.17234028
Li      10.14108442       0.00277763       9.53295628
Li       7.83678702       9.47254836       6.56121211
P        9.08978986       3.95207989       9.28133210
P        7.09102455       0.29984777       8.34409441
O        2.70401650       6.93258573      10.34221078
O        5.29913287      10.66117043       0.30280283
O        8.38713524       5.00509365       8.29906025
O        0.26894181       7.33232528       8.68374409
O        9.60949955       2.64934700       8.82292588
O        7.87052052       0.29201607       6.95539232
O        1.74966275       5.28760600       5.32475544
O        8.01206923       3.61627438      10.38686885
Li       5.66925207       9.44236407      10.69281289
Li       0.53583362       0.75050176       2.94123020
Li       6.60071578       0.99896195       1.68276033
Li       3.53287107       1.59009596       4.43769829
Li       2.80988108       0.61628480       1.62675741
Li       2.80970335       7.13227164       6.00288950
P        7.87302068       3.47676129       5.18042212
P        7.72770098       7.43592079      11.80759739
O        0.28283823       0.31256938       5.17658575
O        9.25370838       9.58597747       2.68966220
O        8.89828268       0.09431649      12.73314889
N        9.20265980       3.18593077       4.21014840
O        8.33364435       8.07492348       0.24613003
O        4.48231258       3.31795634       4.58727720
O        8.24174175       2.89562233       6.56035135
Li       6.81027519       3.92243230      11.99744774
Li       5.52334440       8.12225699       2.30591412
Li       5.62269020       2.55871165       6.17152514
Li       3.28367039       0.95342045       8.39627125
Li       6.60172900       0.32985667       5.07530638
Li       9.25012746       6.54357171      10.08557196
P        4.00241225       4.22282028       8.56986635
P        1.32132456       1.18534333       5.87547700
O        6.20446291       8.00966959      11.64352725
O        6.57777049       7.84086616       7.45133020
O        4.90812718       3.95905376       7.43751722
O        0.29765203       4.55783478       2.13686269
N        3.21553269       2.98394866       9.02761829
O        0.81166862       2.08055688       7.07303762
O        2.14960156       8.46741675       7.55188729
O        3.07592144       5.29810454       7.88972056
Li       7.21586487       6.62148274       5.43746179
Li       1.36762511       3.17023867       8.52581779
Li       9.75285313       4.44643029      12.04947458
Li       8.31320080       9.49549827       9.31428887
Li       5.11549033      10.48732953       2.13591165
Li       2.75648823       3.55749844       4.81159431
P        7.89061597       9.22858123       3.22759548
P        5.51010427       2.95769875       3.51207699
O       10.04142120       9.25393532       6.99424407
O        7.04079846       4.82903625       5.56129455
O        6.83168209      10.31443912       3.15239649
O        3.40295299       7.70326582      12.43982090
N        7.33562834       7.83230638       2.79742242
O        6.95632453       2.48631808       4.32247516
O        8.52308543       8.14268838      10.70068821
O        7.97458517       8.89747815       4.67798187
Li       4.63987997       8.96975416       4.55674389
Li       3.31587590       6.85704767       8.23277851
Li       2.70818113      10.13570715      11.47377996
Li       7.27493279       6.15946404       2.05569221
Li       9.89061027       9.19822635      11.67287497
P        5.64110273       8.90692330       7.79928367
P        0.79313652       8.69816858       8.14875270
O        4.47319459       4.42092415      10.08425074
N        6.43197922       9.95475723       8.80170534
O        4.75763257       8.40822686       9.07414427
O        1.02966551       9.70563787       9.28681549
O        1.68384045       2.00208492       4.59782440
O        4.92529179       9.30309227       6.50457823
124
Lattice="10.1931 0.0 0.0 0.0 10.9684 0.0 0.0 0.0 12.7908" Properties=species:S:1:pos:R:3 material=LiPON model=NEP89 temperature_K=1500 phase="NVT production" source_frame_index=1200 relative_time_ps=120.0 pbc="T T T"
Li       1.03963754       3.44780722       6.87387354
Li       9.77405726       9.98507685      11.15952519
Li       5.17619161       4.83039780       6.64910133
Li       6.24266913       3.08320033      11.59715420
Li       9.37985213       8.82157216       5.66832607
Li       2.62670800       5.60169667       4.31020582
P        4.58562371       4.29309312       1.37651936
P        9.77833450       1.82974676       0.15059166
N        0.56395726       4.80125220       3.88999783
O        2.83124398       7.21336016       3.25274622
O        5.69380481       3.44877050       0.70732752
O        8.32320940       6.40592090      12.77653708
O        3.25257338       4.55424162       0.43683881
O        9.88156873       2.10915507       1.70999547
O        1.08914823       8.99317357      11.40862271
O        5.24909521       5.65071786       1.79130629
Li       9.23537771       9.70243669       0.39236742
Li       6.23484362       6.13819444       8.96821566
Li       3.59268830       5.53317149      11.90181725
Li       1.05892638       4.01395166      11.62003999
Li       7.54314043       3.03847386       7.75327706
Li       8.69307726       6.50183836       6.59868446
P        4.71199384       0.03156765      11.61322544
P        9.42519966       5.69317299       3.96845362
O        0.87366498       2.23895569      12.10967472
O        0.39448235       3.91128408       9.80592338
O        5.58267355       1.34970536      11.45273406
O        2.73910449      10.64204810       6.13599680
O        3.26595204       0.36691143      11.96328282
O        9.90699781       7.02986411       4.62233108
O        5.63821648       0.61679149       7.85139403
O        5.36814224      10.45774437       0.13106622
Li       9.78158951       2.42000456       3.47664625
Li      10.17062143       6.84851485      10.21003089
Li       2.42216333      10.23530236       0.56411809
Li       4.96924669       2.39563598       6.53998906
Li       9.09185040       1.53767053       6.21670581
Li       9.01369351       4.33264695      10.85389466
P        2.89824272       8.81927689       3.29232424
P        1.63212926       7.67075709      12.24220269
O        7.78048844      10.35723330       8.17576544
O        4.05647009       3.44707142       2.67499830
O        3.96028699       9.07191690       4.50114271
O        4.94776397       1.97018662       4.51771752
O        3.55980266       9.42754615       1.98435631
O        1.21152819       7.84119415       0.87848992
O        9.60544360       0.39802268      12.52850002
O        1.51560202       9.11572581       3.66683653
Li       5.48592915      10.76818659       5.00666881
Li       6.98852902       9.61055874       0.67403574
Li       1.15573280       3.58155713       1.88362826
Li       3.35827040       8.52401093       5.98091997
Li       6.74061259       6.76741414       1.00928744
Li       6.08107149       8.52571087       4.27960873
P        9.93933020       2.61858485       9.02675784
P        6.81726006      10.92924100       7.24839803
O        1.02020942       6.26731252      11.77458347
O        4.90179138      10.14528379      10.36724954
O        9.72609110       2.68437286       7.51537252
O        0.32854866       6.63770919       8.46463950
O        0.20178595       1.08407093       9.30975020
O        7.20395928       0.78645688       6.00697824
O        1.22969544       4.34518768       4.99240512
O        8.54561948       2.54762414       9.98104057
Li       8.77454138       8.55720918       8.13467157
Li       9.15879384       7.32040625       1.18651085
Li       4.04258426       7.15737633       1.31466482
Li       0.65663750       0.22995300       3.32770339
Li       4.75583725       0.05581480       2.60771395
Li       5.59832986       6.21039001       4.02134565
P        7.52984237       3.96842111       4.90635793
P        7.98657143       7.35497796      11.67405339
O        0.16607881       0.15963615       6.26824909
O        8.41634136       9.43101647       4.43176323
O        8.53889037       2.81609119      12.60115297
N        8.10710762       5.44792170       4.87236261
O        8.13283710       6.65610206      10.22180728
O        4.14459273       4.56476010       5.09741172
O        8.62812012       2.89208906       4.82935216
Li       1.55602416      10.16146781       9.93216518
Li       4.68071703       7.89227571      11.12934313
Li       8.55239970       4.23889033       0.81029476
Li       2.60472137       2.21737519       9.43467399
Li       2.60987415       3.14464581       4.95621137
Li       7.70376564       1.05681332      10.89463672
P        4.40878298       4.13952578       9.46095765
P        1.66987458       0.73646117       6.03753882
O        8.38604273       8.90866270      11.71719923
O        7.40917011       7.59798272       7.25758118
O        3.93437105       5.64262484       9.83326349
O        8.94290300       5.60810840       2.40908257
N        6.03805585       3.88674248       9.41562560
O        1.95096644       1.86690769       7.11414500
O        2.58415523       7.98698822       8.75903673
O        3.85381733       4.04582663       7.91480248
Li       1.47810107       6.43447719       1.75006656
Li       5.84962518       1.85038145       9.57951432
Li       2.15044181       5.99649100      10.00056531
Li       6.90540028       2.18316088       2.19810437
Li       1.41914568       7.73413332       5.31576498
Li       3.78904617       6.83973415       8.02576388
P        7.93604654      10.17009647       3.17301900
P        4.77631535       3.47584249       4.11816258
O        1.03632767       8.42853244       6.76941589
O        6.75468778       3.61791580       6.22656781
O        8.59075215       9.31481945       1.92734948
O        3.17396890       7.66904150      12.40558211
N        6.42666991      10.06913110       3.05154670
O        6.39893192       3.99725376       3.92145873
O        6.47263820       7.71756698      11.78347066
O        8.62847305       0.59715757       3.04757978
Li       9.85132929       8.64931433       3.09908263
Li       6.53522622       9.53647121       9.55220002
Li       3.55660758      10.35500322       8.37934979
Li       3.54598322       2.86698773      12.01946263
Li       9.76238652      10.66090620       7.98512740
P        5.94463396       8.09432286       7.16676275
P        1.05459382       8.04652174       8.29533337
O        3.70268950       3.16331549      10.48041155
N        6.31075384       9.49808257       6.42459523
O        5.67050259       8.18132285       8.70364829
O        0.22587861       9.14035867       8.80962570
O        1.52680299       1.40133304       4.59996835
O        4.76337557       7.20031913       6.56569706
124
Lattice="10.1931 0.0 0.0 0.0 10.9684 0.0 0.0 0.0 12.7908" Properties=species:S:1:pos:R:3 material=LiPON model=NEP89 temperature_K=1500 phase="NVT production" source_frame_index=1230 relative_time_ps=123.0 pbc="T T T"
Li       0.12788703       4.86217243       9.93456225
Li       5.57831418       6.36542249       9.19722906
Li       2.79268978       7.34548574       4.91865661
Li       4.21584682       8.18271877      12.14716949
Li       4.75250647       5.78814967       6.02703592
Li       5.79796477       9.27701925       1.33075432
P        6.06073333       4.88336954       1.42615609
P        9.76285472       1.50268376       0.00822916
N        2.60002456       3.29394029       3.43904276
O        2.75217617       8.61494071       2.08391277
O        7.43013649       5.61237056       1.72056978
O        7.87940589       8.13571579      12.40974442
O        6.41850720       3.74732289       0.45848312
O        0.10560336       0.52830375       1.06959673
O        1.08933691       8.23129072      12.23940458
O        5.05545746       5.93006057       0.87855645
Li       2.29104756       9.20376432      12.72834040
Li       0.36421750       6.17649707       1.70897584
Li       4.14057610       6.38750191       2.41933914
Li       3.99164165       0.70242322       8.68613425
Li       7.82318930       3.15976135      12.33676258
Li       2.51161825       9.72688205       6.16502132
P        4.22568141       0.28731371      11.96174186
P        2.10837261       4.96335604       3.84162391
O        9.37137978       0.62816605      11.54043267
O        6.43376987       4.49587397       9.38484864
O        4.01073049       0.12023348      10.30386562
O        0.80805765       1.72295138       7.76812640
O        2.98320427       1.09685722      12.49238971
O        2.66860898       5.11062069       5.23491781
O        3.99351631       0.23772073       6.30783949
O        5.51329878       1.15776359      12.00809243
Li       2.43729548       0.64656677       4.66260603
Li       2.43107326       5.96464804       6.75364427
Li       5.92446502       2.37977188      10.10029047
Li       4.35526626       5.52311962      11.73929739
Li       2.89217919       6.14535413       9.39031695
Li       9.18076699       6.50140202      11.15594746
P        3.64008238       9.39809177       3.11181842
P        1.57919218       6.77895356      11.89712658
O        5.87435561       0.80347126       7.79580019
O        5.71696361       4.13388390       2.87563904
O        2.55019112       9.88940881       4.21274825
O        6.93773152       2.24911118       3.96911466
O        4.34298220       8.04657502       3.60673538
O        1.20922869       5.79097740       0.17521223
O        8.59859578       2.09671578       0.71146864
O        4.55216951      10.46764320       2.64159576
Li       6.25249395       8.50149110       3.89722795
Li      10.02287743      10.23127876      10.66456213
Li       7.74326628       1.33753626       7.82276849
Li       9.82993370       4.73038116       6.67715335
Li       0.09319240       0.62385827       3.01194171
Li       1.87709443       1.19886664       1.47822286
P        8.00087811       3.88469567       9.55616034
P        5.37855937      10.92454959       6.68670138
O        0.95767718       6.31103247      10.44476191
O        3.98872985       9.88001917      12.52431323
O        8.98118020       4.50942852       8.53784809
O        0.58762003       7.52202537       7.91322883
O        8.60469030       4.43868143      10.95574498
O        6.26777531      10.78967283       5.40333507
O        2.63168351       2.00043894       3.54674973
O        7.72279026       2.43841378       9.75457977
Li       8.63280788       9.53378796       8.55680485
Li       7.75771910       7.09681679       0.92065546
Li       6.91257848       8.52427834       7.38220751
Li       8.41728631       6.23899091       4.41209151
Li       0.21419367       8.96806921       0.73312781
Li       0.73951007       4.13608512      12.00438700
P        9.64317343       3.70665291       4.12134061
P        7.60928996       8.23663672      10.82050220
O        0.98207268      10.45624403       6.91911357
O        7.97260902       8.00934841       4.04855602
O        0.57466346       2.62922328      12.57365524
N        0.56855218       4.66216058       3.43916112
O        6.65645816       7.00526748      10.56273757
O        6.10405889       4.42544013       5.36886959
O        9.71812572       2.31604973       3.40466179
Li       0.31999839       7.79737978       9.46783250
Li       2.10851943       1.70621775      11.19800340
Li       3.17112444       5.72454586       0.70855078
Li       5.69469965       0.64089412       4.03401991
Li       8.56854069       9.63319816       5.45641517
Li       5.94628271       2.15136874       0.61384883
P        3.17901512       3.71028011       9.22241222
P        0.48377984       0.23161419       8.15540575
O        8.95527596       8.24619091      10.19058171
O        5.64544279       7.02950274       7.38675203
O        1.59654253       3.61969049       9.89134566
O        2.83403308       5.38538396       2.57849338
N        3.96109351       2.50536062       9.35609617
O        1.24674735      10.53976382       9.44865085
O        0.43547356       8.08879651       5.48477227
O        3.98544324       4.79911360       9.96384321
Li       7.48767387       4.95086778       7.01126651
Li       1.61162031       3.11402787       6.48686017
Li       7.91773296       0.49459779       9.90322994
Li       8.11914377       1.08045377       2.94096084
Li      10.07331672       3.21412757       8.56744350
Li       2.68556101       9.27617728       9.54035690
P        8.74508356       8.77149374       2.80888115
P        6.65589556       3.71213243       4.09511221
O        8.81235565       6.25233681       6.55913244
O        9.83589717       3.39440090       5.59745029
O        9.88326040       8.00246681       2.11353686
O        3.12433800       6.92769191      11.91375202
N        7.64455761       9.25558933       1.87434383
O        8.09915573       4.49695027       3.75214065
O        7.10548704       9.67490143      10.28220557
O        9.48188554      10.01080781       3.36717181
Li       4.20471567       1.56727770       2.71878282
Li       8.44283056      10.73441293       0.55075083
Li       5.08779933       9.54771627       9.94745262
Li       1.07360245       8.37257101       3.48667739
Li       5.33034638       2.59663252       8.01672993
P        4.39903907       7.90997541       7.52640208
P        9.70195523       7.51475204       6.65172509
O        3.08475003       4.09091541       7.65973801
N        4.88872425       9.48254321       7.43492386
O        3.80839542       8.15548037       9.05334523
O        8.55814893       8.54121204       6.99530044
O        9.13983022       0.29957780       8.39654213
O        3.18901032       7.75629645       6.63670679
124
Lattice="10.1931 0.0 0.0 0.0 10.9684 0.0 0.0 0.0 12.7908" Properties=species:S:1:pos:R:3 material=LiPON model=NEP89 temperature_K=1500 phase="NVT production" source_frame_index=1260 relative_time_ps=126.0 pbc="T T T"
Li       2.86231388       7.07236403       8.89582404
Li       4.50767984       4.66690194       5.83803188
Li       5.86916202       8.04964271       1.37036203
Li       4.87026564       7.24187867       9.42736692
Li       5.54646570       8.86971131       4.19030282
Li       6.94113955       2.31796256       1.39046219
P        6.34260968       5.10844095       1.45626605
P        9.83923317       1.57701380       0.12757583
N        1.33523108       4.16707955       2.88635530
O        2.04433931       8.98328261       4.95492228
O        7.47776049       5.50382552       0.49183514
O        6.36757051       7.81093330      12.27983708
O        5.76895778       3.71140328       1.22297077
O        0.65141962       0.57140727       0.94621937
O        2.25199722       7.57770265      10.49026635
O        5.14792107       6.10373035       1.68426914
Li       3.57683416       9.99998704      10.94704970
Li       1.32000602       6.89775497       1.61094108
Li       7.59359599      10.65443309      12.29232688
Li       0.06234685      10.40703936       5.09353990
Li       8.72755696       7.18635824      12.48041160
Li       2.76237868       9.10706974       6.53296458
P        4.80313037       0.97513354       0.04442606
P        1.88928935       3.68615404       4.37128423
O        0.59363241       2.70330834      12.38548760
O        6.10036024       3.75717659      10.37727585
O        3.87049018       2.08438842      12.30283324
O        0.69090277       1.71904021       9.28981906
O        5.16318032       0.74767469       1.61619900
O        2.59027277       2.32623027       4.42899421
O        4.72987707       0.32080602       5.25925800
O        6.11242102       0.96480893      12.22521354
Li       2.39092035       0.47022596       4.24731765
Li       1.83522366       5.31738859       6.56255416
Li       2.17191879       2.36764373      11.16963454
Li       5.20611063       1.60891836      10.30431637
Li       9.70188647       8.20397909       9.38180408
Li      10.15487549       0.98228492       2.68535396
P        2.37965928       8.77586673       3.43225716
P        1.77552262       7.35558113      11.85010623
O        5.26341829      10.28456059       7.63285496
O        6.90898409       5.08303489       3.08958064
O        1.06705378       8.32034249       2.63041243
O        6.96377495       2.12588076       3.42753233
O        2.78932956      10.11357092       2.89062653
O        1.61511695       8.76011973      12.60698291
O        9.27395133       0.53335717      11.88960248
O        3.52736993       7.90460508       3.12891751
Li       9.06584088       6.38779685       4.14171166
Li       9.43837450       1.87729274      10.71670671
Li      10.17542172       5.24418526       9.77184746
Li       7.67551842       8.96543075       5.18830384
Li       3.76350670       7.16633032       1.33769293
Li       6.21906922       3.49386913       7.21857625
P        7.39287408       3.44690029       9.47766592
P        5.75472818      10.48081323       6.16515959
O        0.45697738       6.50136591      11.95182981
O        4.10402258      10.58489952      12.68394167
O        7.19922316       4.60572510       8.39775540
O        9.56897626       6.37216115       7.87892078
O        8.76118769       3.63029790      10.40694131
O        7.20403413      10.89821022       6.07237442
O        0.93496876       5.07278391       2.24397853
O        7.54435743       2.14622611       8.75345298
Li       0.68063377       4.37891124      12.21717860
Li       6.15164410       3.13212150      12.15221451
Li       8.43642676      10.95810101       9.95786472
Li       8.08495705       4.88178962       6.37429905
Li       3.86648362       4.24603677       1.08650628
Li       2.43598739       0.27090462       0.67181664
P        9.90490530       2.95734228       5.37654880
P        6.44581832       8.19352357      10.82691565
O        1.67244742       0.25200233       7.26692861
O        6.31732837       9.67594887       2.59433490
O        8.74068695       2.14853898       0.98481168
N        0.85904740       3.87288954       5.63036161
O        5.24374676       8.92069887      10.07349885
O        6.59457389       3.58604935       5.40428857
O       10.16249619       1.36362592       4.93981861
Li       7.21232588       5.65331056      10.97002001
Li       4.10477588       5.97858735      11.59296718
Li       9.94558043       9.80912397      12.25550451
Li       5.86669481       5.44836332       9.04523098
Li       9.08928646       3.61510246       2.52518028
Li       5.08372520       1.94149364       4.30102777
P        3.44811881       4.00920740       8.99998851
P        1.21126442       0.32968301       8.86980870
O        6.72825385       6.92845780       9.94650064
O        6.53101004       6.93168290       7.33418409
O        1.96901425       4.09362957       8.97839419
O        2.62268510       5.03252610       4.66814607
N        3.65272429       2.63114859       9.84972321
O        2.27578232       0.12550845       9.89277783
O        9.55209985       8.67698767       6.51936028
O        4.00228676       5.27646247       9.57852339
Li       3.91271833       5.85095988       3.01048992
Li       7.72270259       8.79603786       7.99638749
Li       3.80788881       1.18410361       6.83954190
Li       0.11355487       9.88063919       1.61591661
Li      10.15560097      10.92656646       7.09343638
Li       2.11269290       7.12963374       5.11889758
P        7.97994048       9.21126152       2.50044713
P        7.12211921       3.57886709       3.97444015
O        1.37323290       7.98961113       7.97245872
O        9.09332646       2.91204473       6.63523285
O        8.24750594       9.30912968       1.01549718
O        2.84632893       6.54955313      12.75394672
N        8.94855545      10.36603151       3.23180479
O        8.78544813       3.74980373       4.37933866
O        7.68806049       9.18930319      10.65552365
O        8.32665359       7.87261892       3.08006204
Li       4.40455556      10.27805681       2.32364798
Li       7.27730477       0.32257315       2.84102277
Li       3.65069873       9.94518593       8.64760361
Li       8.14299850       1.38801642       5.22040796
Li       0.22171722       3.13376948       8.25093649
P        5.40558282       7.45322363       6.38841479
P        0.22756821       7.35754648       7.04066240
O        4.24001941       3.78764338       7.66417217
N        5.87052261       8.91580102       5.79393543
O        3.98854310       7.66042694       6.98858152
O        0.41852840       6.63751901       5.73399347
O        0.07754063      10.17578363       8.91915521
O        5.29584551       6.49419043       5.19492616
124
Lattice="10.1931 0.0 0.0 0.0 10.9684 0.0 0.0 0.0 12.7908" Properties=species:S:1:pos:R:3 material=LiPON model=NEP89 temperature_K=1500 phase="NVT production" source_frame_index=1290 relative_time_ps=129.0 pbc="T T T"
Li       7.83752126       8.66501053       8.35619368
Li       3.27958879       0.61631389       5.74193719
Li       6.21278962       5.40977924      11.42386897
Li       6.20927434       0.17880650      10.09219560
Li       0.34337256       3.56490345       8.34095358
Li       6.35017269       2.05740028      11.72737286
P        6.23365830       5.26121482       1.91833589
P        9.65365659       1.09903785       0.08256483
N        0.97190273       4.51735836       2.62852990
O        3.51881939       7.83927679       3.14151224
O        7.30875260       6.26912262       1.55364133
O        6.64273923       7.18602590      11.12560096
O        5.26471270       4.82946472       0.81614430
O        9.92641835       0.09970304      11.73538599
O        1.07794693       7.09989146      11.06257226
O        5.29199185       5.73931332       3.05081188
Li       3.27274023       1.93236769      10.62891631
Li       5.68637475      10.69124780       2.66753939
Li       3.08461020       6.72691322      10.99030702
Li       7.50977586       7.29529967       0.19057472
Li       7.22834172      10.09488724       0.32784913
Li       2.23397153       8.03066846       6.94696622
P        4.29936063       0.86326365      12.39013001
P        2.27190309       3.55764938       3.52384035
O        0.21358534       1.01472855       1.49324152
O        7.33660856       3.60217493      11.13092243
O        3.44516897       2.04367111      12.71460691
O        0.10508321      10.79531275       9.04898548
O        5.34923409       0.45257716       0.72283973
O        3.25292582       2.56043294       2.89248650
O        5.34372062       0.12758265       6.20806062
O        5.02511639       1.33210005      11.03957289
Li       0.26440007       9.07506201       4.72015346
Li       5.26591510       4.75046956       4.76695390
Li       2.24646398       5.93973909       7.02011743
Li       7.88802713       0.18260387       4.51559306
Li       0.40478918       8.81942713       9.82922227
Li       6.83169044       1.33512913       1.89558136
P        3.10468913       9.27562047       3.75416110
P        1.20173604       7.22091298      12.67975472
O        5.08106780      10.56982253       8.70373807
O        7.09647131       3.94706501       2.55419394
O        4.32975227      10.12508095       3.93628156
O        6.46461941       1.39944238       3.76698279
O        2.21626740       9.96514585       2.70120664
O        0.92729862       8.63465294       0.59395061
O        9.79505197       2.43842964      12.18620489
O        2.71488975       8.67345070       5.19102989
Li       9.20477004       6.85117202       1.99185879
Li       0.60767836       6.03046839       9.75309027
Li       3.66909549       0.96314074       7.88252895
Li       3.75597221       6.65986825       4.60475698
Li       4.44333183       1.51440816       2.94544490
Li       9.60751885      10.88707167       7.15265812
P        8.06648333       3.39207009       9.83711266
P        5.96726589      10.57568877       7.44900524
O       10.15482499       6.31101702       0.42700886
O        3.41711808      10.55049816      11.99175960
O        7.19210375       3.86749544       8.77691634
O       10.13636277       6.87630992       8.08479875
O        9.52836936       3.79029773       9.93412482
O        7.37450834      10.75603115       7.79637171
O       10.06077840       5.17957756       2.79015568
O        7.89360251       1.85319624       9.74367835
Li       8.75108172       4.27819053      12.37325529
Li       5.80989760       6.76503484       9.55974955
Li       7.64729316       7.94670970       5.24654904
Li       7.04605550       4.96379473       7.29145801
Li       0.93046705      10.12358136      12.28431120
Li       2.17357859       1.61937507       1.42842872
P        0.03234174       2.21650542       5.34776183
P        5.54802753       8.32935201      11.31081414
O        2.03295679      10.94401444       7.34665172
O        8.12106861       9.05627803       1.41158542
O        8.14169640       0.76311483       0.36632441
N        1.18439571       2.83633536       4.36572297
O        5.21591621       8.37448676       0.05766021
O        6.50992922       3.57472130       5.16015833
O       10.01268771       0.67174181       5.42914536
Li       9.35305307       5.42825939       4.63812396
Li       1.61165435       6.44679073       2.32998157
Li       2.07665008       3.10056772       6.58402755
Li       5.52617293       2.95036187       9.47263371
Li       0.66291670       0.35178901       3.53806332
Li       3.97295484       3.58521934       1.53309064
P        3.11069002       4.04657108       9.12570437
P        1.66452839      10.46414646       8.62775202
O        4.28874174       8.45088323      10.37301690
O        6.51065943       6.63615374       7.69920534
O        2.05876530       3.31540999      10.17698098
O        2.74444967       4.54971025       4.50611299
N        3.78634867       2.70666416       8.59612291
O        2.51847957       0.19713462       9.64412863
O        0.90132607       6.69940109       5.74739963
O        4.24176175       4.80198142       9.82944622
Li       5.81622853       8.21416998       3.28073845
Li       8.69624976       0.38667583       9.90752526
Li       3.90738857      10.13656722      10.12204047
Li       3.10375157       9.09428622       0.86509081
Li       4.70292320       9.31899609       5.40662292
Li       0.41391614       9.64148679       2.22379048
P        8.29040959       9.24243554       2.97208194
P        7.09104157       2.81129650       3.98780801
O        8.70970758       5.91105826       6.00597718
O        0.07111415       3.24142907       6.34041866
O        9.29735515      10.37892860       3.41404866
O        2.51508433       6.56873769       0.19900621
N        6.88893799       9.41987330       3.47648039
O        8.85803367       2.47494938       4.11585130
O        6.41867497       9.64094218      11.34527110
O        9.01980335       7.90091616       3.62641094
Li       4.00208473       8.56795715       8.61995834
Li       9.29435335       3.31975230       2.09408591
Li       4.12078820       6.94025792       1.16090389
Li       6.34932044       1.97411923       6.09981727
Li       0.39145360       1.46405662      10.06701572
P        5.53699896       7.45819354       6.91361220
P        9.78700396       6.97540735       6.50051877
O        2.46454638       4.48714838       7.83552648
N        5.81113690       8.94682341       7.00055555
O        4.16465142       6.98511027       7.39591005
O        9.44048293       8.46221471       6.43996326
O        2.17161096       8.92266615       8.78063264
O        5.64361908       7.04984297       5.44346736
124
Lattice="10.1931 0.0 0.0 0.0 10.9684 0.0 0.0 0.0 12.7908" Properties=species:S:1:pos:R:3 material=LiPON model=NEP89 temperature_K=1500 phase="NVT production" source_frame_index=1320 relative_time_ps=132.0 pbc="T T T"
Li       7.96529788       6.83627052       4.30310817
Li       2.84140988      10.52143361       5.59244872
Li       6.67253365      10.47462238      12.12153654
Li       0.17267453       2.23703366      10.24222265
Li       7.46157141       5.33118814       6.85776311
Li       8.12081673       1.54844979       2.46631019
P        6.88101859       5.01702160       1.89823101
P        9.30348549       0.74266641      12.61650198
N        2.84049253       3.31162290       3.02809934
O        2.10426306       8.08808266       1.85948298
O        8.27948156       5.61686698       1.62340430
O        6.97934567       6.59146059      11.47827468
O        6.32651511       4.39081695       0.61511687
O        0.24497097       1.74381832      11.81893502
O        1.97615891       7.76921220      11.49380438
O        5.95538892       5.88609456       2.68925024
Li       7.86374313       1.67872942       6.77588561
Li       8.36799081       9.92077088       1.54310418
Li       2.99658643       1.97434599       8.66255852
Li       7.75507018       5.03137307      12.02716167
Li       4.04535409       9.49282420      10.10143395
Li       4.70044870       1.56296593       5.96112252
P        4.64688845       0.51620221       0.16416958
P        2.71215926       2.61463850       4.50478166
O        0.01011067       0.08242803       0.93629404
O        8.70727758       4.40179622      10.50490175
O        4.79903770       2.10560880       0.60751153
O        0.65162799       0.83288485       8.96035584
O        5.52852096      10.45951182       0.90256720
O        3.63025807       1.33453957       4.34304120
O        6.46790955      10.91127161       6.80109696
O        5.24451073       0.61303552      11.47842440
Li       9.71980133       8.85094459       7.74585015
Li       3.29731448       8.55293198       0.24326509
Li       0.45921255      10.07797071      10.52065852
Li       0.94926349       5.46728809       4.72015149
Li       5.47041500       5.37552818       9.74675375
Li       6.63865136       2.54489109       0.18389739
P        2.86742136       8.50525978       3.05830533
P        0.58383532       7.07806053      11.99443296
O        5.94283860      10.66219996       8.95282606
O        7.29751327       3.85022123       2.81260153
O        4.28183435       9.07443943       2.63023448
O        6.56684253       2.57868522       4.98317393
O        2.00550980       9.40145212       4.19874080
O        9.66201575       7.53113858      10.87685236
O        8.11481805       1.59970162       0.43661071
O        3.25877864       7.25691201       3.89475922
Li       0.26346491       5.08525888       1.61243599
Li       3.82043229       5.82189448       5.32007821
Li       8.59163198       0.25463089       9.50990016
Li       4.06695961       5.62809772       2.31629447
Li       4.77450606       1.28868333       2.48230894
Li       9.86508401      10.83682305       6.63964556
P        7.58507604       3.65810220       9.79039874
P        6.88166458      10.05819585       8.00308612
O        0.70063239       5.71353739      12.52373550
O        3.08209452       0.67144418       0.32034196
O        7.12807746       4.85840477       8.82134445
O        1.40600750       7.37765555       6.36067178
O        8.31141525       2.55326975       9.12337187
O        8.37108615      10.03237366       8.08016800
O        2.66116458       4.23428461       2.12649877
O        6.55763821       3.25452362      10.95775906
Li       8.37259637       7.35968751       9.12485564
Li       4.65977182       3.22297319      11.80816327
Li       8.10789264       0.62141895       4.71483967
Li       4.93382335       7.99832557       4.48584471
Li       8.30276267       7.44839326       1.20202032
Li       5.94686863       9.75520195       5.33325425
P        9.92733835       2.40547279       4.62274105
P        6.19916916       7.89947769      11.82537612
O        2.98365319       0.30821798       9.34819433
O        8.60936188       9.77560371       5.25327377
O        8.85598591      10.49976837      11.75220748
N        1.24670067       2.46961712       4.98192256
O        7.04165440       8.67202965       0.15958924
O        6.70342114       5.17258559       4.92771198
O       10.09183185       1.65733621       3.33664510
Li       5.58226712       8.23000816       1.32740263
Li       2.84050907       6.95537219      10.22474669
Li      10.10973170       4.13186738       8.52075220
Li       1.33371998       3.70031474       6.66693586
Li       0.42164717       8.35137062       4.80662351
Li       0.19891020       3.87550007      11.73098956
P        2.87671488       4.26377163       9.98903150
P        1.75407590       0.04290051       8.33871432
O        4.83122708       7.41217931      12.55601374
O        5.45102018       6.87221337       6.90117248
O        3.53205295       2.79369777      10.32227220
O        3.16703570       3.62866248       5.50138311
N        3.37229452       4.59753514       8.51360983
O        1.54545875       9.58776763       8.34659969
O        9.76395678       6.71089122       8.22783277
O        3.40172119       5.40291756      11.01991415
Li       2.68620335       7.96413209       7.52623371
Li       8.49057991       8.43317314      11.98716974
Li       5.04185053       4.69378610       7.44384332
Li       0.41989775       8.34106470       1.99926164
Li       0.95691897       0.15783975       3.74045647
Li       1.46334150      10.04345971       0.97494930
P        8.00253867       9.34520076       3.81090629
P        7.28655513       3.81590718       4.51632783
O        9.34412009       7.04704679       5.51737634
O        9.17006573       1.65051496       5.69187955
O        8.91006879       8.59966978       2.69289115
O        9.93526231       7.68978527       0.34930297
N        6.89673806       8.16369675       4.17793229
O        8.86769782       3.73130464       4.66609280
O        5.82772285       8.89369567      10.78308262
O        7.54027666      10.69233797       3.25848785
Li       4.90970738       5.56268588      12.51957571
Li       1.55682244       1.51400607       0.24597074
Li       0.18567517       6.51006235       9.77335758
Li       2.83358322       1.27385293      11.37829790
Li       5.07316150       1.83716245       9.96078717
P        4.98906343       8.30735427       7.67306110
P        0.03539355       6.59795368       6.63179404
O        1.47527762       4.06112882      10.17661092
N        6.51184059       8.58634346       8.00213669
O        4.36572836       7.68141145       8.90888693
O        0.30721608       5.08002597       6.49770351
O        2.17822444       0.49945076       6.95848192
O        4.15122865       9.25615070       6.97286600
124
Lattice="10.1931 0.0 0.0 0.0 10.9684 0.0 0.0 0.0 12.7908" Properties=species:S:1:pos:R:3 material=LiPON model=NEP89 temperature_K=1500 phase="NVT production" source_frame_index=1350 relative_time_ps=135.0 pbc="T T T"
Li       5.38267185       2.47236352       7.37641969
Li       3.94149223       1.44646142       9.41293781
Li       4.57098453       4.95536938       7.47780542
Li       2.02789533      10.96170120       7.46409023
Li       7.29525096       5.17021997       7.46918778
Li       7.16820242       0.80184496       6.34026736
P        7.01786185       5.27918333       2.50199171
P        9.64379907       1.11655378      12.38044072
N        2.22749870       4.40007157       3.93563007
O        3.34175230       8.32342434       2.04796779
O        7.81108638       4.88817093       1.21832764
O        5.88421365       7.18239936      11.35212259
O        5.72679877       5.70130655       1.94148742
O        8.38156564       1.09384648      11.31041533
O        0.94741042       4.63158245      12.57413053
O        7.86328720       6.40566765       3.16610102
Li       8.60413276       7.26626248       7.57102984
Li       8.65834354       1.67364999       9.33900422
Li       4.44816149       9.97842500      10.72506625
Li       6.76466466       5.43121993      12.32849256
Li       3.62719270       4.81546644       0.59843772
Li       5.87745270       1.43892683       3.06911961
P        4.40296095       1.62435180       0.03891723
P        1.09129126       3.10152993       4.13958306
O        0.12905603      10.71849000      12.63189674
O        9.06200603       3.69191421       9.66715703
O        3.36779573       0.71982836       0.60917910
O        1.94139218      10.71154469       9.61704175
O        5.79311689       1.71817245       0.73003578
O        0.23126193       3.12869309       2.92828359
O        5.06611513      10.73394326       9.12036462
O        3.93522335       3.04023366      12.44058944
Li       6.73560973       8.89296994       5.10287374
Li       8.77290679       9.65664203       0.64743192
Li       0.97698137       2.21895399       9.82509247
Li       8.85753756       6.55278786       1.00207251
Li       6.43529284       7.19227438       9.48110945
Li       7.44161473       2.91509798       0.21095429
P        4.02634259       9.15546341       3.31652577
P        1.50324282       6.05378834      12.36213169
O        7.33498340      10.55005379       7.91262153
O        6.82391140       4.00215210       3.46429404
O        4.40354641      10.59221474       2.83386404
O        5.44641190       2.21654356       4.74575297
O        2.81423010       9.17762562       4.51373559
O        3.09131340       6.15501217      12.33217400
O        0.54556338       1.87267336      11.59219025
O        5.53277214       8.52584279       3.71783363
Li       0.10283981       4.02984684      10.87237324
Li       9.76845668       3.72510893       0.73689095
Li       9.62005111       6.86912029      10.22707999
Li       2.02124462       0.43027065      11.75754704
Li       4.35664649       7.33959541       0.93743420
Li       1.17501116       4.91130001       2.16918264
P        7.60220209       4.32568056       9.82213266
P        5.82891279      10.25981997       7.87347978
O        0.91384829       6.16674437      10.97203667
O        4.52847596       0.92898158      11.35197711
O        8.06507657       5.74718977       9.73989168
O        0.68785633       7.33362485       5.07855109
O        6.75923627       3.84023261       8.66505656
O        5.61954617       0.18179476       6.66457354
O        3.18773338       4.81127451       3.12627902
O        7.11619891       3.87763129      11.12144045
Li       3.68693959       6.97950797      10.84588501
Li       1.61725424       3.10463356      12.63649475
Li       8.54977203       9.86070082       6.65751293
Li       5.78387537       6.30672580       4.63080309
Li       0.22442458       8.66049856      12.14485470
Li       6.43053532       8.28308900       2.15484526
P        9.12142506       3.09488399       6.28875333
P        6.52738977       8.43350406      11.89092037
O        2.76299883       9.16339790      11.14945313
O        7.55503778       9.51447625       2.78127681
O        9.03873415       1.87492130       0.84253616
N        0.10792445       3.20456507       5.24814695
O        5.67870848       9.11151790       0.22788747
O        5.61930711       4.48962326       5.56766847
O        9.25390453       2.15177699       7.37358212
Li       6.30449582      10.41348065       1.41592810
Li       4.11758973       3.29485853       4.04080745
Li       8.23543437      10.62680281      10.45807312
Li       2.04111595       5.14699890       5.96360820
Li       8.72188981       6.64863453       4.58971689
Li       5.09967670       4.52733222      10.17908292
P        2.52102339       3.45464325       8.17955357
P        1.75077080       9.11888568      10.04411914
O        6.70496200       9.66441615      10.86618355
O        6.35119167       6.44641013       6.78968908
O        2.35679335       5.03758507       7.89545974
O        2.28643250       2.02517082       4.06239155
N        1.91525666       2.08741839       7.61369089
O        0.23702753       8.88520303      10.37480618
O        0.68422682       9.20330398       6.87741038
O        2.32067874       3.55787471       9.76770000
Li       2.58805849       6.96441990       4.42929098
Li       1.27245651       8.38116345       1.49418761
Li       1.95522027       6.73517091       8.42256365
Li       0.90895454      10.32652086       4.87157908
Li       4.07256808       0.60085949       4.54549966
Li       3.80344733       9.39507517       0.34312443
P        8.55782425      10.40907571       3.46318204
P        6.48489015       3.40566231       4.91477462
O        8.90507669       8.25674055       6.10936186
O        8.87842446       4.47296123       6.48624936
O       10.08372353      10.66027331       3.17223208
O        0.71143587       7.13719296       0.45056897
N        7.58905566       0.47105983       2.92787583
O        7.68175914       2.76590412       5.43255013
O        7.77881416       8.00470859      12.53977665
O        8.34296178      10.62091103       5.03312836
Li       8.92665205       1.73973786       2.66694007
Li       1.80604111       0.97749811       2.45706160
Li      10.03836369       5.05787397       8.61375004
Li       6.50222485       0.63108619      11.08829050
Li       3.59115956       8.93980704       6.61621344
P        5.16606380       7.29321756       7.28166965
P        0.13499807       7.86297162       6.41339233
O        3.98912099       3.15859940       8.00559239
N        5.60551343       8.67870496       7.75903634
O        4.74450467       6.52808807       8.65568022
O        0.09897328       6.68088715       7.55634441
O        2.35157929       8.21394065       8.88574836
O        4.10288242       7.12507384       6.15699064
124
Lattice="10.1931 0.0 0.0 0.0 10.9684 0.0 0.0 0.0 12.7908" Properties=species:S:1:pos:R:3 material=LiPON model=NEP89 temperature_K=1500 phase="NVT production" source_frame_index=1380 relative_time_ps=138.0 pbc="T T T"
Li       4.80243096       9.87781290       1.31934675
Li       6.13258461       4.46266900      10.27419799
Li       8.17197953       5.78362423       6.95405874
Li       4.03135383      10.69459910      11.67468442
Li       5.86574017       7.28252993       5.24735755
Li       5.95933028       8.91582754       3.54689083
P        6.89067738       5.44257269       3.33205366
P        0.41309767       1.16971726      12.05363173
N        1.85345146       4.32099985       3.26761191
O        3.26255565      10.75381547       4.92091076
O        5.53391043       4.85266088       3.57312567
O        6.59344357       7.16945570      12.08264136
O        7.02547143       6.98910875       3.61523570
O        0.75401173       2.63382227      12.65618981
O        1.28141568       7.88322191       0.81539639
O        7.42781738       5.28274553       1.93302197
Li       0.35962944       4.10344209      11.42086071
Li       9.53945772       1.10434225       9.27467326
Li       9.96612844       9.95486217       1.03518592
Li       0.23370343       6.66263995       9.45240362
Li       4.44608033       4.79275909       2.13548227
Li       7.18938636       0.75220267       5.74355537
P        5.05296852       2.64333362       0.08437267
P        1.99375601       2.92991899       4.30117268
O        1.20538360       0.04122717       0.04672484
O        8.22201407       5.79768926       9.14723113
O        3.61277712       3.18152397       0.12976029
O        2.35348446       9.43095393      10.42296430
O        5.81668582       2.69937456       1.34268846
O        1.49231987       2.00646295       3.11222954
O        6.20243768      10.64527604       9.54249103
O        5.90997869       3.44642298      11.82391968
Li       8.02523967       8.82529510       4.64297820
Li       2.29524223       0.78203639       1.44269520
Li       8.47875638       8.62579464       8.95418616
Li       7.89166549       2.97826839       2.01665770
Li       2.36786206       6.08436855      10.49057989
Li       5.25290652      10.06826146       5.03559887
P        3.20774315       9.91159062       3.64236289
P        0.37623571       6.89557322      12.68685939
O        7.87505381      10.94297706       7.67818611
O        7.92189847       4.71247508       4.34550547
O        1.88843350       9.26661382       3.33799010
O        6.49761490       2.11249616       4.59152006
O        3.53929653      10.67440069       2.29620185
O        0.15603803       7.43897685      11.34357662
O        9.20739192       0.62582473      12.11551808
O        4.33591975       8.77438334       3.91312525
Li       8.24779200       2.16507044      11.74254347
Li       2.60886042       2.69654420      11.56134769
Li       2.58597358       7.40534088       7.23080836
Li       0.90222659      10.29454673       4.70265211
Li       1.11858837       9.18885984      12.08930494
Li       9.62602773       4.55534681       4.67756667
P        8.73260552       4.48707682       9.77767337
P        6.38987068      10.66310134       8.05156549
O        1.00865045       5.48438908      12.50951765
O        5.05997590       1.15908693      12.50147216
O        7.90841141       3.17608758       9.34574040
O        9.50880782       8.41080048       5.76088436
O       10.18079254       4.42806910       9.23587561
O        5.84220562       1.14043056       7.51718151
O        2.39022178       5.26080652       2.49237304
O        8.62638126       4.16540562      11.32577584
Li       4.02811268       8.67451797      10.17319963
Li       3.28512516       5.12007936      12.25733322
Li       7.10674442       6.64824731      10.38447222
Li       2.88525366       7.52772789       4.74055016
Li       1.22047773       2.79266209       9.48734697
Li       7.80326174       5.45390051      12.46855540
P       10.19071873       2.06503665       6.06526452
P        5.00406730       7.33793080      12.36468753
O       10.12321516       9.13309342       9.30841772
O        9.40422386      10.17327059       2.47126934
O        0.97783043       1.34952583      10.55148601
N        0.77848822       3.22773376       5.26393428
O        4.92310065       6.77864380       1.02143836
O        6.57758255       3.81876442       6.29613789
O        0.21932708       0.66499544       5.29093265
Li       5.21924550       1.04514845       2.43608763
Li       2.78606956       8.13525863       1.74854521
Li       4.35696294       6.04084075       9.24557565
Li       1.91116781       1.19645131       8.12856094
Li       9.63924492       5.88183698       2.22425324
Li       8.07506918       2.40597503       7.64763079
P        3.18276759       4.06301271       8.94490005
P        1.59432259       9.05450687       9.21884613
O        3.97956102       6.54990185      11.49693458
O        7.01533733       7.35749964       7.21779880
O        2.70719392       5.04705231       7.81462884
O        3.45703564       2.64238332       4.94057105
N        2.88512699       2.58673783       8.66570766
O        1.85313238       9.70404037       7.89146913
O        9.80574323       6.10036375       6.57293983
O        2.67963355       4.44906987      10.49534728
Li       5.09401312       2.61414595       3.92622407
Li       0.07550755       1.24196812       3.21779860
Li       0.92522941       4.60953741       7.23533615
Li       4.67781498       1.49341621       6.18394207
Li       9.72178997       9.87029735       6.78156324
Li       6.30917811       1.59656850       9.55019846
P        8.02138811      10.78955658       2.68429562
P        7.25290170       3.20251582       5.16455637
O       10.07046704       6.67047235       4.06850108
O        0.16702332       1.83639873       7.51644279
O        7.89963587       1.44228986       2.49969825
O        9.24231041       6.72977394       0.82783994
N        6.76780065      10.33564267       1.67353874
O        8.68449069       2.47518596       5.56487511
O        4.60139650       8.98311349      12.13874724
O        7.06079693      10.35122001       4.04325901
Li       1.95902522       3.73230224       0.72925708
Li       7.85309054       7.90828664       0.32866768
Li       4.74530061       4.19999853       5.45682278
Li       6.36981108      10.77259374      11.55331979
Li       0.24194529       8.33885574       3.15940645
P        5.53102739       7.98548402       7.45824734
P        0.03612941       7.10915841       5.52771479
O        4.67604711       4.06075003       9.17017831
N        5.84550935       9.46253485       7.17485898
O        4.87137768       7.81482018       8.89180112
O        1.50997242       7.53718964       5.99335647
O        2.09193580       7.44674536       9.06089839
O        4.57348276       7.51375837       6.38204193
124
Lattice="10.1931 0.0 0.0 0.0 10.9684 0.0 0.0 0.0 12.7908" Properties=species:S:1:pos:R:3 material=LiPON model=NEP89 temperature_K=1500 phase="NVT production" source_frame_index=1410 relative_time_ps=141.0 pbc="T T T"
Li       8.89231777       4.15794075       0.04264296
Li       3.48747756       9.62293668      10.79916055
Li       1.33574090       3.85373500      10.16767958
Li       3.04709483       1.24673581       1.63380275
Li       3.50453805       7.11564574       1.84948395
Li       7.51506789       7.63152562       4.69017483
P        6.33455103       4.76257634       2.70806727
P        0.28308749       1.77000894      12.33559938
N        1.22241594       3.68672744       3.86858046
O        2.03821852       9.91502145       3.71174097
O        6.46061279       6.25292253       2.45041593
O        6.39255009       8.35728399      12.24062634
O        6.92310484       3.89043920       1.60027556
O        0.13247571       2.62873838       0.80705654
O        1.04422394       7.04852929      12.06957687
O        4.82132119       4.42759911       2.89079420
Li       0.46391134       6.62642227      10.42006999
Li       9.92857511       9.89623623       4.84488481
Li       5.30288840       2.31574859       9.55072818
Li       6.45033766       8.32230961      10.18123487
Li       5.56692615       7.89581091       1.81412391
Li       4.01175374       5.25001194       1.30862288
P        4.68512351       1.97676910      12.75241973
P        1.69977992       2.17606348       4.64105405
O        0.28110560       0.25001064      12.59525715
O        6.99178389       5.51675243       9.46769484
O        3.88699472       2.68735263       1.07380545
O        2.15856152       0.20849735       8.97054082
O        3.79732708       0.81603165      12.24221603
O        1.86138434       1.46954391       3.22079656
O        7.82688150      10.44119699       9.52169594
O        5.89488952       1.07405353       0.35481670
Li       4.50412030       0.43129930       5.63114657
Li       2.32559643       9.61035055       0.50206696
Li       8.77284104       8.83981383       8.66470486
Li       1.18471455       4.10367535       1.52763430
Li       9.78154254       4.38765607       7.94042311
Li       2.60153220       9.13466745       6.05089781
P        3.49123482       9.82554056       3.30455421
P        1.04658094       6.21984960       0.55485175
O        6.57097837       1.46445315       8.46200361
O        7.23925282       4.39379975       3.94963291
O        3.24389740      10.43327884       1.83582294
O        6.17190247       2.07301251       5.01498475
O        4.33321960       0.06909547       3.87303610
O        2.43671135       5.10173524       0.45514567
O        9.14853006       2.24993030      11.60565139
O        4.19234599       8.47800797       3.07049455
Li       6.67085291      10.18915447      12.02681099
Li       2.73717156       3.62173319      11.86437413
Li       5.05883510       7.56487096       4.45634914
Li       2.21442003       6.66081828       7.22102863
Li       3.36390179       3.26506726       2.95690510
Li       1.36170010       4.93497297       5.87485550
P        8.30795546       5.87827208      10.27516395
P        6.52730172      10.88930188       8.96184035
O        1.27806859       7.37359547       1.75525495
O        5.27538896       3.01341977      11.66171308
O        9.55661553       5.06939414       9.72671708
O        0.52189596       6.00776648       6.84975592
O        8.68488088       7.38105825      10.22430388
O        5.41891422      10.56928087       9.97488093
O        1.34972407       4.85923251       3.74453166
O        8.06415016       5.49173919      11.78537288
Li       4.04573101       8.30461053       8.74691597
Li       5.11370484       6.02797704       9.29853203
Li       7.87896586       6.80090335       0.00735018
Li       4.74317532       4.03520080       4.65562962
Li       8.14030582       1.87018847      10.18453701
Li       5.88909120       4.66872016      12.37705547
P        9.26627061       1.59151891       6.34174898
P        4.99064047       7.76789984      12.20829240
O        0.09263759       9.91345523       9.68311840
O        6.93083517       9.64934278       1.70731271
O        1.39925802       2.28002851      11.33124482
N        0.65129626       1.63865230       5.88509185
O        4.67586511       7.69497522      10.61287048
O        6.14634752       4.31242578       5.98360004
O        8.70881795       0.15749259       6.29505636
Li       9.67898035       0.38395367       8.81642213
Li       2.04369204       0.83220140      10.56685630
Li       3.09106037       6.33981172      11.17614914
Li       3.62993368       0.29428219       7.81997507
Li       9.35382079       3.22723431       3.18631611
Li       1.78287134       2.07098551       8.00676032
P        3.22142295       4.38154152       8.39863521
P        1.48209427       9.75049793       8.82229001
O        3.90760908       8.53936360       0.17753149
O        6.37620927       8.33264069       5.81425330
O        4.07569211       5.54673501       7.68807792
O        3.06103564       2.04862387       5.35917123
N        3.97626791       2.88006109       8.33198441
O        1.22727971       9.66871381       7.27111547
O        8.91411862       6.43544135       4.73912481
O        1.96305798       4.01120468       7.73363739
Li       6.81100906       2.37390901       2.17525347
Li       0.97617808       8.17115330       3.49965515
Li       5.21113999       2.85115877       6.89382634
Li       7.55793865       1.46870289       0.24540959
Li       6.22790719      10.93459436       3.80234916
Li       7.11889840       3.61906337       7.54072057
P        8.37690709      10.17234442       1.88057411
P        7.04115015       3.26397834       5.13087607
O        8.74858472       7.45979787       7.27688420
O        9.76233605       1.98015368       7.80688530
O        9.41979450       9.30096941       2.72654987
O        9.98091141       5.37172052       1.06211433
N        8.45228033       9.83079102       0.38062912
O        8.48211021       2.82862978       5.41263636
O        5.10237967       6.39163288       0.30270565
O        8.44119329       0.74502649       2.06927741
Li       0.31051301       0.63903454       2.02446946
Li       4.78182315      10.40928018       0.80154847
Li       6.41001028       6.20247610       6.80734141
Li       9.41499419       9.22707427      11.10358227
Li       9.37464251       6.74038928       2.56645008
P        5.64706674       8.86857178       6.99220841
P        9.73152131       7.05173148       6.07998574
O        2.89366081       4.78322059       9.93909986
N        6.34342324      10.16445855       7.62094416
O        5.80745798       7.86712641       8.28211513
O        0.48913423       8.24573427       5.37032540
O        2.44310135       8.66538107       9.36144838
O        4.30055175       9.25261296       6.90648436
124
Lattice="10.1931 0.0 0.0 0.0 10.9684 0.0 0.0 0.0 12.7908" Properties=species:S:1:pos:R:3 material=LiPON model=NEP89 temperature_K=1500 phase="NVT production" source_frame_index=1440 relative_time_ps=144.0 pbc="T T T"
Li       7.39224827       2.72164180       9.88180102
Li       5.94255261       9.66630132       9.49248507
Li       1.80129833       1.82825073      11.47198053
Li       5.61283586       9.32744995       0.54718459
Li       5.01405474      10.67807775       3.75113571
Li      10.12820991       3.07364776       9.73993537
P        6.42860317       4.27129708       2.95775018
P        9.27241587       0.92957665      12.42891638
N        3.24560166       1.85744858       3.33465840
O        1.76977270       9.05411320       1.47321023
O        7.48020533       4.09778139       1.93594677
O        5.34928632       6.42921944      11.60915332
O        6.12292516       2.99054273       3.70470591
O        8.23546595       1.70294241       0.81664277
O        2.40589065       4.84512756       2.03982236
O        5.20624958       4.82293777       2.11100946
Li       8.57806062       8.23455160      10.26430730
Li       2.38552379      10.05207131       5.79171592
Li       9.15523489       9.18157887       7.90985585
Li       6.25841996       7.24487891       7.82344946
Li       9.51031052       4.17536759       1.85230829
Li       3.67339190       6.62623503      10.38804172
P        4.71587443       1.63236332      11.92887627
P        1.90682559       1.91999726       4.16369444
O        0.49556165       1.35876460      12.70409869
O        8.11853781       6.75525978       8.97515173
O        5.53552062       2.89647008      11.45892571
O        0.04463277       9.17473944       9.39592946
O        3.14879758       1.83223905      12.36622391
O        0.81680524       1.55698781       2.97543487
O        9.27202607       0.65866419       7.45887696
O        5.18602310       0.79084716       0.38086377
Li       1.88797245       2.78294595       1.75011931
Li       2.50471120       6.34828919       3.66929084
Li       9.20218998       3.23059821      11.88155533
Li       9.30960584       8.77900501      11.89667850
Li       2.57497791       4.72583209       6.06121857
Li       1.03722456      10.87598567       1.81174317
P        3.07452188       8.67518527       2.17334783
P        1.27069501       5.27162981       1.02714766
O        7.35870251       1.75101350       8.33484502
O        6.51919755       5.14098801       4.29890495
O        4.00426658       9.99510407       1.89913415
O        4.96671779       4.07054645       6.00278246
O        2.77581756       8.38638380       3.66754134
O        0.33894198       4.19048610       0.46301835
O        8.91231878      10.49278004      12.59441705
O        3.90641300       7.47125669       1.48371969
Li       0.58756071       0.20019995       8.31524580
Li       3.18824409       3.61878068      11.28868846
Li       3.68217794       6.02972493       0.73163429
Li       3.34166250       8.77077675       7.88770910
Li       0.43639919       5.21316253       8.43498559
Li       8.33688685       5.81268380       7.33707952
P        8.17512806       5.45610746       9.89465614
P        7.96706861       0.36832979       8.20203512
O        0.38769670       6.50954321       1.57359708
O        4.80800651       0.61196129      10.67720935
O        7.17087088       4.50754221       9.30528003
O        1.42989822       7.14073292       6.85530908
O        9.61334034       4.89270357       9.83521662
O        7.70810212      10.15389085       9.32988945
O        4.00262254       6.05154164       4.61560604
O        8.09204745       5.51738935      11.59371179
Li       4.35264074       5.36739685       7.97686822
Li       8.18586582       7.36920754       0.31851146
Li       3.33577430       9.77343029      12.32959754
Li       5.65090492       4.66032994      10.59614043
Li       6.52878131       5.53360822      12.58508700
Li       6.94390395       3.08106700       0.27448377
P       10.02623448       3.83445833       5.15571030
P        5.70193212       7.90958129      11.20090681
O        2.57195682       7.86152287       9.80067745
O        6.94941037      10.59151227       3.17581536
O        8.72739745       1.35423826      11.05503699
N        1.29115168       3.25110788       5.10735308
O        7.15743928       8.32265560      11.60079932
O        5.74349701       6.61219096       6.28243764
O        9.17617566       2.40561160       5.13359122
Li       0.04546225       0.35966715       5.25995625
Li       1.83844545       7.85060976      12.66900623
Li       0.37760463       5.54423895      11.39169959
Li       4.99204369       8.36718175       4.65877984
Li       0.26048107       8.18869418       2.89147529
Li       3.64043107       1.63248289       6.75934434
P        2.93608174       3.79230347       8.91476394
P        1.27812619       8.74225264      10.33078793
O        4.69680307       8.93345114      11.67369880
O        5.21455516       1.33603737       6.23130645
O        2.13260691       4.02279076       7.66002448
O        2.21448778       0.69706127       5.16195115
N        3.74427814       4.87592505       9.60541830
O        1.91796547      10.03156977      11.13218291
O        0.52939759       7.81552511       4.47161393
O        4.03631271       2.81750549       8.32170450
Li       7.12373488       1.95167909       5.05161190
Li       4.04051492       3.48541318       3.04279971
Li       3.81097705      10.22699755       9.87309692
Li       8.38221357       6.59762199       3.85430423
Li       4.69992366       1.27742928       9.20781052
Li       8.06932457      10.84191320       1.30688041
P        7.86446737       9.45718080       3.44386362
P        5.27561012       5.46442600       5.39342540
O        9.21870725       7.61005224       6.53681978
O        9.54887302       4.48870117       6.33470764
O        7.44584748       8.31159145       4.39087572
O        2.06619426       5.76390591      12.65664088
N        7.70338517       8.68004790       1.97196371
O       10.06775039       4.83008371       3.92652921
O        5.38562630       8.01899383       9.60946066
O        9.50988957       9.78676357       3.50685803
Li       3.39749782       0.66523955       1.54781356
Li       6.30436657       1.46432723       2.37937479
Li       5.59153339       2.84008914       7.52852376
Li       9.10135413       2.12813332       2.23822929
Li       7.63698686       8.37404361       6.28578756
P        5.29549318      10.89060659       6.90637477
P        0.46670352       8.02944044       6.03192983
O        2.13495359       3.07878440       9.94926333
N        6.81453457      10.41293047       7.49446286
O        4.79761323      10.18812053       5.59986018
O        0.78957326       9.47391352       6.39988076
O        0.45776715       7.90206008      11.40015839
O        4.36996320      10.39636365       8.09189204
124
Lattice="10.1931 0.0 0.0 0.0 10.9684 0.0 0.0 0.0 12.7908" Properties=species:S:1:pos:R:3 material=LiPON model=NEP89 temperature_K=1500 phase="NVT production" source_frame_index=1470 relative_time_ps=147.0 pbc="T T T"
Li       4.07128584       9.12655241      12.09350450
Li       0.43236273      10.06334961       4.74921109
Li       0.45618080       1.06716569       9.38280149
Li       8.42898774       7.39803156       1.68752748
Li       7.16240824       2.66544026      10.11935502
Li       0.45774868       4.22966356       6.69478788
P        5.18261457       5.60131197       3.30948547
P        9.71043956       2.07539053      12.10205745
N        0.68174169       2.31289326       3.75215857
O        2.15316785       0.45686776       2.88107070
O        6.51435817       5.57225565       2.77340981
O        7.29749786       6.55262394       0.00028008
O        4.29219211       4.44921313       2.70868924
O        8.63109191       3.28296567      12.62627438
O        1.68282314       4.70039264       1.51078787
O        4.41132583       6.98802484       3.35986015
Li       0.71802421       9.45400237       0.14333278
Li       5.98385506       9.58270705       1.17416672
Li       7.71218346      10.78387430      11.96446947
Li       5.86568585      10.92530178       3.76316381
Li       3.98330899       7.53675317       1.68804807
Li       1.03176209       7.82125816       2.78486266
P        4.80039728       1.34225449      11.93186420
P        1.93321642       1.29795069       4.31024295
O        0.77371471       1.82927190       0.04567805
O        8.01830304       6.25847368       8.50766956
O        5.32547265       2.21434877      10.82613255
O        0.74930729       8.11194465       9.69359885
O        4.42488247       2.32574826       0.27687999
O        1.82567530       0.15410171       5.40105663
O        9.10193065      10.76358806       7.89099144
O        5.74048614       0.22207133      12.58980987
Li       2.90881420       1.20272162       9.38485112
Li       8.45531512       5.81015366       6.72444510
Li       7.17506366       4.37408233      12.34992180
Li       2.11560210       0.83894444      12.04588325
Li       4.18124719       2.69315047       6.09924086
Li       8.58982172      10.83632250       5.96861071
P        3.06307804      10.23815181       2.33438216
P        0.99783448       5.91715276       0.75228204
O        7.27641260       1.20125807       8.55332625
O        5.01047892       4.93911448       4.84258957
O        4.59116663      10.40625660       2.38270442
O        5.06860505       5.29050317       7.12380934
O        2.74182285       8.96900937       3.12265747
O        1.05956409       5.64723263      12.01021869
O        8.91797771       0.86467645      12.71647314
O        2.46858561      10.25116621       0.87078020
Li       8.00623659       8.30548579       5.72418134
Li       0.76041922       4.23860469      10.86354545
Li       9.74974368       5.79974583       3.35803200
Li       2.92591974       9.54421582       5.18850611
Li       9.15558293       5.31330222      12.25437472
Li       6.95349358       3.51470679       3.96341891
P        8.16081716       4.98775740       9.34728460
P        7.69351752      10.63965432       8.69310818
O        9.70541907       5.94195794       1.24677641
O        3.79828897       0.46478978      11.09905549
O        8.49835513       3.66525560       8.50374004
O        0.17897696       7.05614114       4.45979080
O        9.22181043       5.24723243      10.51451124
O        7.89621166       9.97270064       9.95373851
O        7.12704653       6.42587149       5.90632096
O        6.68009560       4.54805224       9.93312764
Li       5.71348294       5.69388688       9.51933989
Li       9.29031554       3.62817877       1.61723885
Li       9.06114558       8.10574689       9.87246792
Li       3.89895371       4.11828601      10.98663734
Li       5.88393964       7.63039519       7.64150933
Li       2.17177314       3.27718272       0.75945395
P        9.55664824       3.01665926       4.39905100
P        5.85194290       6.73228322      12.25445684
O        2.29717634       9.85222089       8.40610686
O        7.21332560       8.24393985       3.51644662
O        9.38613841       1.89865671      10.60659790
N        1.16292412       2.65481596       4.97298283
O        5.38529785       7.99365139       0.26801647
O        6.63668737       3.60721179       6.09608118
O        8.51159371       2.77934510       3.35052471
Li       7.87789824       2.35716627       7.12741385
Li       1.39543748       1.16521215       7.15723275
Li       3.10083513       5.39902653       6.54206491
Li       5.24873411       8.32057031       3.66196076
Li       2.94623667       6.14720428       4.28813331
Li       2.92328298       8.58541759       6.86277917
P        2.67119301       3.43406480       8.39335071
P        1.75356682       9.27576101       9.90864747
O        4.77540665       5.64071668      12.22787503
O        4.59547180       0.24450341       7.94498857
O        2.66690593       4.62392075       9.43107857
O        3.32068521       1.97438143       4.18151471
N        1.53411082       2.53351182       8.93981206
O        1.24043483      10.62410547      10.69523831
O        0.21424598       6.42795967       6.98418694
O        4.06063710       2.69793574       8.31911306
Li       5.45545216       1.34273462       8.91149234
Li       2.13795162       4.34250400       3.14029123
Li       2.46316927       7.05428911      11.42056123
Li       0.66710595       9.88103187       7.70247669
Li       4.17297929       9.76809862       9.03576531
Li       7.49711150       1.39861473       1.13200695
P        8.36113288       9.21061446       3.28631084
P        6.15614000       5.09574530       6.07397119
O        2.35779893       6.95505582       5.77217523
O        9.20568997       2.13476643       5.69692320
O        9.44287056       8.78329263       2.29751724
O        1.77579025       7.12907508       1.10747829
N        7.49931550      10.47767526       2.48968981
O        9.73434336       4.50642908       4.64318786
O        6.05633795       7.48559006      10.83389882
O        8.93797734       9.59239549       4.65061362
Li       4.51354909       1.52039765       2.24017189
Li       4.63611334       4.13645863       0.91366772
Li       1.03008059       6.30582189       8.96869282
Li       9.27160938       0.27645803       1.48560160
Li       7.58450520       6.17416791       4.22735597
P        5.44753328      10.41114730       7.03548682
P        0.87458797       7.22737904       5.80362004
O        2.36963128       3.92987747       7.02922431
N        6.75324443       9.95465040       7.64664464
O        5.72327595       0.17097373       5.68215049
O        0.84754720       8.69429434       6.18483352
O        3.07734189       8.58193993      10.47501417
O        4.64845910       9.07882400       6.69318997
124
Lattice="10.1931 0.0 0.0 0.0 10.9684 0.0 0.0 0.0 12.7908" Properties=species:S:1:pos:R:3 material=LiPON model=NEP89 temperature_K=1500 phase="NVT production" source_frame_index=1500 relative_time_ps=150.0 pbc="T T T"
Li       5.78336606      10.02496406       3.24605404
Li       3.16148899       8.67040801       5.52187981
Li       0.44922740       1.34773480       9.49304741
Li       8.58165953       6.54040390       1.46926214
Li       8.16133371       0.73637121      10.42623847
Li       2.15189905       8.61657759       8.21653227
P        6.57174826       5.19573016       2.62194783
P        9.23443359       1.81770268       0.04131170
N        1.88916709       2.53122118       5.30400895
O        3.14244040       0.08222977       3.72246791
O        8.03571293       5.36082181       2.55244034
O        5.21023255       8.84275057      11.87647884
O        5.98360904       3.75970509       2.29468570
O        8.29856058       0.64367812      12.54664652
O        2.27248211       6.82335967      12.78081084
O        5.77019597       6.34616682       1.96659928
Li       4.29225960       4.53053570       1.49332215
Li       2.60990530       7.17921622      10.44162886
Li       5.30721559       5.55041386       8.58023890
Li       3.46624261       8.27983654       0.23289206
Li       6.62924332       3.29819622       0.50908285
Li       4.23630124       7.25201472       3.36694513
P        4.16483256       2.10655687      12.75890559
P        3.14581772       1.51325560       4.82992030
O        8.37296620       3.14248719       0.71916046
O        7.23097644       5.53493597       8.81478509
O        5.15539562       1.50257576       0.95782700
O        1.80360412      10.06773674      11.34893263
O        4.62035704       3.56860415      12.33550566
O        3.47573477       0.73244900       5.95103184
O        5.70804569       1.50724386       7.99621001
O        2.64825585       2.30189480       0.47394196
Li       0.60832852       4.09729275       9.13044961
Li       4.62758012       3.45399175       7.24825259
Li       5.38925667       3.01945810      10.78218559
Li       0.66786389       8.35541824       0.93842013
Li       2.38589638       4.64176365       6.03373169
Li       8.30548793       0.92529075       3.50979643
P        2.92767508       9.62715686       2.79276750
P        1.47972381       5.77538515       0.79109393
O        6.34885634      10.53068842       9.41217754
O        5.84535679       5.33951851       4.06889311
O        2.13376853       9.62195617       1.59491111
O        5.35228272       5.02558768       6.65162193
O        4.32933022       9.00843077       2.37937988
O        2.42215363       4.87598137       1.74576535
O        0.20684919       1.36758792       0.94799356
O        2.26973580       8.70730339       3.72601019
Li       0.83741288       0.46949332       2.78396501
Li       5.85677748       8.82377479       8.73727043
Li       0.48447680       9.44993485       4.61605887
Li       8.45616181      10.51389398       5.98033136
Li       9.02438022       6.94924443      11.06201945
Li       9.24087261       5.76160967       4.58189956
P        8.15196561       4.54058537       9.51921864
P        6.56152535       0.23336987       8.00938694
O        0.46335702       6.72521407       1.86297393
O        4.41292043       1.39653071      11.36829927
O        8.99129066       3.86689037       8.41216065
O        9.43579250       6.34987292       7.51434464
O        9.13698971       5.34602476      10.33486870
O        8.07002475       0.33169240       7.70388432
O        7.75180513       5.09488562       5.75253349
O        7.41137299       3.85538279      10.62544776
Li       8.20635922       2.76614224       6.78995408
Li       8.87805150       4.65628509      12.11457986
Li       6.76785518       9.54447742      11.19267231
Li       2.86614252       1.51609604      10.54342481
Li       7.53823744       6.05188367       7.10486758
Li       4.22498598      10.33468290      10.76935511
P        0.18795400       2.65750194       4.86983373
P        5.11448962       7.73456367      10.75816191
O        1.57997093      10.36188740       9.07438263
O        9.75153745       9.83750318       2.10800921
O        9.97587129       2.40445574      11.51430641
N        1.55266815       1.94310700       4.19305770
O        6.50286924       8.15941426      10.06316200
O        6.41309489       3.00469291       5.29368150
O        0.16554178       4.23822335       5.13457266
Li       0.02087084      10.56975307       7.63741943
Li       6.57541943       0.15099032       0.78807549
Li       0.67891625       6.22231028      10.45367846
Li       6.97432933       7.23244428       3.62818677
Li       3.76923159       5.14644537      11.66982368
Li       3.72515371       0.98798948       7.68939548
P        2.85623588       4.16149840       9.10866039
P        0.96300355       9.56436953      10.21857875
O        3.97537153       8.05174455       9.81904302
O        7.05717797       7.98621200       6.82360659
O        2.46510587       4.22394317       7.67229308
O        3.79841362       2.73304071       4.27769515
N        2.13561189       3.00544786       9.86553911
O        0.88676825       8.05592235      10.07974757
O        1.73190335       6.87453956       7.18033011
O        2.32027244       5.34701172       9.87730315
Li       5.32040105       2.17853165       2.66148120
Li       0.21534343       3.79714297       7.06313566
Li       2.64333526       2.94153429       2.18891868
Li       1.62738265       3.21591414      11.66448139
Li       8.44007756       8.21350373       8.16285238
Li       9.95910261      10.20779265      12.73225967
P        8.34815755       9.68896614       2.87059443
P        6.23245797       4.46898080       5.35379643
O        0.35378823       7.20083804       5.17138227
O        9.51101478       2.25739506       3.64037438
O        8.92996915      10.23555054       4.18460059
O        0.72255964       4.77608498      12.59647124
N        7.25898937      10.70532507       2.43199968
O        9.94796250       1.81670209       6.17043320
O        5.12831558       6.35738092      11.43105633
O        7.99499125       8.24007322       2.65531775
Li       1.69773274       6.53234652       3.52537957
Li       9.12611492       3.46362972       2.13441836
Li       6.17187888       7.87419048       1.21117740
Li       1.94321066       0.63226815       0.11581778
Li       4.12357417       6.51324709       6.54904741
P        5.83087920       8.77392870       6.22145885
P        0.34713151       7.16823797       6.74647488
O        4.30234394       4.25567778       9.68557101
N        6.19368924      10.21927630       6.69005466
O        4.41851639       8.22782193       6.61915521
O        0.08724050       8.72640267       7.21911218
O        9.65040792      10.07904120      10.43165345
O        6.01387250       8.65453996       4.68423713
124
Lattice="10.1931 0.0 0.0 0.0 10.9684 0.0 0.0 0.0 12.7908" Properties=species:S:1:pos:R:3 material=LiPON model=NEP89 temperature_K=1500 phase="NVT production" source_frame_index=1529 relative_time_ps=152.9 pbc="T T T"
Li       4.82662071      10.28029905       6.06361631
Li       0.23041576       0.38781965       7.39655212
Li       2.40449142       1.02265533       9.36684266
Li       8.00975800       9.20264551       4.48133434
Li       2.45744859       1.30662066       6.70999314
Li       1.20989148       6.52454318       3.84417820
P        5.73679654       5.13009134       4.79398134
P        1.85836569       1.67194680      12.40554705
N        0.16666687       1.08061802       4.15811416
O        1.35152417      10.89282392       2.78869850
O        6.19792032       5.10931350       3.34005874
O        6.08874580       7.58841000      10.53022158
O        6.72888598       4.91861739       5.85213736
O        1.70127875       1.70640949      10.84911523
O        9.49948584       7.19176631      12.63185723
O        4.67983637       3.98953709       4.73725057
Li       9.40188026       2.36628437      12.17114716
Li       6.72298323       1.79120101       4.13877116
Li       6.01283768       5.43828707       7.35603102
Li       4.37612316       4.03616824       0.28719490
Li       2.60964093       3.54937212      11.21732010
Li       5.28872791       9.77549975       1.05245802
P        6.70607950       2.24578704       0.47475800
P        1.85067877       0.88323487       3.89704797
O        2.78977214       2.94027168       0.18060217
O        8.66722196       6.54301525       9.52870201
O        5.83518055       1.43468686       1.53004933
O        3.79661756       8.66791961       9.17450588
O        7.51514113       3.50152455       1.15734791
O        2.35333489       0.23813062       5.19051425
O        8.69865359       9.80387039      10.63733454
O        5.84686168       2.87537959      12.16145261
Li       8.31424647       4.48839771       5.42908126
Li       5.34501947       3.13617216       7.53956801
Li       5.42300485       3.84398427      10.16963454
Li       6.76640483       9.68217691      11.35678921
Li       4.55832953       6.22128202       9.14330914
Li       8.54642604       4.61304534       2.25259194
P        2.17030096       9.29144461       2.16468555
P        0.36083589       6.12985330       0.30760241
O        9.32833270      10.30110211       8.15435434
O        5.12532388       6.44662092       5.39346281
O        1.48740398       9.35561671       0.73570751
O        4.02162446       8.48661388       6.16453291
O        3.70760999       9.28010530       2.20059464
O        1.89091759       6.52292605       0.03983594
O        0.67162514       1.46740758       0.42617167
O        1.39120957       8.21671208       2.95701779
Li       9.46454352       1.18896706       2.00584430
Li       0.58516121       4.50655250      10.22288578
Li       9.40810627       7.18668655       2.70706177
Li       7.71692445      10.34983208       6.47291256
Li       3.41267133       6.99712819       0.69802829
Li       2.73727732       6.61960559       7.21581432
P        8.32670509       4.88366373       9.64264584
P        8.42705432      10.72364754       9.34408243
O        0.21076875       5.87171713       1.90020782
O        7.88779798       1.42127700      12.38662171
O        9.68890499       4.38519250       8.70753329
O        9.63843849       7.36768455       7.12846060
O        8.56938147       4.14044765      11.03540064
O        8.64124906       1.30610406       9.38473874
O        6.62326864       8.50941806       5.79984301
O        6.97797929       4.66472173       9.05563209
Li       0.45199143       3.36277493       7.34861473
Li       6.90596212       6.72640042       9.26875728
Li       8.15710231       8.15315470       7.29616442
Li       4.74411787       1.01860411      12.30493839
Li       2.31923949       9.89035694      11.77617449
Li       7.58540313       2.12684559      10.56070693
P        9.17361733       1.89344858       5.08736011
P        5.19456114       6.66594889      11.53866069
O        1.84130094       7.64896343       8.58381790
O        7.40131658       7.47613359       1.96978203
O        2.85380105       0.62155448      12.63466996
N        0.71431050       1.95197203       5.10464093
O        6.13811393       5.96730545      12.57278747
O        5.92693731       7.43080654       7.63196655
O        9.20259885       2.70035253       6.54870737
Li       0.27566922       5.63251802       7.47584548
Li       5.31998375       9.27836593       8.52152958
Li      10.02512427       8.95539093       0.36829370
Li       7.47502147       6.66240143       3.81328270
Li       7.71498608       3.05282782       7.35361494
Li       0.80374235       3.65695812       1.77626418
P        2.92550958       4.20648863       8.30350887
P        2.37367724       9.04064027       8.88453387
O        4.35834707       5.34950060      11.02216754
O        5.70888189       0.38939614       6.90804188
O        2.17719087       4.96632982       9.50315730
O        2.67631225       2.03476489       3.31158844
N        2.53847713       2.65045227       8.47725862
O        1.44840214       9.66302305      10.03676341
O       10.06963927       8.95018044       5.28569747
O        4.47162441       4.30986241       8.24239167
Li       4.09553512       2.14737517       2.06249787
Li       9.94840873       2.65959472       9.26141332
Li      10.00317230      10.02537689       3.86935211
Li       8.39935252      10.62981613      12.57031974
Li       9.63538923       8.05165977       9.40899621
Li       5.89760964       5.83944155       1.92824970
P        7.43341306       8.99566880       1.82910246
P        5.37233096       7.75391343       6.27594489
O        1.52010247       7.16621501       5.82303652
O        8.65983861       2.66009564       4.01359594
O        6.95735344       9.53149609       0.40776835
O        0.29806220       4.76364083      12.28018395
N        6.44169649       9.55342005       2.94642134
O        8.55707383       0.67913189       5.48021576
O        4.26115420       7.63856398      12.24879870
O        8.82322401       9.55041919       2.04337538
Li       3.23961641       3.30314460       4.98642453
Li       7.71140328       7.05700403      11.88145324
Li       7.47020761       4.64801583      12.56451697
Li       2.75478815       6.32971867      11.05917207
Li       1.71013997       9.47226612       5.71438063
P        5.85806997       0.66577181       8.46628440
P        0.05113064       7.51313643       5.66069522
O        2.07184611       4.43137698       6.95036150
N        6.79428160      10.56821912       9.13866365
O        4.52709122       0.58395405       9.13498244
O        9.47329142       6.51302167       4.77458510
O        2.32144939      10.17004115       7.50887296
O        6.22353623       2.12611613       8.47467631
124
Lattice="10.1931 0.0 0.0 0.0 10.9684 0.0 0.0 0.0 12.7908" Properties=species:S:1:pos:R:3 material=LiPON model=NEP89 temperature_K=1500 phase="NVT production" source_frame_index=1559 relative_time_ps=155.9 pbc="T T T"
Li       8.46834077       1.83468943       4.53526121
Li       2.47658485       4.23386598       6.05833413
Li       5.45555515       8.67744777       7.16065131
Li       3.18596775       7.61540166       0.62163723
Li       1.62121519       5.76242191       2.87857984
Li       9.53263903       4.69020917       4.21120959
P        7.09411173       4.19886221       3.66234849
P        9.97438470       1.37417900      12.13298214
N        2.74104392       1.92630998       3.55052828
O        3.68330533      10.47336448       3.59799853
O        8.16819328       3.55934340       4.55040218
O        6.12581645       5.33828162       0.62814354
O        6.45715479       3.14825607       2.82637543
O        8.84277782       1.04754392      11.09299388
O        9.55502529       7.28435621       1.27432246
O        7.85313789       5.02289274       2.62668269
Li       5.80938752       1.41243469       4.48025389
Li       3.68860625       6.51027221       3.68162046
Li       6.00571681       7.22039790       3.41792312
Li       8.29604658       8.33828645       0.48056116
Li       0.25372980       2.72014429       1.31050333
Li       5.38494250       9.96023064       5.29471773
P        4.59094721       1.85616010      12.32723562
P        2.97334535       0.71030722       4.61462136
O        0.67867643       2.58783445      11.96322744
O        5.82120387       4.74717030       9.50667624
O        5.41615283       1.66113843       0.83308918
O        1.18178940       8.92091322       9.17093711
O        4.22169801       3.28391876      11.99601434
O        1.76882242       0.09783260       5.21395275
O        5.68760313       8.34802391       9.06986508
O        3.00316846       1.21485518      12.26084446
Li       8.91143150       6.21554359      11.20022761
Li       4.46439325       3.61803324      10.00681159
Li       2.41728478       6.80866094      11.02349887
Li       9.92533004       9.67236441      11.42297766
Li       5.50705882       6.37615229      10.61591691
Li       0.04810429       7.89986648       3.08779006
P        2.65088368       9.65824240       2.49855637
P        0.49256866       6.75564923       0.37609053
O        8.35151111       8.78567339       9.32693477
O        6.05311681       5.22211098       4.47421062
O        2.07465310       8.46206281       3.32343398
O        4.92184001       7.57333483       5.02920069
O        1.55603598      10.63591047       1.87261608
O        1.20494188       7.83328689      12.32606729
O        9.08503511       1.71387627       0.68413416
O        3.39519808       9.31253293       1.18337222
Li       9.71614549       0.17634570       1.32574294
Li       2.52655538       4.01974528       0.27151853
Li       7.45487972       1.58735843       1.93814603
Li       7.92753696       6.99943890       2.29831500
Li       4.84343165       9.12061708      10.99336537
Li       9.56039028       5.03930212       8.24781935
P        7.23941136       4.73985852       9.26868834
P        6.83127668       9.33119452       9.65447013
O        1.73089023       6.35760658       1.17023282
O        5.39361160       1.11614708      11.26769177
O        8.03982854       6.09010870       9.87054653
O        0.08402448       6.49945630       4.26170192
O        7.57483501       3.52770255      10.04157516
O        6.56339106       9.29145631      11.19250164
O        6.38149019       6.87910534       6.73534208
O        7.58804830       4.52827053       7.74873069
Li       7.95524086       5.53488648       5.90866810
Li       4.34830822       0.40900322       9.62381070
Li       9.71865760       7.59737045       9.16451970
Li       6.93404593       1.55584192       9.81779107
Li       2.20121986      10.02563183      12.34462462
Li       9.30848363       4.83134258       1.41646389
P        2.08128253       3.43235764       3.39444423
P        5.36653056       6.51650787       0.93977598
O        3.19137812       9.33180128      10.61107494
O        8.34010243       8.85465651       3.81204687
O        0.45336888       0.01985044      12.26846434
N        2.36698673       2.44950989       4.75862968
O        4.31916862       6.62624443       2.02219964
O        4.63067810       5.19960627       6.80808361
O        0.50901278       3.31180192       3.23403144
Li       1.73092818      10.14690842       6.88737569
Li       9.08073299       3.52960497      10.82159913
Li       9.65960666       1.50072079       9.25656917
Li       8.07673802       7.74547550       5.97271723
Li       6.18960427       4.12422352       6.38061471
Li       6.65276258       0.09659287       0.15467506
P        1.00422756       2.90425629       8.11868859
P        2.66878032       8.55179941       9.29297769
O        4.55669746       6.95210023      12.43706932
O        6.28832222      10.27852262       6.81860955
O        0.18936512       3.25085932       9.34960848
O        4.11171809       1.22846970       5.50344115
N        0.32963921       3.96461972       7.16742131
O        2.67549963       6.96527203       9.35134705
O        9.54138708       6.78587812       6.53928405
O        0.65743708       1.58246057       7.55275243
Li       5.80990818       9.17778287       1.30073859
Li       3.13496027       5.71547263       7.94928158
Li       0.37121289      10.45283783       3.43706486
Li       9.45229892      10.00657006       8.02674980
Li       9.23898715       1.83775674       6.75808891
Li       2.69963031       1.30417143       1.45471161
P        7.74608627      10.06800704       3.08827894
P        5.35501434       6.25823289       5.78427575
O        1.69224485       5.95341823       6.17450265
O        2.90680018       4.63968423       3.82934649
O        6.60821668      10.87111234       3.80731678
O       10.19298212       5.66409368      12.16511504
N        8.81776909       0.32409854       3.30511449
O        2.49222394       3.03356748       1.94752309
O        6.50132844       7.54143524       1.57326032
O        7.64547811      10.09851739       1.60042776
Li       3.77726109       1.97433774       7.12862277
Li       6.64027434       3.89922993      12.48513062
Li       4.46590893       3.35040545       1.93120361
Li       7.63224090       7.34656825       8.44974277
Li       2.40960767       9.13967292       4.85286329
P        6.74343698       0.56756935       7.67467026
P        0.60655090       6.90831064       5.69473973
O        2.60134336       3.26211775       8.27595721
N        6.57019870      10.81658087       9.20735960
O        5.72526796       1.65132018       7.55179800
O        1.11351991       8.35936174       5.86637832
O        3.32984682       9.20874227       8.06416031
O        8.16256074       1.12780007       7.81682560
124
Lattice="10.1931 0.0 0.0 0.0 10.9684 0.0 0.0 0.0 12.7908" Properties=species:S:1:pos:R:3 material=LiPON model=NEP89 temperature_K=1500 phase="NVT production" source_frame_index=1589 relative_time_ps=158.9 pbc="T T T"
Li       8.29546444       2.04809915       6.90298384
Li       4.46066611       8.18623630       2.44675052
Li       3.51949640       6.96841355       9.08111694
Li       2.67224655       6.84642530       6.49517360
Li       4.76585229       3.57080748      10.63876641
Li       7.31594189       2.80424112      10.43650191
P        5.62478644       3.68611720       4.90137210
P        9.94315390       1.54784529      11.92354305
N        0.44400314       2.27044588       4.22552470
O        1.55719886       0.06778669       4.27123895
O        7.27219716       3.57593783       4.81002601
O        5.23626579       5.65264041       1.21902136
O        4.92331024       2.50598895       5.66429816
O        8.40048350       1.71447428      12.29878949
O        2.07719278       5.79384804      12.64716808
O        5.28485846       3.75332724       3.49788653
Li       8.99769188      10.13405269       4.48464614
Li       8.27372512       5.02126245       4.77189917
Li       4.30382219       5.25750125       2.87560122
Li       7.07294420      10.80119329      11.34755634
Li       2.33041074       6.65179953       3.61623035
Li       5.64897977       1.03481300       4.61109011
P        3.99122072       1.97517791      12.07279906
P        1.12339380       1.20462134       5.41981695
O        0.00627321       1.13248045      10.40704579
O        9.93439458       5.67053089       8.30732085
O        4.68105915       2.33395029       0.68016017
O        1.67591690       7.69111573       9.57226471
O        3.01907397       3.19040737      11.94788822
O        9.98671112       0.67661856       5.95374470
O        5.52130763       7.47318983       9.24855604
O        3.42221550       0.52278557      12.26219276
Li       1.87939962       4.03519855       0.19562101
Li       1.43077824      10.71714093      10.83880761
Li       5.72305458       7.76428263       7.12164926
Li      10.19139700       9.38652255       0.58128799
Li       7.89894293       1.59576834       1.13210655
Li       0.70984749       8.63672522       3.32604519
P        3.10446342      10.83634761       3.62891360
P        1.97723136       7.23521230       0.47747818
O        7.97729254       7.90232208      10.11580320
O        5.04994555       5.06599461       5.54299297
O        4.06960668      10.91166278       4.78944315
O        6.68738861       7.28761473       5.39404337
O        3.11694526       9.49430701       2.93974416
O        2.07595953       7.36540882       1.92480419
O        0.30508868       2.92840759      12.28267807
O        3.38590831       0.99196429       2.57622421
Li       9.19923236       4.17063295       1.25578211
Li       6.20269783       5.62426051       9.92982161
Li       5.97843408       2.58733065       8.73771794
Li       6.01360130       2.86955095       2.07128697
Li       4.20384811       9.48103993      11.80023541
Li       3.84555300       1.91233543       7.18378228
P        9.47853022       4.20964188       8.74926085
P        6.45815753       8.51191023       9.92311036
O        3.09718381       8.10856378      12.52798345
O        5.30903950       1.77809229      11.22965886
O       10.05965360       4.33757945      10.17976261
O        9.29520956       7.62993636       3.78293429
O        7.68730514       4.16163391       8.75579022
O        5.85315115       8.79007362      11.38687658
O        4.53541955       7.59370815       5.80109257
O        9.96930791       2.85496960       8.21742544
Li       8.62208720       9.43951376       7.63504060
Li       4.05301784       1.05367712       9.61315093
Li       1.45057034       5.89975505      10.86698805
Li       4.99557010       0.89511647       1.56002471
Li       9.44120131       7.17267421       9.73255696
Li       5.12102364       9.26897114       4.95845127
P        0.97812894       3.75775003       3.46488020
P        6.48183229       5.10718463       0.32673898
O        2.21000911      10.24402442       9.29991883
O        7.96031998       9.68158615       0.60531759
O        0.53358063       0.30679937      12.72477077
N        1.36720015       2.77876508       4.93589356
O        7.12525607       6.52100022       0.04808489
O        4.99698568       6.93041898       3.50053132
O        1.68404927       3.20768636       2.16713697
Li       3.13225623       8.57321235       5.21728591
Li       0.32518510       6.71321741       2.19433926
Li       1.44346141       2.35403171       7.72900940
Li       1.00955197       5.29600995       7.01035111
Li       6.59576165       5.08428980       7.70356032
Li       5.39753867       7.57649058      12.57885259
P        3.08614397       4.39270140       8.77669934
P        1.68659332       8.92787926       8.61526567
O        5.80509774       4.56173261      11.72437467
O        7.30904131      10.55420431       6.87064667
O        2.48716743       5.34943879       9.80048667
O        2.17335369       1.07263438       6.61529274
N        4.65166394       4.53914040       8.70288498
O        2.49020254       8.68267816       7.30814892
O        9.77726567       5.87493224       5.58171191
O        2.59367738       4.98962111       7.30793506
Li       3.18464758       9.67200326       1.30414997
Li       7.63160404       7.73184588       3.59105080
Li       0.73977573       9.25333746       6.38083526
Li       9.72788198       0.54456979       8.40139108
Li       1.47204390       2.92057558      10.17783348
Li       1.43323952       1.19962815       1.23958670
P        6.88892245       9.88067666       1.63371842
P        5.33451703       6.64562066       5.03690719
O        1.55550883       7.59020418       4.95498521
O        9.73560057       4.25782039       2.96516252
O        7.13337891       9.37832469       2.94812986
O        0.54294348       7.80555044       0.11531329
N        6.69602341       0.46621656       1.68119232
O        2.01343286       4.87071417       3.80711040
O        7.22796878       4.14403310       1.29883483
O        5.41679847       9.84634969       1.15307712
Li       2.89743884      10.59361065       7.45436921
Li       3.43016763       2.88168928       2.24602237
Li       3.95069165       4.93052956      12.74652569
Li       8.25997225       7.59144806      12.29769162
Li       3.00132492       3.55164291       5.76920345
P        6.33295926       0.02339336       8.05440506
P       10.07625148       7.28665180       5.22223766
O        2.77606319       2.89033950       8.96770372
N        6.49867753       9.72148316       8.97601167
O        4.78398789       0.25060204       7.71415486
O        9.50376238       8.47540036       6.10238478
O        0.23610801       9.59230029       8.21020550
O        7.01908828       1.14974657       8.88936168
124
Lattice="10.1931 0.0 0.0 0.0 10.9684 0.0 0.0 0.0 12.7908" Properties=species:S:1:pos:R:3 material=LiPON model=NEP89 temperature_K=1500 phase="NVT production" source_frame_index=1619 relative_time_ps=161.9 pbc="T T T"
Li       6.99863446       6.26126927       8.01096794
Li       3.86712102       9.57180519       1.75039373
Li       4.42028636       4.80576123      12.41581604
Li       4.49505824       6.84527551      10.70865863
Li       5.56994520       2.08489938       9.55272816
Li       4.33025577       9.62466692      10.00162979
P        4.70824099       4.45388622       4.63903745
P        9.46650153       0.79704489      11.72201800
N       10.15348862       2.04540912       4.23484493
O        1.63824143       0.42194897       4.67853661
O        4.29967156       3.10309104       5.06270805
O        7.51786128       5.64303502       1.66554694
O        3.50952018       5.04914408       3.83840339
O        0.30539055       1.93431959      11.94679491
O        0.72229931       6.86110336       0.32460647
O        5.97037498       4.58896655       3.81323521
Li       0.05709989       0.00838029       2.91557599
Li       9.53711459       6.07513428       1.68515076
Li       4.44196478       7.57557088       8.52664493
Li       4.73006134       9.06475815       3.65977097
Li       2.00541057       8.17012789       3.06049467
Li       7.26041324       8.47181241       5.91779861
P        4.03782778       0.65994032      11.63221228
P        0.97056329       1.58311376       5.60241461
O        9.44869321       0.29075712      10.20600186
O        0.26757708       6.75044424      10.19430620
O        3.16391920       1.66779673      12.56565107
O        2.85969731       9.72801686       7.84848560
O        3.38363793       0.70719490      10.27351195
O        9.83343599       1.05714173       6.18732602
O        8.04361106       8.65627961       9.16022545
O        4.01450626      10.13439545      12.05503587
Li       6.62657420       2.95469234       2.81871524
Li       8.65943729       0.52482271       4.36759849
Li       8.23076146       7.08103581      10.96537995
Li       7.44199951       0.54870241      10.41546428
Li       8.47006559       1.42890979       1.47490737
Li       6.97370082       7.24997563       2.91241050
P        2.54565292      10.86637132       3.44863127
P        2.34024033       6.98665009       0.48352699
O        7.15002558       9.61768087      11.12721791
O        4.83272830       5.48707735       6.00171991
O        3.92038413       0.63083120       3.10255643
O        5.56226372       7.77242179       4.33311311
O        2.95620814       9.44423282       3.67742859
O        2.77845790       5.47546393       0.62344338
O       10.17459105      10.57546829      12.40148664
O        1.63491562       0.00938830       2.21008251
Li       8.04585105       3.60920413       8.03826687
Li       6.72077476       4.83620687      10.70905093
Li       1.86907316       3.42671860       8.42853361
Li       1.82934976       4.67518667       2.38587368
Li       6.70930920       2.39713645      12.57792756
Li       4.43964773       0.96941111       1.38866613
P        9.78859723       5.68497226       9.19077445
P        6.75473636       8.97324424       9.79095936
O        2.85464206       7.59831515      11.93845261
O        5.32353917       1.32242606      11.27878015
O        0.66917614       4.55228969       9.25187857
O        9.47022253       7.62116233       2.61760672
O        8.59344843       5.20183486      10.15115662
O        5.64256570       7.83357616       9.77271416
O        5.78936404       7.61840808       6.93475584
O        9.43461154       5.67708436       7.69630813
Li       9.57668558       7.35237702       6.97707265
Li       2.00350295      10.30532433      11.48724535
Li       1.02500443       9.33775874       0.96398924
Li       5.37999367       0.15066367       5.49757593
Li       1.38796127       1.62608433       0.54618065
Li       1.60997604       5.99239533       4.37768387
P       10.07568484       3.32584939       3.20209618
P        6.61269827       4.87460081       0.67755496
O        1.28640630       9.48177739      10.00002181
O        6.64945774       0.73109721       1.15983125
O        8.13723165       1.30190286      11.81715607
N        0.63671667       3.02187963       4.80654952
O        5.94087107       5.68638227      12.37494006
O        3.57704568       7.66032211       5.70524063
O        8.58269730       3.16927272       3.22411990
Li       2.28656484       5.96043554       9.06161817
Li       1.67348122       7.89740543      10.73290702
Li       9.39466869       9.35268311      10.23159017
Li       4.19485016       5.99540032       2.38257391
Li       3.85378523       2.44023212       6.70611097
Li       7.99935665       4.75328211       3.78370839
P        4.67357482       4.32981040       9.09774922
P        1.70069865       9.07348032       8.57591748
O        5.72227807       3.75399953       1.28202476
O        6.79236970      10.37552497       6.61643580
O        4.35774898       3.97436139      10.48755949
O        1.83275891       2.05290487       6.81632883
N        6.29871187       4.31496092       8.88210772
O        0.47951727       9.00411778       7.63836178
O        8.62548313       7.01607943       4.95107171
O        4.05408718       5.78252570       8.99284112
Li       1.02056093       5.65149909      11.61373960
Li       4.83632940       1.50858280       4.37656523
Li       2.06423030       7.14564837       6.92257366
Li       6.02138421      10.14230929      12.44780654
Li       9.26846989       3.45432561      11.88504127
Li       2.37040827       3.21395376      11.11220359
P        6.75380949      10.81004082       2.43219567
P        4.85932592       7.07988659       5.68602695
O        0.86250842       7.59961340       4.73583798
O        0.35239218       4.77809667       3.62865771
O        5.83319626       9.73746978       1.72690601
O        2.99186238       7.83465902       1.58029375
N        8.38152969      10.77969459       2.19075257
O        0.63528441       2.81948879       2.09486806
O        7.89667167       4.15582282      12.67370654
O        6.57651186       0.60554667       3.72324130
Li       1.27574529       9.25915278       5.87117450
Li       9.19948789       0.24138513       8.13745205
Li       3.12325539       0.85087631       8.13664941
Li       9.08228400      10.16544357       6.17272156
Li       2.79888652       2.43273388       2.87603221
P        6.39777044       0.22480423       7.85690087
P        9.53415800       7.89188680       4.16619018
O        3.90913865       3.41208628       8.29264523
N        5.71917989       9.98483432       8.82344006
O        5.03842389       1.02290093       7.55883610
O        9.06401986       9.24130956       4.47845196
O        2.41495244       7.59547033       8.78161011
O        7.56791697       1.05832818       8.41282110
124
Lattice="10.1931 0.0 0.0 0.0 10.9684 0.0 0.0 0.0 12.7908" Properties=species:S:1:pos:R:3 material=LiPON model=NEP89 temperature_K=1500 phase="NVT production" source_frame_index=1649 relative_time_ps=164.9 pbc="T T T"
Li       5.04669687       7.01369906       6.56096505
Li       5.59962374       4.96345734      11.51946852
Li       2.93862494       5.98265581      10.01695012
Li       4.76822491       4.45351369       1.46521160
Li       5.16945627       0.01436714      10.71329893
Li       4.35834592      10.26460754       6.79078463
P        4.52758767       3.41284235       4.24175791
P        0.30874304       1.64321329      12.29175858
N       10.16251833       0.99600036       5.49948844
O        2.02531034      10.15004082       4.44619894
O        3.49224258       2.35559784       3.86317795
O        7.01455315       6.51673590       2.43895339
O        5.74557899       3.82258468       3.14588864
O        0.85544747       2.72484491       0.53555650
O        0.00541243       6.43485087       1.19984288
O        5.19620386       3.03880244       5.51465031
Li       9.78138290       9.54814014       0.59515138
Li       6.91389228       2.61086682       0.68704880
Li       6.91113352      10.73261293       4.97617371
Li       6.31298775       5.37501324       4.44963619
Li       9.26808039      10.37006518       3.53508071
Li       7.59835391       6.97417447      10.64547044
P        4.49923802       2.34865041      12.01727568
P        1.55224430       0.21493720       5.70675305
O        0.82911432       1.64648611      10.90086258
O        2.47341505       3.51695528       7.23442005
O        4.08613630       2.69244951       0.80450026
O        3.49321824       7.68165862       9.59380253
O        3.89477586       3.28093178      11.03897521
O        0.64373750      10.42493517       6.71742476
O        8.13594574       8.53334539       9.52361274
O        4.19362088       0.83626893      11.89168072
Li       6.76275834       3.40875101       6.25576236
Li       4.53323133       1.21161093       2.14137017
Li       6.87451263       2.71369720       3.05188579
Li       7.67108182       0.62706998      12.66166660
Li       1.10053608       1.12972026       8.30852496
Li       0.08001980       9.42845018       8.03060965
P        1.91241583      10.13235800       2.75607164
P        0.55412497       6.63879316      12.51028788
O        8.96051437      10.94287685       9.31307427
O        3.77872511       4.85764647       4.58925840
O        1.86811566       0.59683157       2.04751729
O        2.48555232       6.24388516       2.66496131
O        2.94586282       9.17618120       2.09650333
O        9.96822478       6.19674644      11.33392929
O        0.10686738      10.94586097      12.67931051
O        0.57758993       9.11412902       2.65914260
Li       8.83179407       3.45571817       7.84009527
Li       7.09134037       8.64992183      12.73611177
Li       3.15511816       2.83936158       9.60413404
Li       8.87422815       7.31854456       2.49175854
Li       1.76772072       2.93242285       3.62049777
Li       9.72186117       0.63169824       1.47766285
P        1.31320152       4.00058615       8.13030686
P        7.85528582      10.04610668       9.91655476
O        0.90991865       8.20711234      12.32953193
O        6.11873547       2.67481018      11.87524970
O        0.43371763       4.94524813       7.33502998
O        9.34925487       6.85848188       4.57653309
O        0.35417201       2.82811110       8.37982917
O        7.38292688      10.31262692      11.41970030
O        4.37785145       7.26907429       3.90979433
O        1.60748273       4.52490617       9.55767743
Li       9.68480197       5.39804180       5.90269534
Li       2.47897411       0.65255504      10.24191561
Li       1.60253486       4.07150838      12.20408105
Li       3.90998259       2.41091526       6.84941298
Li       3.22149371      10.56013198       0.56424962
Li       2.93797698       8.71456446       5.51087082
P        9.38379107       2.37276379       4.56861751
P        6.96561866       5.83809072       1.17595938
O        2.50351762       9.92396643      10.05942059
O        6.21615105       0.83382978       1.55320086
O        8.87684269       2.01315927      12.02515096
N        0.81971674       1.66516214       4.96042513
O        5.47068034       5.87150768       0.49428668
O        2.10153200       7.00768298       4.88437605
O       10.12341714       3.35153376       3.64399245
Li       9.53774829       7.20168602       9.61527469
Li       9.00499069       1.69230463      10.11097143
Li       0.94754977      10.01310399      11.19326387
Li       1.59215022       7.81834200       1.88674254
Li       0.91825579       7.61446143       6.99105945
Li       4.02614981       1.16090680       4.72563467
P        6.71527837       5.46407280       8.60695791
P        2.70256470       8.74578689       8.91624012
O        7.55700092       4.34682835       1.02869118
O        7.40398198       1.69379662       8.64885939
O        5.93070519       6.68339638       8.35649718
O        2.87904099       0.86182532       6.26773653
N        8.14785028       5.72225510       9.25073396
O        3.31058179       9.15192468       7.55721307
O        6.77373773       7.35830949       5.24919696
O        7.13560285       4.68518066       7.36512738
Li       7.89446178       4.25901211      11.88274592
Li       5.97728960       7.96566397       3.83771891
Li       4.24549665       9.60580167       2.77041883
Li       4.04376591       8.43774093      11.74338148
Li       9.53668858       3.83542365       0.71465038
Li       7.24695318       8.07083624       8.07526497
P        6.43480133      10.38223314       1.85713871
P        3.16486558       6.31531250       4.03233368
O        8.92532849       8.03859546       6.80583013
O        8.69009560       1.38478901       3.66261512
O        5.53796887       9.34063102       1.24778186
O        1.93884154       6.08533294      12.14438841
N        8.13533440      10.27531595       1.79248529
O        8.77723040       3.29289622       5.56114582
O        7.57314985       6.77405975       0.06081428
O        5.97457341      10.22862593       3.38567731
Li       8.88100319       0.69466893       7.45197360
Li       6.35748047       3.04466105      10.32771651
Li       1.33245539       3.53544179       5.82321487
Li       0.68401637       5.17306255       3.55980387
Li       2.38599919       2.33399835       1.62550825
P        6.03679656       0.87930069       8.50968863
P        8.31621627       7.74912313       5.43363303
O        5.86473952       4.63525809       9.76058211
N        6.55214530      10.44217684       8.94102217
O        5.35709894       0.51621708       7.14295065
O        8.41486559       9.05277153       4.72942237
O        1.23939603       8.38617425       8.81231258
O        4.85710623       1.39382204       9.53593743
124
Lattice="10.1931 0.0 0.0 0.0 10.9684 0.0 0.0 0.0 12.7908" Properties=species:S:1:pos:R:3 material=LiPON model=NEP89 temperature_K=1500 phase="NVT production" source_frame_index=1679 relative_time_ps=167.9 pbc="T T T"
Li       5.15845452       8.51428644      10.53202126
Li       1.48123690       4.07395810      11.62941441
Li       9.82604551       5.41661539      11.17757033
Li       5.66461925       7.24801317       3.36323245
Li       6.92644038       9.74954984      11.88471430
Li       3.11045301       3.58751990       0.79771078
P        5.56154583       5.29587101       7.80534472
P        8.58798619       2.48404076      10.87701458
N        0.41680901       0.61444563       4.13938922
O        1.69857524       9.89233950       2.85215612
O        5.13968469       4.11215405       8.79860028
O        5.66052769       5.39459341       2.81445877
O        7.04601520       5.16639655       6.95900643
O        9.45976943       2.15209069       9.64615161
O        1.42817384       3.56336676       1.01151161
O        5.55805827       6.63920331       8.47697300
Li       9.15932186       0.36750492       1.95608312
Li       9.09472217      10.33369937      12.42142053
Li       5.05384889       0.85838228       3.78185023
Li       8.52151914       7.60363475       1.64443727
Li       7.46104985       1.28470447       3.37006469
Li       3.51597404       3.76805282       9.48374019
P        3.85826791       2.12096992      11.40704615
P        1.95657459       0.05614970       4.11423747
O        6.98003221       2.76850596      10.48467863
O        1.65411498       3.05628391       8.95369266
O        4.96741181       1.52166452      12.25907966
O        1.10636938       9.99423976      10.22041740
O        3.42044244       3.57389648      11.67943821
O        2.53613428      10.06216039       5.14087924
O        8.68255652      10.91992527       8.61421454
O        2.51388110       1.16175713      11.54251984
Li       9.96019003       4.32768886       6.10995833
Li       1.45862552       1.59521687       0.17396746
Li       9.54777518       2.89471576       1.23019663
Li       7.72795385       3.63413911       6.55658338
Li       6.08485200       1.22738679      10.97665505
Li       9.75175740       1.73924181       7.47184009
P        1.32654213       9.54130957       1.20001292
P        1.11719725       5.12870852       1.18394614
O        6.51968921      10.47961426       9.56687400
O        4.31335236       5.39546038       6.75757982
O        0.66262546      10.86123771       0.52991161
O        3.72625913       6.19188826       4.45050092
O        2.65479354       8.95673901       0.60789906
O        2.11322115       5.63518287       2.20051397
O        8.42108001       1.23673243      11.82675372
O        0.04085613       8.48395751       1.46708353
Li       6.72477992       5.60196130       4.75360554
Li       9.99565674       7.37124944      12.13611218
Li       4.19945637       7.76335052       8.27517730
Li       6.06272923       4.00695052      11.65212735
Li       9.47313132      10.86645596      10.25694841
Li       7.11577586       1.34740293       0.59390347
P        0.87242177       4.35693010       8.71372215
P        7.43654922      10.05386646       8.46336695
O        1.21719052       5.93083188      12.76268687
O        4.21044608       1.93579878       9.91054327
O        1.49514156       5.15206931       7.40304585
O        8.37801429       7.98735056       4.11105508
O        9.63765168       4.13187563       7.99516260
O        7.73423446       8.71426205       7.91704304
O        5.73204276       7.16502607       5.68390510
O        1.14712600       4.91368706      10.10785528
Li      10.02093436       4.96521946       3.65993244
Li       3.81090187      10.03822941       6.61480965
Li       1.39589356       1.18413994      10.04436239
Li       5.86198615       2.27011808       8.71399142
Li       3.25695669      10.37361951      11.90896222
Li       2.90755348       1.52177423       6.85174776
P       10.05666619       2.23773598       4.35649954
P        5.59957799       3.83747098       2.59047396
O        1.98853081      10.69510445       7.89358339
O        6.36200859       0.63465016       2.12446791
O        9.09102392       3.75949422      11.48709829
N        1.04825025       1.26852558       5.16988832
O        4.14735051       3.30613811       2.36095546
O        3.53871605       7.90058910       6.41395840
O        9.12426402       1.93907395       3.15283998
Li       9.37530716       7.98574599       8.62488780
Li       1.05390912       6.99019211       6.92513411
Li       4.76247982      10.71202046       9.20881870
Li       2.30521855       7.87502163       4.22659860
Li       0.85096167       6.99092494       2.48724713
Li       4.10857720       1.35930163       1.63474685
P        7.41276234       7.01638746      11.50455177
P        1.63827079       9.44672669       8.95459148
O        6.40334712       3.19858674       3.72444925
O        7.01190129       1.71605094       6.97116947
O        6.52699101       8.24901676      11.48096713
O        3.00133829       0.63862594       3.27559438
N        8.66641084       6.90354081      10.45081719
O        3.12881035       8.97993312       9.60398858
O        8.80269949       5.65406924       4.86486500
O        6.84497199       5.64637594      11.34544281
Li       7.48678311       4.72493957       9.50257143
Li       9.82925126       9.79166877       3.55891574
Li       3.69025427       4.88125685       3.15034365
Li       2.77614869       7.38168828      12.35489963
Li       7.67594599       5.05309969       0.34824217
Li       7.04139327       9.35406156       5.28864746
P        6.84754562      10.16839477       1.80923897
P        4.28276197       6.80966067       5.80493310
O        0.55725351       6.90308423       4.45066726
O        9.22951366       2.73911759       5.60792559
O        7.85414825      10.12412170       0.52910671
O        9.92495335       5.26496054       1.87565843
N        7.95521513      10.14205578       2.87375543
O        0.87525767       3.47271054       4.14514131
O        6.40680536       3.67089775       1.18851711
O        6.08270193       8.84702592       2.06349524
Li       6.85758459       7.17345403       7.27058117
Li       6.13711516       6.59896727       1.10857834
Li       2.91252679       2.83536771       3.55117572
Li       1.91121019       5.38800198       4.57425802
Li       4.15675409       9.53646966       1.51128024
P        5.98731539       0.69056885       6.29577843
P        9.28397699       7.17348995       4.94570820
O        7.99379665       6.97322056       0.18427294
N        6.17875753      10.50922908       7.43151832
O        6.48020742       0.28179800       4.86326399
O        9.42315313       7.54418902       6.41155442
O        1.10333183       8.24481304       8.35186348
O        4.56196884       0.99048511       6.61943310
124
Lattice="10.1931 0.0 0.0 0.0 10.9684 0.0 0.0 0.0 12.7908" Properties=species:S:1:pos:R:3 material=LiPON model=NEP89 temperature_K=1500 phase="NVT production" source_frame_index=1709 relative_time_ps=170.9 pbc="T T T"
Li       4.55923319       8.11372040       7.52546575
Li       4.05460248       4.25873457       0.42945097
Li       2.36701400       3.76753903       9.12762883
Li       6.56722273       7.03647162       3.01236650
Li       8.97037133       0.28814701       0.26349335
Li       3.06137418       2.58471881       5.53357908
P        4.09906722       4.90730050       7.16681128
P        9.47777063       3.49813168       0.61851798
N        1.43319804      10.75661068       4.36735950
O        1.99870621       0.30324319       2.14284108
O        3.73560080       3.47615200       7.00054994
O        4.59531279       4.16519165       2.67374048
O        5.74913393       5.10142109       7.17585092
O        0.75638631       3.32042974       0.18446030
O        2.86959007       5.81383674       0.99283231
O        3.17599016       5.65096909       8.20297748
Li       8.55671457       1.72544096      10.84014716
Li       8.34917775       2.18781572       2.61851019
Li       5.66660051       9.57502804       4.03865517
Li       9.76619262       8.38956661       0.28329232
Li       8.70160471       0.04298822       4.05791171
Li       3.39051556       5.73032468       2.65131801
P        4.41682238       1.82410817      11.17945544
P        0.77608131      10.53338432       2.68146474
O        8.93592263       4.63937346      12.57363041
O        7.96986652       3.47498371       9.83875969
O        3.85684220       0.42873408      11.60574104
O        0.36757173       9.74086899      11.63227190
O        6.02475781       1.63943211      11.03208834
O        9.46238572      10.89001294       2.32842594
O        6.60916888       0.41168855       8.01065364
O        3.95239356       3.02563208      12.02482601
Li       1.62312279       6.82234233       4.90098012
Li       7.65830223       6.10226378       0.49942136
Li       7.83540966       4.02865993       4.20801461
Li       0.00667167       3.50582875       6.66932771
Li       6.84393221       5.04330966       8.93625137
Li       0.33877577       1.11557057       8.54412942
P        3.64466556      10.62604356       1.86532609
P        2.49792833       6.45408398      12.39075935
O        4.34664755      10.01612085       8.17225831
O        3.84622237       5.52415008       5.56188760
O        4.50916380       0.80257433       1.45920343
O        3.86637725       7.26206700       3.56888364
O        4.23255534       9.78291060       3.11799748
O        3.38382842       7.48589535      11.80374524
O        8.75012322       2.16623138       0.50568876
O        3.31504977       9.67524870       0.67593685
Li       8.65603056       5.71963046       2.42779500
Li       6.72043088       3.85283685      11.22551160
Li       1.45056895       9.35461447       8.00044609
Li       1.91298033       3.27954351      11.82794867
Li       6.27843926       2.05928590       9.05813907
Li       5.40016590       6.81244325      12.00343956
P        9.50909978       3.37214718       9.35498085
P        5.44743228      10.58786431       7.33847273
O        2.51020303       5.30686910      11.34267068
O        4.02180270       2.07929931       9.65080706
O       10.18617780       2.34433184      10.29351779
O        8.79314550       7.86325793       5.38512789
O        9.68359299       2.53051108       7.96652861
O        6.14441472       9.29650819       6.58095332
O        5.76095530       7.39669718       5.00022411
O       10.00482214       4.80518483       9.25054124
Li       8.15430490       1.28341681       6.92417861
Li       7.24128263      10.25945722      11.25115984
Li       1.14831887       3.92142277       2.66777178
Li       1.07924839       0.47034510      11.76075552
Li       5.35379062       1.67406329       2.62594743
Li       5.37469703       3.76712352       4.36531661
P        0.69000076       0.53297256       5.81778115
P        6.20599311       4.60688819       2.28130798
O        9.56190309      10.44294011       9.44809723
O        7.70765085       9.89389168       0.32891961
O        9.53406622       3.93199196       2.12360970
N        0.24873901       0.23545453       4.21353890
O        6.08711055       5.30188284       1.04401047
O        3.38127744       8.00565568       5.81012318
O        0.98241868       1.91778342       5.53390896
Li       9.42890071       6.56280739       9.43819716
Li       3.85709724       5.97513183       9.96759318
Li       2.30938661       7.42500950       8.70043678
Li       9.45378545       8.22648449       3.06452407
Li       4.09461222       8.10480290       1.38902005
Li       4.64075592       1.97034378       7.47931570
P        7.23017862       7.52722214      10.41042208
P        0.46357003       9.60951360      10.10300156
O        6.54225470       3.05550486       1.97897380
O        6.59804006       2.63619626       5.48207191
O        6.22139154       8.87238185      10.50361156
O        0.90909150       8.95046110       2.75596402
N        7.90123271       7.80323930       9.05955191
O        1.65359340      10.31969410       9.52138283
O        9.03784974       5.38219766       5.76109443
O        6.46010166       6.20784031      10.42635093
Li       9.58507186       6.39424665      12.37080867
Li       1.64332395       9.10101482       0.62517601
Li       3.61188124      10.44862780       5.63155661
Li       2.39291702       8.89416143       4.10133389
Li       6.49925897       1.62042832       0.76615142
Li       6.75478792       6.40435250       6.06203512
P        7.20570761       8.63832613       1.19563913
P        4.27734665       6.97581089       4.96351994
O        0.17149169       6.45738632       4.01532529
O        9.42174962       0.29781435       6.31404694
O        6.01674667       7.94696156       0.71707931
O        1.09912210       7.04368145      12.78798357
N        8.33897693       7.59637787       1.36607986
O        1.82865764      10.76495526       6.71202923
O        7.01686945       5.27024755       3.40374055
O        7.13815302       8.72960076       2.67717005
Li       7.21470329       3.74596848       6.86108709
Li       2.65133518       1.17802089       8.73625304
Li       8.05666953       9.23277512       7.67058879
Li       5.59180437      10.49087060       9.98795575
Li       4.37077894       9.37613026      11.47146878
P        5.83956642       1.36589250       5.22821294
P        9.67332315       6.66866191       5.48472636
O        8.42921666       7.59792953      11.43861985
N        4.92454539       0.62863449       6.25745342
O        6.82107027       0.33050332       4.45317640
O        0.79422538       6.91207832       6.45287469
O        0.42018549       8.00796786       9.67349735
O        4.38091141       1.83505419       4.69096163
124
Lattice="10.1931 0.0 0.0 0.0 10.9684 0.0 0.0 0.0 12.7908" Properties=species:S:1:pos:R:3 material=LiPON model=NEP89 temperature_K=1500 phase="NVT production" source_frame_index=1739 relative_time_ps=173.9 pbc="T T T"
Li       1.21993151       6.32186188       5.55675883
Li       4.11477094       5.29164139      10.72484657
Li       2.86232666       7.46458351       8.19168506
Li       8.73275368       6.05854650       0.28441774
Li       1.61930385       1.73654689       2.30580294
Li       4.26386648       9.85959377       7.67382419
P        3.45093602       5.52418649       6.81144324
P        1.94911374       5.01214235       0.49179656
N        1.76650452       9.59272349       4.20747472
O        2.12464886       9.91428340       1.93803451
O        4.41103085       5.74210074       8.07366836
O        6.16460236       3.67236608       2.95728720
O        3.43201900       6.66000226       5.75008103
O        3.35467007       5.25326053       0.96626928
O        1.77092471       8.55473717      11.58329786
O        1.98509521       5.50992924       7.51313834
Li       1.49995321      10.27154569      11.15683036
Li       9.53833281       6.89053130       8.45509654
Li       5.73265540       7.21309385       5.78268350
Li       4.93992423      10.02461655       4.53773451
Li       7.18214718      10.69398175       1.14566639
Li       1.12105928       3.93329388       7.55433654
P        4.79980423       2.01344735      10.08838154
P        0.72873640      10.07737210       2.93473669
O        0.71467948       5.90063230       0.40312299
O        7.05406954       4.71513496       9.04270659
O        4.26027833       1.42451603       8.70111172
O        9.25948218       2.05502927      10.71722792
O        6.35269563       1.74162834      10.35973432
O       10.14992279       0.40722471       2.41369968
O        5.72410672       8.28264087       7.96415517
O        4.21814835       1.45904185      11.33273620
Li      10.11593320       3.67332937      12.28358050
Li       3.59069170      10.76066190      10.46924137
Li       7.90937394       5.21289136       2.80413835
Li       5.20303409       5.57866150       0.31015468
Li       7.50688354       2.82861160      11.70680162
Li       5.36414647       4.21825327       8.40648282
P        2.78177190       0.06047499       1.06763753
P        2.92480034       8.49108375      10.47458940
O        6.97531748       8.54998749       5.60084149
O        3.10881768       4.21033903       5.76901621
O        3.07208154       1.52237486       1.31716127
O        1.20610945       3.02620224       4.17777467
O        4.24976782      10.55296453       0.83426620
O        4.28615286       8.88098442      11.00387628
O        2.16177339       4.28567219      11.79864108
O        1.82936204       0.11074122      12.57946718
Li       2.47058480       3.29187876      10.29080793
Li       4.56101066       5.07886895       2.50232325
Li       0.26681155       4.12036692       2.95012580
Li       5.74115874       7.82946123      10.13558011
Li       0.12358067       1.78140328       5.33965776
Li       5.21919863       9.66313346      12.50249395
P        7.11354921       5.68846833      10.40045180
P        6.72198924       9.06125112       7.01239995
O        2.95200434       7.03007446      10.04525294
O        4.47589247       3.39117729       9.89795018
O        8.13314999       5.08088891      11.33143852
O        9.23444864       4.95180084       4.28306553
O        7.58590297       7.12032626       9.79899315
O        8.14081304       9.07024483       7.58838800
O        3.52122472       3.92068595       3.57225975
O        5.84347478       5.96100886      11.19091749
Li       3.66376999       1.91018876       3.12030869
Li       0.95192002       4.80889781      10.34444375
Li       9.21179292       8.04377627       5.93328820
Li       2.49112249       1.89075498      11.94348239
Li       9.12537552       0.07104062       7.02359350
Li       3.55281544       1.56482784       6.60237096
P        1.56325657       9.95141286       5.93360859
P        6.97915986       3.23354129       1.73486904
O        9.67438491       1.22830345       8.39467328
O        6.80355973       8.70997826       2.72773693
O        1.15061316       3.79794181       1.26683352
N        0.77503453      10.34821557       4.44317110
O        6.83184580       1.67327823       1.21042516
O        1.63746244       5.39263724       4.02706147
O        3.10121520       9.77848517       6.16602391
Li       1.07315973       9.93450919       8.43811213
Li       3.45216898       8.24169500       4.55625798
Li       8.25868106       2.57897373       7.57708985
Li       0.22547677       7.69135946      11.76286782
Li       3.74436290       7.54752328       0.63802052
Li       6.82278265       2.93202585       9.14956184
P        8.40141319       9.48928657      11.61027020
P        0.19232510       1.81080944       9.74000117
O        8.31315945       3.55416896       2.31149575
O        6.72581760       1.74000526       7.55974206
O        9.36346831       9.46921941      10.46608894
O        0.04458185       8.70286416       2.45235551
N        6.90715227       9.71227768      11.30624243
O        1.03637802       3.09214960       9.24889885
O        7.19089677       5.39292339       5.66943919
O        8.53555764      10.81033595      12.66013386
Li       9.79645553       1.04204442      12.71897538
Li       1.07317735       7.06063231       2.24205455
Li       8.46736290       7.81045302       3.13934710
Li       5.78170040      10.85308649       8.72455913
Li       4.99035525       1.08478229       0.25402314
Li       7.13278284       5.88939602       7.60007513
P        6.41659686       7.41825675       2.05571953
P        2.29383408       4.09897107       4.44664799
O        9.21622021       3.77792481       6.56421137
O        1.13639451       0.42035375       6.40497338
O        5.39063163       6.61258197       2.84947527
O        2.75310899       9.37095917       9.21228835
N        5.57862498       7.54769967       0.84186808
O        0.71440713       8.97938677       6.80312903
O        6.55022758       4.08410307       0.49036408
O        7.61394352       6.62326363       1.76276935
Li       5.98024922       3.73981004       4.86948506
Li       8.36138133       0.05105675       3.86525357
Li       7.72779223       9.18983112       9.27442088
Li       2.44020739       0.98692612       8.50633324
Li       0.20991395       9.64469081       0.49279294
P        6.40034509       1.01137584       6.25360314
P        8.76882769       5.13255203       5.69946953
O        8.75637869       8.36420406      12.58078632
N        6.13293029      10.61896345       7.11463417
O        7.69796240       0.80166975       5.36432061
O        9.52546999       6.33145022       6.73055567
O        1.42030462       0.89126964      10.25758281
O        5.02741049       1.41953333       5.60291034
124
Lattice="10.1931 0.0 0.0 0.0 10.9684 0.0 0.0 0.0 12.7908" Properties=species:S:1:pos:R:3 material=LiPON model=NEP89 temperature_K=1500 phase="NVT production" source_frame_index=1769 relative_time_ps=176.9 pbc="T T T"
Li       0.41610405       5.91903065       4.22927292
Li       5.64294850       8.38067160       9.75542211
Li       4.51112418       0.47928986       6.66987247
Li       3.97486618       8.10727290       8.06092263
Li       1.26329118       2.61988934       2.91127233
Li       6.22835465       5.89596626       7.04695620
P        3.77340601       5.47332081       6.51398286
P        1.59419934       4.46680414       0.79648820
N        1.56957975       9.02553000       5.13577891
O        1.94838189      10.02319683       2.57567356
O        4.65472893       4.69792239       7.52538606
O        8.39936581       4.72234889       1.10311005
O        4.22579020       6.84631721       6.37506670
O        2.32446434       4.59861603       2.07191187
O        1.43926562       7.87777472      10.20072937
O        2.42921474       5.41751928       7.28031738
Li       4.13654331       1.49767625       0.31853303
Li       8.16123582       7.57703367       4.50530025
Li       5.78321133       6.61627991       4.43914995
Li       3.79074353       1.10706261       3.27580033
Li       5.41361056       4.78725463       9.61399054
Li       9.00296576       3.70358313       7.91663913
P        4.65137621       2.06597259       9.92547227
P        1.13771784       9.15103013       3.61879398
O        0.90397335       5.81530847       0.47885254
O        7.65824415       4.86815656       9.56271394
O        6.24598328       2.01736200      10.26171493
O        0.29378855       3.09795732      10.67851162
O        4.32353603       1.22324941       8.73124940
O        9.69437526       9.07326519       3.19410700
O        5.60722912       9.25029874       8.12728631
O        4.17232342       3.46954261      10.21193758
Li       7.51360709       2.69292437      11.17368796
Li       2.46666020       0.43055073      11.03854184
Li       6.18667174       9.02187447       3.42175041
Li       9.60301783       4.51783565       2.44768765
Li       6.78623659       6.64337798      11.98187267
Li       0.92416674       9.94867299       9.71308956
P        1.69058266       0.20832740       1.35068618
P        2.91636473       7.66035600      10.53685854
O        7.34891270       8.07846033       6.68792097
O        3.49429505       4.62415361       5.22676700
O        0.25902641       0.55749922       1.58649648
O        2.90989511       2.58475778       6.47483865
O        2.87701377       1.54127748       1.58043729
O        3.36283883       6.44362198       9.71767369
O        2.74892443       4.29312474      12.52029798
O        2.07528818      10.56355626      12.78111083
Li       1.51276109       6.70758705       8.67591574
Li       4.31048847       3.33886533       2.07843875
Li       9.79243689       4.32626687      12.21059848
Li       2.87423065       4.96425539      10.52561469
Li       2.58869842       3.74839978       8.23735718
Li       1.40200491       8.91269918      12.12883512
P        8.56951701       5.97627035       9.76382246
P        6.79785044       9.38353425       7.34906733
O        3.90680626       8.90004611      10.16166885
O        3.93476772       1.30581204      11.13771943
O        9.59656797       5.86741943      10.80763135
O        7.96178840       3.79069258       3.85685701
O        9.32187077       6.67283548       8.59880248
O        7.80332291      10.31251540       7.87079094
O        4.46513830       2.55872535       4.13991554
O        7.41016186       7.01307314      10.04376534
Li       8.98908590       1.87886516       3.81859926
Li       5.17535452       9.04028316      11.54776800
Li       8.80976131       9.74865775       1.89798912
Li       9.65185756       2.02604122       0.57773635
Li       9.35300478       0.11173174       7.68773330
Li       4.12661441       8.58467295       5.96212135
P        1.29872540      10.23753457       6.64852847
P        7.23594710       3.83888083       0.76635043
O        0.83031385       3.27624251       8.28235056
O        5.20698118       8.75316598       0.84622322
O        0.46880009       3.31650436       0.91912765
N        0.84152822      10.14611903       4.94946319
O        7.96128903       2.52766626       0.29917585
O        2.38392036       2.43607480       4.12594991
O        2.82610621      10.28375287       6.88631825
Li       5.97988839       3.64186191       6.69392904
Li       2.31297475       0.79708756       7.73760042
Li       6.89526716       1.25911120       7.97447213
Li       3.02979542       5.82373007       3.54785859
Li       2.36269704       2.93956547      11.36055906
Li       7.77294903       0.01010524       9.88154425
P        8.24849986       9.59502376      12.07028138
P        0.39244857       2.19529485       9.52333148
O        6.60015897       4.37292027      12.24223265
O        6.12434557       1.73967945       6.00276799
O        9.28833847       9.39560295      10.85317988
O        1.47386725       7.66940496       3.42727870
N        8.09111006      10.89664500       0.12636976
O        1.19992167       0.92078266       9.74684698
O        7.05230385       4.82885957       5.97335721
O        8.63822973       8.51515556       0.41680670
Li       5.94297507       3.48381580       4.54465355
Li       2.47054294       7.28859825       1.12514382
Li       8.68156358       8.39827619       9.26834863
Li       4.18610066      10.33320249       9.32944484
Li       5.86119462       0.37589251      11.68447218
Li       8.12331538       7.22234205       1.51300572
P        5.38664516       7.48296206       1.71362431
P        3.36949437       2.98856547       5.09173115
O        9.41060339       3.67518422       5.91954783
O        0.83120404       0.70916146       6.69771062
O        4.05181163       7.19556101       2.62234816
O        3.09029103       7.41253504      12.09457224
N        5.32597733       6.43016546       0.69263529
O        0.55780452       9.43897025       7.74713086
O        6.07989365       3.66832906       1.81237390
O        6.78740876       7.36601357       2.76369749
Li       8.99484163      10.01367672       5.04680336
Li       0.73729532       2.48950039       6.23533321
Li       9.42004155       6.11291164       6.99295327
Li       6.58514310      10.90549578       1.46380639
Li       4.43490620       5.24456471      12.46788897
P        6.49055447       0.38194382       5.22391794
P        8.46522407       4.56014546       5.21989120
O        6.72939240       9.76882244      11.28818971
N        6.43962872      10.23226634       6.21760630
O        7.76933760       0.35152223       4.21033773
O        8.98752974       5.92924646       4.86397669
O        9.00086142       1.92359328       8.97492543
O        5.41844545      10.87068485       4.34188307
124
Lattice="10.1931 0.0 0.0 0.0 10.9684 0.0 0.0 0.0 12.7908" Properties=species:S:1:pos:R:3 material=LiPON model=NEP89 temperature_K=1500 phase="NVT production" source_frame_index=1799 relative_time_ps=179.9 pbc="T T T"
Li       1.85128388       7.45830944       5.56204100
Li       4.30577895       9.04320861       8.69595677
Li       5.81295417       9.09956838      11.38942790
Li       2.53602498       9.75992759       7.76542780
Li       4.05833471      10.66943735       6.04870505
Li       6.55808867       6.38917133       6.25023926
P        3.96249404       5.72126669       5.34708421
P        0.77953438       4.91951474       0.36961134
N        0.32394408      10.02602876       4.44233015
O        1.84322678      10.56187881       2.51149474
O        4.91504018       6.94976769       5.41406810
O        5.98807119       3.10448982       2.93814774
O        4.24124385       4.83389020       4.14130499
O        9.97787496       3.86024757       0.80788188
O        3.15532591       6.75014702      10.70026260
O        2.56420060       5.68628783       5.90378688
Li       6.92866129       3.26418577       4.65525709
Li       1.48002628       5.16722537       3.96242969
Li       9.29469934       1.87342629       4.59303283
Li       6.50151566       4.53948346       7.94834070
Li       4.08810009       7.97457860       6.63131901
Li       2.66590502       5.31892176       7.82064264
P        4.36696660       0.67664787      10.79017507
P        1.21947488       9.19948490       3.15138826
O       10.16284940       6.25582498       0.03454034
O        7.83474493       5.72389289       8.46023653
O        6.03118336       0.70515860      10.70433838
O        0.37120588       3.81403970       8.69303735
O        3.61456122      10.86369066       9.56430040
O       10.07729865       9.07644567       2.61475255
O        4.94819863       9.93804275       7.21872560
O        3.96969253       2.16884958      10.79781224
Li       9.54259948       5.77674300       8.56050717
Li       2.15421373       2.03537046      11.14073081
Li       2.89874777       8.04210611       1.44639499
Li       7.30586079       4.86476061      12.30443142
Li       2.99337953       3.23593735       0.56100477
Li       0.86136399       3.66162932       2.67477578
P        1.88435760       1.21979079       2.60509175
P        2.08728108       7.35643035       9.56224443
O        7.25872777       8.48056501       6.80990678
O        4.92365828       4.79038050       6.57990689
O        2.91354197       1.61125841       3.86312642
O        5.88278215       2.71882382       8.12179736
O        2.35350125       1.78295251       1.40411970
O        0.71958338       6.59369407       9.42307635
O        1.76653252       5.02921280       1.51168791
O        0.36769886       1.92634708       2.77738846
Li       2.17147065       1.93987849       5.50044689
Li       3.95868040       5.42538581       2.24446364
Li       2.14821344       4.67203467      10.01609052
Li       4.76484846       1.16627624       3.16822166
Li       2.75776130       1.09287315       8.32864643
Li       9.62317044       0.21559974       2.81301910
P        7.43682761       6.35721497       9.82318850
P        6.47743354       9.82974492       7.25294491
O        1.64990223       8.79922294      10.02985120
O        3.99418290      10.61522444      11.86702806
O        8.51803504       6.56927479      10.89947141
O        9.67830335       5.47621861       3.61471944
O        6.54214099       7.56319250       9.49441874
O        7.40080538      10.56426715       8.52267225
O        3.36243083       2.42884668       7.31024732
O        6.41222620       5.23947506      10.66861386
Li       6.97097409       5.29786063       2.68635240
Li       5.89466261      10.06605436       1.27214510
Li       8.57680632       9.01697559       1.77640658
Li       0.09274574       2.00745530      12.17057853
Li       8.31651384       2.21235215       7.23265939
Li       6.28123079       1.22357676       8.89914105
P        0.77685526      10.41022976       6.03182890
P        5.60578722       3.06281622       1.43985604
O        8.59586306       2.30047497       9.10765023
O        6.09640336       8.45931682       0.13277121
O        1.82843642       4.31025985      12.06751150
N        1.19358515       9.24902543       4.83104241
O        6.89517258       3.30885307       0.49439398
O        3.94543341       4.07430679       8.89276567
O        2.25055999      10.80230027       6.23861984
Li       8.31195061       9.20342281       5.06300180
Li       2.44630826       9.89186757      11.45157479
Li       4.50159444       3.30414839       4.01313941
Li       8.85099442       2.94202001       1.49801438
Li       3.73322646       0.41723589       0.58339226
Li       5.51359054       3.38715606      10.28067056
P        9.45299316      10.36322013      12.36615436
P        9.72524315       2.99154832       9.77022720
O        4.45503175       4.00100827       1.37914902
O        6.84734222       1.42539910       4.45399856
O        8.95927259      10.26940600      10.70694184
O        1.91936210       7.96096709       3.03137434
N        0.61972423      10.90658715      12.22551812
O        0.55840041       1.88872244      10.32768583
O        7.32741343       5.18902976       4.59859403
O        9.22769115       8.87311511      12.71220145
Li      10.10892367       7.12489229       1.43101833
Li      10.10211915       8.41485732      10.80985400
Li       8.87760604       8.05939937       7.16156427
Li       7.67543588       0.47994394      10.16874319
Li       6.82777795       1.29276374      12.34154492
Li       7.94674135       7.52073273      12.18202406
P        5.81131524       7.27955698       1.12655050
P        4.53240829       3.39934044       7.63743344
O        8.93355838       3.46915665       5.01937687
O       10.16785080       0.78372799       5.93209274
O        6.64428725       5.97961291       0.96162589
O        2.92166388       7.74708697       8.14758230
N        6.38093802       7.98285912       2.49703154
O        0.29278056       9.33673239       6.93114490
O        5.12595238       1.48850940       1.11628080
O        4.40340078       6.76082388       1.10300694
Li       5.18422266       7.96023389       3.84863812
Li       9.56932351      10.89507660       8.98680885
Li       0.14118120       4.39582951       7.03560995
Li       4.10048839       5.36123073      12.45804192
Li      10.15117666       5.54096605      10.82675086
P        6.62823169      10.93346463       4.28136445
P        8.83301496       5.03125402       4.91781072
O        8.51610084       0.40637323       0.27353379
N        6.71821951      10.70932039       5.94131885
O        7.79086986      10.42251152       3.35298931
O        9.44292044       5.77336406       6.08245792
O        9.17773852       3.83531301      11.02668455
O        5.22805667      10.45472804       3.94690946
124
Lattice="10.1931 0.0 0.0 0.0 10.9684 0.0 0.0 0.0 12.7908" Properties=species:S:1:pos:R:3 material=LiPON model=NEP89 temperature_K=1500 phase="NVT production" source_frame_index=1829 relative_time_ps=182.9 pbc="T T T"
Li       8.98960762       2.85160886       6.05905492
Li       4.28644959       0.94258568       8.26046534
Li       9.11268253       8.73924503       0.89523967
Li       7.07741075       5.71616445       2.10328727
Li       5.68670642       4.98068074       3.93346917
Li       1.76874003       7.94988445       0.77402509
P        3.53095254       5.70697409       5.32136102
P        0.13998022       5.17001032       0.59808078
N        1.91677603       9.49908160       4.84169548
O        1.54596573       0.13986689       3.20055113
O        4.39775659       6.48898079       4.41112984
O        6.85378348       2.25006960       1.19211188
O        1.92098518       6.00554904       5.14810024
O        9.08128840       4.23384871       0.98128863
O        2.55455343       7.11275428      11.67583559
O        3.95505837       5.99128608       6.73953732
Li       7.16148032       4.14342533       7.73155728
Li       4.34520374       8.71034078       3.80789663
Li       9.71147188       9.94243341       8.33344562
Li       7.04524268       1.46769811       6.94075103
Li       3.73961793       9.62244556       8.46858811
Li       4.77515671       4.03499371       9.52488688
P        4.37435404       0.76703881      11.05662926
P        1.31882495       9.49435088       3.31803134
O       10.12605979       6.79301422       0.43262762
O        6.45621856       5.90044148       8.56434977
O        5.39951211       1.76956698      10.26574425
O        8.50526782       2.88156946       7.83145215
O        3.76879133      10.74640149       9.97396818
O       10.07355606       9.17527263       2.59205905
O        5.84588646       8.18776852       6.80883389
O        3.08225984       1.63561092      11.63360002
Li       9.77758535       5.97753471       7.89317748
Li       9.42301662      10.76680477       4.27706935
Li       4.97863970       7.23852595       8.33930846
Li       4.85192717       5.39041631      11.94197861
Li       8.27693206       8.52072038       2.89331358
Li       0.56946134       7.13183642       4.15932299
P        0.89500451       1.75123832       2.93659421
P        2.80111007       6.55510870      10.19765118
O        7.65942452       9.01852044       8.37987832
O        4.04966919       4.02834773       5.35340966
O        1.30502097       2.88277141       3.93695499
O        3.63892678       3.67667296       7.91820826
O        1.68733793       2.07710525       1.59207903
O        3.75629918       5.31720151      10.47086978
O        1.32347960       4.90040587       1.40142196
O        9.62870291       1.91726326       2.48798083
Li       3.25403110       1.63020683       0.99487847
Li       6.42150375       2.62421745      11.63342568
Li       2.60050910       7.38923499       7.56138050
Li       3.64937078       1.03142754       3.83103772
Li       4.20246642      10.49940613       5.95074826
Li       8.79573584       0.03082703       2.05750230
P        7.08736920       5.78948341      10.15562450
P        6.74774396       9.38285416       7.19513266
O        1.52091511       6.35383373       9.31622116
O        5.09706312      10.92993848      12.11053098
O        8.57730396       6.27173304      10.18407059
O        7.64507857       7.07400284       3.59939476
O        6.23869823       6.77328333      10.87138562
O        5.72433947      10.42846015       7.69833998
O        5.79587800       2.60877571       6.70778255
O        6.64014268       4.39622542      10.55930957
Li       6.16824482       0.21196206       0.98092000
Li       9.24863847       2.49226509       0.81042106
Li       8.20546944       6.46407589      12.51546394
Li       9.29988531       3.72167331       2.73635149
Li       1.96600965       4.93504135       7.86559331
Li       4.45592134      10.17764496       0.87876374
P        1.23643116       9.65067023       6.40198367
P        5.48346672       2.72639388       1.63094148
O        9.66728314       4.09168509       9.32826364
O        4.78600375       8.27390374      12.61067648
O        0.47735548       4.79866633      11.86950865
N        0.67478152       9.29698757       4.71545223
O        4.71695577       1.47666375       2.11084076
O        3.74184690       1.70037144       6.55391064
O        2.60171611       9.75433368       7.07558719
Li       9.01477291       8.57092437       6.14408785
Li       0.22005275       3.33791655      11.05813188
Li       6.35762070       2.62123486       4.48340894
Li       1.97907768       2.09805826       5.75136030
Li       7.19125151       2.01309321       9.42488155
Li       1.63392100       1.03170686       7.42957205
P        9.24529373      10.84364503      11.65581500
P       10.09808583       3.08687578       8.18325967
O        4.80686273       3.49816015       0.45735537
O        7.57506584       0.99309939       5.02582521
O        0.54368007      10.29241159      11.46217551
O        2.22470387       8.23145372       2.66788428
N        9.43606217       1.44694438      11.84956919
O        0.69774721       1.92409425       8.71600021
O        7.40191214       4.76054192       4.78694899
O        8.80820404      10.39568105       0.37472816
Li       4.76109024       8.10491235      11.02583629
Li       8.67468194       8.07475544       9.48083749
Li       0.05636446       5.69994939      10.30110998
Li       3.11776021       3.38254809      12.34563470
Li       6.57351469       9.66905107      11.92418824
Li       0.34740325       0.53375221       0.47187813
P        5.81378470       7.74827571       0.96621493
P        4.42661387       3.16328349       6.68210565
O        9.70320453       5.51219315       3.88594890
O        0.53908087       0.11134014       6.29656185
O        7.21783954       8.11567448       0.81592654
O        3.60384931       7.76614728       9.52059398
N        5.55826829       8.25916693       2.35956814
O        0.31840218       8.67797554       7.18824320
O        5.81757705       3.58090501       2.90613754
O        5.48968072       6.36798560       1.56861372
Li       6.80959632       6.66375345       6.84702678
Li       2.87267165       9.41440725      10.55543672
Li       0.42471035       4.64434970       5.09175912
Li       1.67408336       1.05414190      10.74710463
Li       3.86785699       5.88637330       2.38619658
P        6.91323341      10.58139079       4.73621015
P        8.32565827       6.10879934       4.57519706
O        8.02629565      10.69257838      10.76321293
N        7.61044114       9.73614996       5.92151680
O        7.52946926      10.19696671       3.42999087
O        8.90176180       6.68651800       6.08853563
O        0.65554115       3.85727272       6.97953832
O        5.45444275      10.46942152       4.85016399
124
Lattice="10.1931 0.0 0.0 0.0 10.9684 0.0 0.0 0.0 12.7908" Properties=species:S:1:pos:R:3 material=LiPON model=NEP89 temperature_K=1500 phase="NVT production" source_frame_index=1859 relative_time_ps=185.9 pbc="T T T"
Li       9.31909938       2.45128374       4.07226227
Li       8.56384347       4.08686293      11.61300680
Li       0.60505241       1.88956024      11.23772558
Li       2.69144088       6.19693792      12.49471151
Li       8.87096967       2.00653047      12.42525138
Li       1.61209017       7.40629339       2.27970280
P        3.57714300       5.30542702       4.60656510
P        0.90736305       3.83154156      12.74545013
N        0.19406088      10.10135710       5.20626838
O        0.45576589      10.63005088       3.01354972
O        4.53474982       4.59177607       3.62539411
O        6.97592696       2.72102617       0.08482797
O        2.57455488       5.68186804       3.49792050
O        2.08950458       3.53960892      11.81199012
O        2.80058349       7.76472189      11.05115938
O        4.06133900       6.50149312       5.27429484
Li       6.75266340       5.08781182       6.89302739
Li       4.05745676       8.47568538       4.26982387
Li       5.43964525       2.07788103       8.65315909
Li       7.46458284       1.96871740       6.48765916
Li       5.82463548       2.44292986      10.91130546
Li       4.32077122       9.32920082       8.62112280
P        3.72960257       0.87905089      10.57251391
P        1.11715793       9.43907248       3.87106097
O        0.15549706       5.07361742      11.93702914
O        7.21762966       6.41868777       8.28146091
O        4.24738411       2.22674320      10.08845765
O        7.49688134       0.96348990       9.84201598
O        4.58943601      10.66318759       9.87993387
O        0.41212275       8.11607386       3.60750845
O        4.59113358       9.75278401       6.92358869
O        2.23501663       0.54342738      10.08372286
Li       6.29869155      10.55798249       9.95268852
Li       8.40601984      10.29179815       5.87140938
Li       3.29685641      10.77012492       2.11580947
Li       3.57903827       5.48990201       1.92380029
Li       8.18046882       7.27942548       6.91143651
Li       6.70081958       5.82307289       2.93569251
P        0.98887335       1.38376678       3.15528631
P        3.21045938       6.73959371       9.89237213
O        6.79412046       8.53837168       6.50360103
O        3.04705240       4.10974615       5.52501405
O        2.25610778       1.60544744       2.24619253
O        2.75949437       2.84694894       7.80185460
O        9.99118209       2.14741738       2.64398123
O        4.13013899       5.64984135      10.36719180
O       10.08340816       2.67918920       0.33438071
O        0.90280341       1.64998724       4.58925949
Li       8.01679563       9.08528215       0.95006481
Li       9.42854274       1.34605031       6.93635532
Li       4.77729014       9.15178189      11.18919105
Li       2.99728560       9.75517911      12.58594889
Li       0.75329601      10.60334481      10.06911755
Li       2.26526222       1.45252695       0.15602452
P        7.77142977       7.26830594       9.46064424
P        6.01426347       9.87671107       6.37852540
O        2.01801595       6.15926450       9.17679319
O        3.72786559       0.90656002      12.03489632
O        9.41798671       7.08996728       9.74029520
O       10.08139056       4.37834189       4.10165106
O        7.17874480       8.74526232       9.51061421
O        6.59257915       0.04423707       7.14876670
O        4.64289478       4.65395060       7.61542279
O        7.33523138       6.54796479      10.72709743
Li       1.50801402       4.56547666      10.19892582
Li       9.56647990       5.85803268       3.12025724
Li       3.29517490       0.05683820       6.24777003
Li       2.53858485       7.18658695       7.64600975
Li       1.73790996       6.86909578       5.18883343
Li       5.87740800       4.02274022       4.28791463
P        0.43829356       9.62559406       6.90606321
P        6.08145579       3.42012126       1.23862061
O        7.03505998       3.50179381       9.75142373
O        5.84751838       8.15289971      12.36043867
O        1.73488636       4.08329859       1.27338555
N        1.30406396       9.61654486       5.60563296
O        6.94408810       3.88996760       2.37599192
O        5.16725720       2.36182039       6.70191757
O        1.56166064      10.32252542       7.88685513
Li       6.05653181       5.27098265       8.98261514
Li       5.92182049       0.67958434       1.10556333
Li       5.86632356       7.45747480       7.60384489
Li       1.10329842       3.76397040       2.74362247
Li       2.50560163       1.11657048       8.44261456
Li       7.85912724      10.08736593       8.21466270
P        0.14428780       9.96014972      12.78254558
P        8.04991095       2.33403046       9.50062384
O        4.91766222       2.37595944       1.61606844
O        7.95369209       1.06781240       4.90225237
O       10.07083469       9.10876164      11.51879788
O        2.56906632       9.49044374       3.81187799
N        0.31165954       8.80418658       0.97036597
O        9.26509651       2.70378268      10.30808051
O        8.12179499       3.66372068       5.93738570
O        9.16890163      10.86330257       0.38835951
Li       5.79907782       6.08967420      11.86751630
Li       0.49733133       5.96323108       7.67248526
Li       3.40229906       3.90580169       9.36058703
Li       3.94951581       2.92385706       0.22152185
Li       8.70434064       0.85478121       1.73777891
Li       3.69842482       2.11434239       3.23323844
P        5.24170424       8.35805866       0.97044551
P        4.01040631       3.37921504       7.06240416
O        9.48444002       5.54021405       6.48203003
O        9.42579867      10.46841129       7.20001378
O        6.12199174       8.26587326       2.29798050
O        3.82737243       7.67064588       8.71393340
N        4.51301422       9.84681638       0.97169653
O        0.32789755       8.10043249       7.39699750
O        5.38131038       4.61411593       0.58269791
O        4.01366624       7.47565369       0.88748962
Li       7.01742414       8.44397212       4.46882945
Li       0.67731084       8.36213772       9.93352632
Li       8.76166891       3.22192357       1.44252286
Li       1.11650917       3.35043349       5.40703859
Li       9.91491355       7.06585795      11.64041542
P        6.78238578       0.48992984       4.01323610
P        8.76043618       4.86069292       5.29725974
O        1.48020424      10.82445243       0.14024611
N        6.23906522      10.15995453       4.73765462
O        7.29046052      10.91295647       2.64551737
O        7.69029007       5.79112973       4.52202596
O        8.41074581       2.29835814       7.97877253
O        5.58436388       1.46073984       4.04004290
124
Lattice="10.1931 0.0 0.0 0.0 10.9684 0.0 0.0 0.0 12.7908" Properties=species:S:1:pos:R:3 material=LiPON model=NEP89 temperature_K=1500 phase="NVT production" source_frame_index=1889 relative_time_ps=188.9 pbc="T T T"
Li       7.02771425       3.33897332       6.85438083
Li       6.02326926       3.45040743      10.46709179
Li       0.76877789       2.75523863      10.69401896
Li       8.27493909       6.39042601       2.08607797
Li       3.51383433       7.38817169       2.72723379
Li       3.67538754       9.10311622      12.08124106
P        2.99034980       5.58303081       4.42190735
P        1.65693520       5.43591474       0.27170622
N        1.30942320       9.65280343       5.00932318
O        0.45442263      10.68542138       2.93280227
O        4.23599505       4.85771948       3.65966308
O        7.00202026       1.65029280       0.26272628
O        1.60036905       5.57936559       3.76494667
O        1.07357695       5.31669820      11.54925557
O        2.65876031       6.58183636       9.24507267
O        3.39546586       6.94327531       4.80185344
Li       8.40645642       0.79528543      12.33254406
Li       5.96432408       9.04938125       3.96411261
Li       6.04278703       0.64388600       9.29467462
Li       2.92170238       7.04066244       6.50694538
Li       8.73277462       3.37828264       4.08839144
Li       1.59104949       0.19438087       9.36274003
P        3.60668704       1.17278304      11.08049835
P        0.86678228       9.22636125       3.46381995
O        0.24380150       5.46723665       1.01327083
O        7.47778588       5.68607486       8.44003240
O        2.52198991       2.24965602      10.93877910
O        8.31605541       0.73593682       9.85848339
O        4.88889709       1.73162884      10.41601089
O       10.03688786       8.35922258       3.02539137
O        6.75280922       8.91294089       7.04299170
O        3.14950735      10.90805240      10.34352800
Li       4.71709612       5.63311743       1.00723584
Li       6.19147708       0.42418593       1.14739281
Li       3.02177408      10.01625020       1.74705803
Li       2.06568720       7.42408845      11.43061488
Li       8.43454283       4.15007125      11.38777241
Li       0.50276902       3.63052704       1.54450418
P        0.92082021       1.38767324       2.88547466
P        4.17403588       6.55137576       9.40166645
O        4.90139557      10.58154838       7.68343005
O        2.73267540       4.72414815       5.91138121
O        2.38411140       1.42564983       3.00866789
O        1.98098857       3.74955497       8.36568834
O        0.33736349       1.61099106       1.50299331
O        4.86925861       5.47245362      10.28245573
O        2.41358620       4.11163584       0.56541470
O        0.21782630       2.15226195       4.09254156
Li       0.43281323       6.96441313       6.04443948
Li       3.66901756       0.76129323       8.34331559
Li       8.47834502       8.78358893       3.78309565
Li       0.95474869       7.35277853       9.36107469
Li       8.85044279       0.90755245       6.15993563
Li       8.37819971       8.38119881       7.60662139
P        8.23098486       6.71352364       9.34797488
P        5.99011682      10.25518404       6.56023057
O        4.77021068       6.68489202       7.95556380
O        3.70123841       0.65894059      12.55656623
O        9.65996426       6.36383715       8.99709418
O        8.68861159       5.24240347       3.93737812
O        7.85141457       8.22792912       9.27424355
O        5.03835103       9.87721287       5.43408775
O        4.46575933       3.37969273       7.12796485
O        8.03077970       5.94652078      10.75735680
Li       9.02117726       6.49425537      12.15412337
Li       8.70685633       0.87575491       2.29136894
Li       3.69981331       3.12928882       5.17578026
Li       3.37183047       8.85445928       4.90940889
Li      10.17566037       6.24750991       2.94387720
Li       6.01912423       5.21838089       3.89473057
P        1.05718205       9.31898868       6.69493431
P        6.79123815       3.23756202       0.64287195
O        7.16173998       2.73762115       8.80008387
O        4.60861403       8.60374076       1.33125403
O        2.50838270       6.67875854       0.15316642
N        0.24277359       8.87975589       4.89333248
O        8.40740523       3.80154578       0.73750050
O        2.15221138       2.27208536       6.40550055
O        2.08454750      10.54343543       6.99733943
Li       3.41912073       9.05275949       8.64285820
Li       3.07590036       2.74746996      12.71261545
Li       6.28897682       7.00212562       6.80493442
Li       1.06688256       1.17889643       6.98057089
Li       3.27187610       0.30887684       5.12769449
Li       7.97605319       8.68445753      11.60094375
P        0.48500401       9.39624461      12.17179465
P        8.57862439       2.20248858       9.12252281
O        6.34444696       3.56756235       2.00402680
O        7.63628397       2.35351029       5.06176871
O        0.43508188       8.65114200      10.76177700
O        2.27147502       8.81171194       3.19463402
N        9.72857247       8.29142343      12.69027983
O        9.38950915       3.23409227       9.84435918
O        6.79705038       5.51920823       5.57603211
O       10.08046219      10.85415951      12.19091828
Li       4.54725661       3.08892782       9.30388481
Li       5.25171746       5.07310547       6.76151982
Li       1.45667306       1.13783626      12.57932744
Li       0.38115903       3.45016599       5.60188185
Li       6.01140229       6.24026871      11.34050002
Li       9.74298353       3.75391409       7.70625686
P        6.18584941       8.45093514       0.84977998
P        2.83152670       3.45593063       7.11180281
O        9.32517709       4.82018547       6.28805277
O        9.89690844       9.52110745       7.18286781
O        6.58676245       9.65237225       0.05126241
O        4.38062972       7.99850154      10.04974100
N        6.70000181       8.53357361       2.32937629
O        1.72632077       8.04022037       7.06819698
O        5.65054222       3.68255334      12.37238925
O        6.26732001       7.02751882       0.30212389
Li       5.93061554       9.17393617       9.00427528
Li       1.71481421       5.62621956       7.81832368
Li       4.25054569       2.98515828       2.58347270
Li       9.04128875      10.18228438       9.46203085
Li       2.12252756       4.57586565      10.42084308
P        6.55537828       1.22647822       4.79838592
P        8.43016188       5.65711591       5.43569298
O        1.86718819       9.17701907       0.06525977
N        7.19273833       0.28534008       6.13647113
O        7.03051728       0.32152601       3.51201125
O        8.83604925       7.10895121       5.66103433
O        9.24552151       1.95458186       7.58013405
O        5.16854352       1.91966640       4.68455874
124
Lattice="10.1931 0.0 0.0 0.0 10.9684 0.0 0.0 0.0 12.7908" Properties=species:S:1:pos:R:3 material=LiPON model=NEP89 temperature_K=1500 phase="NVT production" source_frame_index=1919 relative_time_ps=191.9 pbc="T T T"
Li       7.18242099       3.49166377      10.96764345
Li       7.46473640       7.27796893      11.23966767
Li      10.17391361       3.47424064       8.10154384
Li       5.75011816       6.00458842      12.37010419
Li       5.85129877       6.40008232       9.02106041
Li       4.68563284      10.21567546       0.36259961
P        4.03540632       5.88770108       5.49899548
P        1.54370044       5.19335551       0.52571847
N        0.48625298       9.09821500       5.65247862
O        9.86739335      10.43035183       3.35129850
O        4.29655310       4.91512279       4.24665583
O        6.15769609       1.78217931       0.02740379
O        2.85827623       6.78182104       5.28273563
O        0.13750684       4.78886462      12.70060814
O        5.63263113       9.83461412      11.59969142
O        5.43259690       6.44336361       6.04228876
Li       8.33006735       1.31598797      12.55572453
Li       8.63123052       5.49900276      12.33862819
Li       8.12999593       9.50420303       2.73168185
Li       3.51178660       8.72810592       2.89474544
Li       5.77945897       1.25374859      10.46369313
Li       4.58124276       8.55094083       5.65053247
P        2.90582701       1.50028736      11.27123743
P        0.75969142       9.41063815       3.99532045
O        1.43271892       6.52561832       1.42935650
O        7.18687917       5.52232433       8.25074574
O        1.23395275       1.45760052      11.14235064
O        7.26202664       0.47612794       9.49131267
O        3.22764127       3.03073554      11.26930200
O        0.72435129       8.04722449       3.30079531
O        7.81424201       0.55194399       5.42194549
O        3.72706656       1.07898339      10.05178701
Li       0.29265626       7.87949020       9.29896997
Li       3.76008200      10.77007539       4.06627621
Li       5.17081801       3.29929373       7.54956558
Li       3.25762645       8.39172995       8.49528776
Li       4.65543751       5.63290876       2.59072186
Li       2.04723578       0.58367628       4.69032629
P        9.85569897       1.04827033       2.76037337
P        4.79356668       8.87642225      10.70608916
O        7.07540530       9.80882773       6.97329659
O        3.70260730       4.70459597       6.67344839
O        8.24440806       1.03018387       2.75292783
O        1.87820608       6.04108448       8.46547145
O        0.22883723       2.05708364       3.81801850
O        3.10607297       8.99367963      10.94988529
O        2.12068072       4.05812440       1.56860093
O        0.17540417       0.96647669       1.40492142
Li       2.37032820       2.33477116       2.03429030
Li       0.72304147       4.68287517      10.65380226
Li       7.24733245       9.27748328      12.54113342
Li       1.10879803       7.05703820       5.63447092
Li      10.00571094       1.26154754       5.38001752
Li       6.01747903       4.47463795       5.51605641
P        8.33978481       5.67655417       9.19138342
P        6.84155001      10.47947251       5.71164523
O        4.79493729       9.52718772       9.14308319
O        3.34801566       0.65077753      12.54115493
O        9.49859282       4.63113115       9.40105535
O        0.49465596       5.26105471       4.37342844
O        9.06349214       6.99177591       8.76229055
O        6.73547462       9.37651186       4.76904763
O        4.08501776       5.12396077       9.24936474
O        7.81679476       5.72952185      10.68774375
Li       2.71663621       7.87584542      12.38606939
Li       8.78438139       6.96954168       3.53259433
Li       7.11311183       3.23603355       4.21282219
Li       3.96895085       4.22046925      12.73886880
Li       3.52259369       3.32055297       3.79642956
Li       6.52295743       7.72080996       4.85620878
P        1.52252016       9.92974807       7.07354908
P        6.12886139       3.36168156       0.33706601
O        7.23640698       2.96101234       8.57214760
O        4.49688623       7.60374174       2.05721562
O        2.60306274       5.62699724      12.35204025
N        0.91316441      10.35810013       5.49223012
O        7.63069061       3.69024486       0.73099746
O        2.03637567       3.51859631       8.66309414
O        1.34248026       0.12370905       7.80701581
Li       1.49039586       6.42728855       3.08927563
Li       4.63703754       3.69987995      10.33748935
Li       7.73341054       7.31391584       7.24346748
Li       7.61811319       2.46329062       6.49976320
Li       1.54799465      10.86811547      10.00978755
Li       0.31207708       2.71968632      12.18699243
P        9.68491197       9.09710818      12.03888578
P        8.00904775       1.85105305       9.25562489
O        4.99264820       3.59933628       1.24077112
O        5.77911806       2.60533241       5.74413989
O        9.82587438       9.58367619      10.64703074
O        2.09987360       9.94862281       3.45555221
N        9.10825117       7.70052303      12.22437260
O        8.33803819       2.32197630      10.78663580
O        8.12847857       4.63257475       4.72045130
O        9.28114046      10.05325118       0.35411575
Li       9.88734883       1.24797292      10.32760014
Li       6.02651794      10.67968198       8.41108381
Li       9.94695415       4.55415331       2.62929858
Li       6.65407272       0.83263950       2.18602973
Li       0.95613307       8.29689985       1.24715607
Li       0.30352024       6.52652610       7.88782526
P        6.12926009       8.00407435       1.97875205
P        2.88981307       4.71997292       8.26895010
O       10.00350338       3.45785199       6.26772492
O        1.19858534       8.72449587       8.17798943
O        6.03991477       9.54422600       2.12512683
O        5.28161275       7.47525354      10.41391978
N        6.98569660       7.26312367       3.03777610
O        3.00084169       9.40277743       6.75793600
O        5.91976178       4.10188032      11.74988384
O        6.67529632       7.21918588       0.71484326
Li       3.88927099      10.80880351       7.71361360
Li       1.55946945       0.55376376       0.28349546
Li       3.25227868       6.72247900      10.29957462
Li       8.14016987       9.53433605       8.99877190
Li       2.07942463       1.83741220       8.18510719
P        4.66174119       1.60068818       5.65180422
P        9.64007959       4.91797991       5.35838943
O        1.09090752       8.94335656      12.45319558
N        5.27757347      10.90508557       5.69044880
O        3.61067295       1.65422957       4.30311670
O        9.41771007       6.05976379       6.33236824
O        9.43580057       1.73213114       8.70093875
O        3.92166296       1.66471285       6.98627183
124
Lattice="10.1931 0.0 0.0 0.0 10.9684 0.0 0.0 0.0 12.7908" Properties=species:S:1:pos:R:3 material=LiPON model=NEP89 temperature_K=1500 phase="NVT production" source_frame_index=1949 relative_time_ps=194.9 pbc="T T T"
Li       8.07404209       4.28018949      11.62011814
Li       1.48299916       6.70296528       3.93256633
Li       1.08275591       3.89598361       6.06153826
Li       8.67464002      10.55583554       8.88402183
Li       5.10003724       3.56799270       6.64098671
Li       9.83979093       2.36073920       1.03675039
P        3.32783514       5.08888152       4.97757841
P        0.93817056       5.17040751       0.44099823
N        0.57631294       9.09035084       5.81776311
O        1.18317524      10.70934138       3.34598069
O        1.93004763       4.66236638       4.32235694
O        5.11239778       4.33428367       1.96597386
O        3.77195028       6.34193102       4.20659811
O        0.12232500       4.09498015       1.68129742
O        4.18905214       8.80715861      10.95630115
O        4.08655330       3.78541993       5.08529847
Li       5.92956653       6.55063237       7.02828767
Li       8.76518657       4.94891621       2.96838716
Li       3.53851547       0.08133707       2.91684223
Li       4.75769921       8.21488739       4.28236169
Li       2.75273718       1.87092679       4.71652716
Li       2.97333976      10.15767136       0.00687017
P        3.75119818       1.68387884      11.16485444
P        1.10024588       9.18975189       4.36849771
O        0.24333326       6.60341160       0.71877909
O        6.90229259       6.16108952       8.57209290
O        3.93515922       3.14899587      11.29225559
O        8.83077915       3.01828325       7.64291068
O        5.13461026       1.03238268      10.49207127
O        0.22271874       8.18669661       3.73158140
O        7.57401545       9.12184357       6.76675639
O        2.50668002       1.27021632      10.33779893
Li       2.17985457       7.15448372       8.59455304
Li       6.34977790       6.82171653       3.51059712
Li       4.43078045       4.49016430       0.22922575
Li       3.12873453       2.24639884       8.71813169
Li       8.39228933       7.04901214       1.00382142
Li       5.28708509       1.63684153       0.90086247
P        0.87675873       1.22461735       3.23983090
P        3.59100416       7.67678957      11.74097358
O        5.37569912       9.68937724       8.06788617
O        2.79887675       5.57151213       6.47814108
O        9.62866018       1.48662901       2.84130107
O        2.08225938       5.35991196       9.11689434
O        0.83300622       1.82240287       4.82544176
O        2.51753653       7.34590950      10.50077943
O        2.38768910       5.03477053       0.88841294
O        2.17085436       1.71639999       2.66653146
Li       3.71736572       8.56717255       9.27589845
Li       2.20576920       1.46243469       0.83539039
Li       6.25692032       6.25875011       0.28604271
Li       8.28120635       2.17672510       4.01818478
Li       5.88959948       0.54248992       8.53572889
Li       8.08264331       4.96743243       7.88545271
P        7.49040998       6.95130058       9.78872467
P        5.99850337       9.34111779       6.71407288
O        4.36704037       6.34015319      12.00742464
O        3.68498491       0.78617881      12.50811707
O        9.12992523       6.99248686       9.53965128
O        9.38150051       4.23395404       4.79465040
O        7.05259754       8.42656952      10.02393257
O        5.49548591       8.02069295       5.88080804
O        4.39650055       4.31206232       8.38891663
O        7.54146481       6.26465490      11.19162544
Li       0.53758082       8.10314165       9.52597489
Li       0.50003092       3.58974517       3.65041802
Li       7.89420069       1.27939863       6.47712949
Li       7.19491514       1.11407238      11.01859718
Li       5.80619000       3.49521525       4.22378086
Li       3.20268425       6.42672310       1.83842249
P        1.30845518       9.76189572       7.30996098
P        6.51846063       4.14310807       1.52202023
O        7.70274684       1.15745479       9.21611297
O        5.24619035       8.12749971       2.39355208
O        0.62772080       4.72810170      11.84037306
N        1.22475684      10.32958215       5.65800501
O        7.50373773       3.20967987       2.15880373
O        2.30523502       3.25342018       7.57096690
O        0.14804070       9.17717735       7.97850445
Li       2.74099419       5.41568321      11.30496424
Li       5.90309536       5.06586733       9.74678736
Li       8.75271367       7.66361563       7.58357349
Li       0.35603225       7.27309022       6.53195228
Li       3.82896425      10.90440614       7.22319981
Li       1.13812028       0.32417291       9.45062376
P        9.71819961      10.87707708      11.95676033
P        8.58929545       2.55080514       9.09521040
O        6.99639325       5.69395520       1.86082711
O        6.76511178       1.52536632       4.86839684
O        0.25347752      10.10819171      10.55838382
O        2.55594662       8.93241560       4.09609485
N       10.13590916       9.59301644       0.23608083
O        0.04976250       2.20942394       9.29418403
O        7.11064521       4.90885153       5.89763005
O        8.24730891      10.75805013      11.59891094
Li      10.03051444       5.28192662      10.20247130
Li       7.99057882       8.32586511      11.97013428
Li       2.99441310       4.00361409       2.18245109
Li       1.03005081       7.95923847      12.14967393
Li       9.28782936       9.83566150       2.33972248
Li       7.55646689       0.57779995       1.98368516
P        6.18035629       9.13879256       1.80511890
P        2.96337076       4.63034478       7.87850817
O        9.15683941       5.89298078       6.80928713
O        2.55253182       8.81468249       7.44751551
O        5.55380096      10.58632311       1.81599059
O        2.74969467       8.08612733       0.12212796
N        7.52398846       9.52867205       2.41200071
O        1.97255979       0.20848106       7.66456044
O        6.70622362       4.01658094      12.66527578
O        6.58927830       8.50394732       0.47187784
Li       5.15150633      10.31631950      11.27616608
Li       1.32377797       3.77295524       9.97880623
Li       3.37736139       8.46712297       5.86841470
Li       7.63939236       9.42895394       4.69224824
Li       0.63150523       2.23076106       7.51059445
P        5.45185319       0.93328612       5.47640274
P        8.55854087       5.29644343       5.41309266
O       10.07059406       1.17967974      12.66796270
N        6.17434812      10.54600966       5.67359821
O        4.36121097       0.74375917       4.35917266
O        8.15274544       6.44502794       4.40666378
O        8.13460132       3.75220108       9.97048160
O        4.85156562       1.52835034       6.83388594
124
Lattice="10.1931 0.0 0.0 0.0 10.9684 0.0 0.0 0.0 12.7908" Properties=species:S:1:pos:R:3 material=LiPON model=NEP89 temperature_K=1500 phase="NVT production" source_frame_index=1979 relative_time_ps=197.9 pbc="T T T"
Li       7.72299194       4.04415409       7.28521801
Li       0.05288517       4.51105494      10.56904747
Li       3.14877651       3.14306973       7.33962099
Li       6.56671099       8.69734266       4.55580692
Li       6.42457158       5.93521906       8.10212661
Li       8.05471271       6.83259263       3.08041087
P        3.00776528       5.16126375       5.14649438
P        1.24529945       5.24607048       0.56545118
N        9.87965554       9.34651950       5.89150999
O        0.68174905      10.59134663       4.21335153
O        1.94988098       5.35599560       3.95973850
O        4.81570374       3.34698481       2.26293229
O        4.46397899       5.69763518       4.71470297
O        1.81134378       5.17348430      11.99484931
O        1.96090977       8.12056659      12.78572412
O        2.87592266       3.65635503       5.53719102
Li       7.54173721       1.09446324       0.09870176
Li       8.89403506       4.37902780       0.89835446
Li       4.90261839       0.95756390       2.97955477
Li       5.57510757      10.71437266      12.12447306
Li       2.95384851       1.57882000       5.41221644
Li       7.99386679       0.22560112       3.59719519
P        3.87162231       1.66301087      10.77112703
P        0.29192603       9.02219060       4.35381037
O       10.13367330       5.85305289       1.18233054
O        7.32005442       7.03708691      10.44418487
O        5.32632290       1.16771239      10.77738373
O        1.01551275       1.57063755       7.42577063
O        3.41673868       1.35974261      12.24149608
O        9.26074156       8.74555267       3.45690705
O        5.74005678       8.87917967       6.36650790
O        3.14847460       1.21657590       9.47852994
Li       5.64422531       2.88152593       8.95114744
Li       4.94739889       6.66794105       2.87704275
Li       6.60269092       3.64506091      11.51279705
Li       3.99473653      10.12468099       9.55803249
Li       6.22652058       6.62522608       0.14941134
Li       1.17774218       3.15199090       5.77538931
P        1.59925551       0.68616571       3.44791019
P        2.78909544       8.32799462      11.43806882
O        5.64025064       9.59575540       8.72243450
O        2.46597321       6.16327552       6.38558350
O        0.98329722       2.00058916       4.11127494
O        2.34130367       5.46485305       8.90499209
O        3.03386359       0.37528013       3.88559645
O        1.72614758       8.22311177      10.26799460
O        1.05804497       3.72770632       1.11704696
O        1.60570247       0.84241112       1.91322776
Li       1.09335601       1.51307309      10.58477286
Li       2.44011534       3.86868088      10.11175641
Li       8.47527833       8.89179839       1.76829418
Li       5.84020557       5.06121792       3.41158896
Li       1.86284868       2.14228056       0.06715733
Li       0.84383706       6.02798815       5.84715068
P        8.08587345       5.71973505      10.20998710
P        5.09137829       9.89919538       7.39501517
O        3.54913013       9.69734616      11.42238940
O        4.04213432       3.36455928      10.75015615
O        9.60227978       6.07243762       9.75572928
O        9.10795666       5.75316010       5.06300564
O        8.01398440       4.77670051      11.53688986
O        3.57674779       9.67483545       7.09291392
O        4.58214753       6.83565347       8.24835671
O        7.20338241       4.81126937       9.27621980
Li       7.23742631       0.76813189      10.13297398
Li       0.55369030       3.72331225       3.33078119
Li       2.09951568       0.14216154       7.30413598
Li       0.32594184       5.35129398       8.19947590
Li       5.72077396       4.04213440       5.88769827
Li       0.31585462      10.12674677       1.70504709
P       10.16834981       8.77191224       7.42124151
P        5.99315779       3.69433607       1.26005320
O        8.77761387       1.51960580       8.55073357
O        4.50852820       8.45196396       3.29343191
O        2.44513990       5.72633502       1.22435870
N       10.12809848       8.13836080       5.74509805
O        6.79067670       2.50253772       0.78540607
O        4.02034143       4.43177568       7.54917706
O        1.06168986       9.65231899       8.04951319
Li       4.51444837       7.32085154       5.96041665
Li       5.30972448       8.07067284      10.52856231
Li       1.02215029       6.06673584      10.48555189
Li       1.45316259       6.75898219       2.72097067
Li       4.43833469      10.46202536       5.16940467
Li       2.57290422       8.41866981       7.92346481
P        9.15282882      10.40412709      12.22303850
P       10.06040283       2.34582473       8.29666005
O        6.82776487       4.54925730       2.12363680
O        7.69783178       0.85510726       5.67118755
O        9.40376301       0.64381100       0.39188131
O        1.57461617       8.40694723       3.60187712
N        9.66189913       9.04455718       0.16457146
O        0.59676295       2.96991601       9.73597995
O        7.39983707       4.24750856       5.59711714
O       10.18996954      10.40197166      10.96403910
Li       4.57855303       5.51233386      10.01349202
Li       9.84972829       1.06643181       6.11499364
Li       2.90262864       9.31584364       3.56263722
Li       8.52184992       9.47015790      10.10366670
Li       3.90046873       5.20599379      12.50419832
Li       6.94932710       8.03923133       7.58261662
P        5.66702972       9.22963675       2.42230289
P        3.41492643       5.78373439       7.86055547
O        7.47274003       6.42562414       6.94935594
O        8.77065307       8.95488161       8.06807569
O        5.18321928      10.35450332       1.35797638
O        3.71808668       7.08126413      10.79978624
N        6.21752938      10.41600413       3.55202554
O        0.36906239       7.34746089       7.54816824
O        5.53777546       4.58672384       0.20100411
O        6.81580951       8.37104593       2.20490754
Li       3.30051125      10.75915147       0.75984037
Li       1.57358598      10.05328083       9.98458452
Li       3.02919460       4.30383581       2.38254329
Li      10.18630585       7.13528279      12.35620817
Li       8.43739294      10.86372855       7.73862072
P        6.42569772       1.48494610       6.26418215
P        7.63485972       5.85496287       5.54789396
O        7.65260686      10.37340649      11.86290301
N        5.66869868       0.26490142       6.98947785
O        5.31973137       1.92910929       5.33838114
O        6.69647279       6.59883562       4.42388248
O        9.71930930       3.62715965       7.49153587
O        6.73077914       2.36825295       7.44893662
124
Lattice="10.1931 0.0 0.0 0.0 10.9684 0.0 0.0 0.0 12.7908" Properties=species:S:1:pos:R:3 material=LiPON model=NEP89 temperature_K=1500 phase="NVT production" source_frame_index=2009 relative_time_ps=200.9 pbc="T T T"
Li       5.25942166       5.51604785       5.09754169
Li       4.14833801      10.64423929       9.68537327
Li       1.06780166       3.64556136       6.30034538
Li       5.08155814       8.39762143       5.10773156
Li       3.38156081       2.93624822       8.63846251
Li       1.02724831       2.51134271      10.55516666
P        3.16808158       6.41926557       4.28591441
P        1.16543598       4.78572019      12.74050537
N        1.03031896       9.59964223       7.48674172
O       10.01278235       0.23623183       4.29394057
O        1.66889857       5.83628412       4.31063258
O        6.96549969       2.46018472      12.37334407
O        3.43597324       7.94863235       4.12912489
O        0.78216177       5.85082352      11.57232960
O        3.76425450       9.10741274      11.80526231
O        4.04627345       5.57119754       3.26017934
Li       9.51923446       4.01991299       1.47471080
Li       4.11572952       5.48805757      12.17291037
Li      10.13384670       5.11204710      10.35630054
Li       7.57536005       6.72114319       0.07759740
Li       3.41389368      10.81892577       1.00046346
Li       3.91109722       7.22859136       2.15235930
P        3.53516820       1.55222768      11.24690374
P        9.74389697       9.74077160       4.97450454
O        0.32874292       5.46025554       1.28177343
O        8.37859012       5.51667300      10.38382029
O        4.81230306       0.92245065      10.89870810
O        9.84190241       1.99908078       7.47461027
O        3.43517672       1.43996716       0.13289019
O        8.55100056       9.44309529       5.76874025
O        5.73248922       8.67644144       6.74719282
O        2.46187697       0.73460568      10.35766772
Li       5.21650320       3.19372961      10.81510042
Li       5.72664187       1.96426937       5.07602702
Li       2.90491902       3.70135058       4.16822604
Li       6.48217112       1.01246660       1.02469764
Li       6.82756955       3.15796952       9.01777594
Li       7.18384993       2.84312216       3.24899624
P        1.06457733       1.03899742       3.75463405
P        3.61912879       7.75844657      12.51242481
O        4.17127428       9.04107639       8.73277812
O        3.76862895       5.98874638       5.72906147
O        0.61458749       2.35801447       3.35842602
O        2.92868545       3.71234535       6.19070685
O        2.04073608       1.01713252       4.97365213
O        3.33708551       6.87887465      11.00317292
O        0.52118047       3.36229443      12.44715063
O        1.80035655       0.26611187       2.33829239
Li       6.61678281       0.76802149      11.21738567
Li       4.72823953       6.31440554       9.72312165
Li       8.24952814       8.09488992       3.12035881
Li       6.08768954       5.76712787       1.64347660
Li       1.44400765       1.51261749       0.86327757
Li       9.50433541       2.48164884      11.89196657
P        7.01626440       5.98317156       9.86662048
P        4.70101567       9.59564663       7.42707290
O        5.01676479       7.19699756       0.41490330
O        3.14983726       2.99660671      10.91965365
O        7.28288891       6.74435467       8.47759919
O        9.29300362       5.74116149       5.66197604
O        6.13938484       4.77443630       9.71218170
O        3.74078583      10.15152281       6.48630135
O        3.63197412       5.03864021       8.07267631
O        6.27325816       7.08565847      10.69834995
Li       7.60557304       7.61100652       6.66694840
Li       0.17901263       6.13877339       3.80344554
Li       6.05444016       8.51042277       1.48917030
Li       9.22535908       5.89436437       7.84146851
Li       8.05482637       3.21695212       6.58285806
Li       2.48665624       4.90769636       9.44012729
P        0.12930314       8.98682052       8.62671012
P        7.18097976       3.46068696       0.71622687
O        9.54705565       2.54373455       9.97312014
O        5.11067870      10.44584573       1.77966862
O        2.56394474       5.05457255       0.36345734
N        0.68629134       9.56766556       6.26010190
O        6.06484631       3.38811655       1.87478648
O        5.35267164       4.25419594       6.41253704
O        1.30900456       9.35241355       9.53575533
Li       6.68509487      10.27456268       5.71198056
Li       7.30864409       9.85284491       8.69260422
Li       5.96023257       8.50271648      11.31341260
Li       3.70047370       1.70363810       6.52496665
Li       1.00714949       1.02858505       6.58866668
Li       3.06354603       6.75154916       7.66510858
P        8.70675727       9.42497051      12.77190230
P        9.64477199       3.14573992       8.59161546
O        7.71648262       4.69916320       0.31260325
O        7.12980255       1.35889350       6.52933108
O        7.13988537       9.85030940      12.72438385
O       10.05605211       8.62809951       3.96802725
N        9.63099021      10.62119469       0.45826434
O        0.50823532       4.25814227       8.90765470
O        6.87577127       6.24096949       5.28390023
O        9.20841698       8.82170623      11.44781440
Li       6.34709814       5.62459187       7.36608408
Li       7.91094091       0.95754521       4.62272870
Li       2.22157160       9.29316472       5.25890215
Li       0.99160161       9.87578919      11.55902329
Li       9.58462388       7.20417345      10.95100674
Li       3.86046700       3.06737850       1.15620948
P        5.90646569      10.66361835       3.11449293
P        3.90096574       4.83017332       6.69864945
O        8.46339930       5.41450174       3.20218028
O        8.99897252       9.74066589       8.67303192
O        7.13329001       0.66563847       2.85321914
O        2.58287426       7.94133982       0.76423365
N        5.24408829       0.26387549       4.32156840
O       10.17635687       7.46012197       8.58327973
O        8.44857508       2.60394152       1.50684699
O        6.28111232       9.15517193       3.52801361
Li       0.88745293       7.33410383       0.92418289
Li       1.72865024       9.11039537       3.11728121
Li       8.84440713      10.93127158       1.87652651
Li       2.91623089       8.12583658       9.93963119
Li       9.01758981       0.88842214       8.99331884
P        6.24577846       1.14100707       7.80766983
P        8.10193271       5.39583484       4.73198556
O        8.59156106       8.20346318       1.13183568
N        5.67646511      10.69364170       7.76063655
O        4.86482617       2.17757737       8.00206024
O        7.90303878       3.76607645       4.90688716
O        8.53394721       3.92278755       8.12496410
O        7.08423680       0.92771026       9.09664187
124
Lattice="10.1931 0.0 0.0 0.0 10.9684 0.0 0.0 0.0 12.7908" Properties=species:S:1:pos:R:3 material=LiPON model=NEP89 temperature_K=1500 phase="NVT production" source_frame_index=2039 relative_time_ps=203.9 pbc="T T T"
Li       6.70051290      10.35007664       0.28508431
Li       9.19779460      10.19640297      11.15033261
Li       7.38487427       3.63932941      12.60248426
Li       6.96530587       6.71940944       2.03535607
Li       4.47060851       7.44351495      10.52093045
Li       1.67048107       4.20370351      11.48681355
P        2.44524375       6.60992579       4.16163406
P        9.63098510       3.13265521      12.49513709
N        0.70765327      10.52539131       7.56138414
O        0.65843749       1.00243182       5.26421390
O        2.34271705       5.54393678       3.12523824
O        5.70615265       3.13157687       3.03289897
O        1.68813602       6.80650215       5.47205687
O        9.97443129       4.49023355      11.76422635
O        3.03368052       5.13646426      11.56326514
O        2.92707783       7.70613741       3.24372087
Li       7.13319255       2.00857918       1.90587508
Li       4.66320906       3.31713185      11.79742188
Li       2.84288793       1.79026671       9.46197150
Li       0.65300071       8.22464820      11.26708829
Li       2.80480391       1.08695833       2.97618427
Li       2.46430221       5.49049614       9.09401945
P        3.87772778       0.44885422      11.18253759
P        0.09948439      10.48500901       5.76430783
O        8.72294941       3.40467503       0.99249783
O        7.56804523       5.27634956       9.11936693
O        5.23905058       0.07542241      11.72569624
O        0.85771315       3.90705716       6.73231444
O        3.06351097      10.78251945      12.42460152
O        8.78032374      10.31092376       5.62764705
O        6.53207102       8.38623600       6.84960371
O        3.63677352       0.06668709       9.62702608
Li       3.08934212       2.13343626       0.33743564
Li       7.62168991       5.33642283       7.16199318
Li       2.84624179      10.44440393       7.54291797
Li       1.33512174       3.35706914       1.78974793
Li       9.70358832       5.37049529      10.25277552
Li       5.90918735       4.91663456       4.05731170
P        0.40157200       1.62402018       3.69126714
P        2.97607843       6.56781465      12.21297937
O        5.07589129       8.74252379       9.32159053
O        4.01660957       5.98475131       4.53283103
O        1.60812844       2.74248221       3.59527134
O        4.14985386       3.66675709       5.30453147
O        0.61619757       0.41637328       2.59065948
O        2.44790010       7.46493969      10.98746786
O        8.98206257       1.95909856      11.72701398
O        9.37108436       2.53896170       3.68111537
Li       8.81318130       4.19068913       2.53717530
Li       0.26542000       6.20193737       6.93051709
Li       7.85854820       9.61281304       3.51313593
Li       9.00876527       5.96999784      12.59410755
Li       2.95634564       9.31410080       9.71876395
Li       7.69763691       3.13990602       9.36513422
P        6.41876579       4.99535882      10.26667956
P        5.29702638       8.93655172       7.58713696
O        1.81791452       6.25407360       0.29377721
O        3.69771660       2.05497803      11.14614680
O        5.18387042       5.73319483       9.76794316
O        7.16186495       6.25427097       4.27223438
O        6.15341833       3.51819646      10.77258704
O        4.03094772       8.76547675       6.78992876
O        3.39181054       5.58427895       7.09435335
O        7.17038499       5.67377593      11.49612141
Li       8.08271577       1.13058403       5.19228296
Li       2.64872127       7.79702224       6.74146791
Li       4.26663905       8.79059029       0.73180697
Li       7.66480316       7.40280013       9.39185820
Li       0.20373379       1.78865374      10.41362746
Li       0.32143400       9.07512490       3.32675687
P        0.13625994       9.31541924       8.90220742
P        5.24489220       3.64254883       1.63370706
O        9.22523670       2.91195032       8.41409819
O        6.02175317      10.53229253       2.04857213
O        1.00249821       2.77620622       0.18675912
N        9.74928759      10.30723325       7.43202978
O        5.91054067       5.02979396       1.50350518
O        5.64436199       5.48955761       6.31185346
O        0.81592854      10.04256799       9.99323140
Li       5.56733398       7.13066845       4.82943966
Li       8.38081441       8.99369574       6.83947815
Li       5.83807740      10.15355768      10.10463654
Li       5.27349464       1.81541782       4.42574197
Li       6.25383929       1.33667384      10.86738949
Li       2.84641748       9.29433337       4.34962642
P        9.31294011       9.05470961       0.84426060
P        0.22892723       3.91902490       8.16935210
O        3.72076446       3.51241533       1.48564298
O        6.68881181       1.33431781       6.42399881
O        9.23422840      10.61169561       0.78353584
O        1.03439184       9.44099327       5.20743171
N        0.57109114       8.90587373       1.32059663
O        1.41003294       3.61738405       9.08309174
O        9.52496872       5.65315191       3.34289813
O        9.40449082       8.24536529      12.27410972
Li       5.33831024       6.36275640       8.13701933
Li       6.29384217      10.38345863       5.42163094
Li       5.89920536       6.40465571      12.63922996
Li       2.96497488       3.86665448       3.34981528
Li       3.88529574       5.62139970       1.54503471
Li      10.13877801       4.04454874       5.02488886
P        4.92153334       9.90277872       3.03177312
P        4.20552103       5.07080372       5.88229604
O        9.07934462       8.04822319       4.60377919
O        8.87902172       9.05447710       9.14783866
O        4.49604485      10.79208895       4.23814051
O        4.36896984       7.03582114      12.62751629
N        3.76204500       9.68025350       2.10093886
O        1.00755715       8.21480455       8.41962135
O        5.96700766       2.82478394       0.64784932
O        5.77320234       8.82701480       3.72853296
Li       1.11722288       6.86444460       1.67166727
Li       8.36121733       0.47199249       8.53004597
Li       1.87769947      10.44754863       1.21278563
Li       4.12081360       3.75976470       7.77057299
Li       2.21776645       3.23530747       5.65113665
P        5.80486895       0.96381612       7.52701683
P        8.65919121       6.47602305       4.43530401
O        8.31437334       8.10724331       1.57921375
N        5.72255796      10.44798349       7.51699589
O        4.53275418       1.81248216       7.30655852
O        9.04189044       5.80896423       5.78418001
O       10.13822540       5.39566613       8.52629759
O        6.48234621       1.02242707       8.96391072
124
Lattice="10.1931 0.0 0.0 0.0 10.9684 0.0 0.0 0.0 12.7908" Properties=species:S:1:pos:R:3 material=LiPON model=NEP89 temperature_K=1500 phase="NVT production" source_frame_index=2069 relative_time_ps=206.9 pbc="T T T"
Li       2.96106246      10.05161456       1.17242967
Li       9.63438177      10.90580192       9.67964015
Li       7.32548271       6.97064107       1.38309294
Li       5.51307612       4.86294930       4.49477749
Li       0.09446777       8.23935695      10.37665733
Li       9.17427490       1.94551904       7.46242386
P        3.10233726       6.28365668       5.57037805
P       10.01011484       4.06362966       1.94388326
N        9.78817371       9.82041981       5.73729944
O        0.12799857       0.16860702       3.59290708
O        4.02535250       7.30013843       4.93494462
O        4.19491558       5.25006150       1.20912014
O        1.89135251       5.85933855       4.86104714
O        0.47721598       4.68123165       0.77181348
O        2.88760466       5.01357945      10.56741687
O        2.98331386       6.43596189       7.08898624
Li       6.11222996       8.84343516       4.85784203
Li       2.16575189       1.79813252       1.62893846
Li       2.09277032       1.11231197       7.53366324
Li       9.39339856       6.52065088      12.61407567
Li       4.30607010       0.66821081      12.28766880
Li       2.15444986       5.33104776       0.27219892
P        1.66644347       1.16962547      11.21797178
P        8.87917640      10.88613451       4.59342692
O        8.64029279       3.59345220       1.71616821
O        6.67022234       4.81678567      10.78289650
O        2.18190135       1.32449124      12.59366407
O        8.67626675       4.79531478       7.65247669
O        0.12437301       1.05594465      11.25265150
O        8.45991584       1.41629629       4.99949548
O        5.43323366      10.34622328       6.14215284
O        2.27491796      10.67580255      10.51078926
Li       0.27715845       1.19838385       1.85521556
Li       7.69248238       3.71848824       5.48137966
Li       2.11890775       9.41304866       9.17540314
Li       5.06912423       7.29019344       2.15603291
Li       1.84153988       7.45679366       7.77416597
Li       6.75475172       2.14752981       1.01200171
P        1.66884378      10.81392507       3.95843531
P        2.86136099       6.62776106      10.60740169
O        5.51527071       8.70587501       8.32882918
O        4.02052010       4.68092094       5.81048318
O        1.73182861       9.34590476       4.33178932
O        6.10603798       3.35158389       6.60394761
O        2.27261388       0.16321516       2.59514379
O        1.62158378       7.23905139       9.70426159
O        0.70801612       2.86716984       2.55463861
O        2.10836473       0.79169927       5.09141152
Li       9.99716806       5.64440550       4.81025999
Li      10.13887294       6.88088445       8.50061453
Li       7.71748150       8.36510001       9.91499862
Li       0.64051816       3.62640907      10.15022948
Li       3.95904449       1.47816985       9.51448398
Li       4.10917746       3.63109004      12.13897064
P        7.33063176       6.18944582      11.25181650
P        5.22492383      10.07082575       7.68577259
O        2.68119071       7.04438979      12.11309518
O        2.41997110       2.15586640      10.35073260
O        7.70985267       5.95071871      12.67297705
O        7.17528301       6.89907597       3.06195388
O        8.68709721       6.26843663      10.18176017
O        3.85352348      10.81722412       8.22425641
O        3.90105398       3.33439330       7.93519858
O        6.72739887       7.69798978      11.20440610
Li       7.72509611       4.24986325       3.21815491
Li       0.27804139       8.08931439       5.15994867
Li       7.23127112      10.65016400       2.09571069
Li       7.34128937       5.75848742       6.76304204
Li       2.67819944       9.52701144      11.86726649
Li       8.75724746       8.59028982       3.18331456
P        9.70492976       9.64089114       7.39331255
P        4.77727611       3.86247366       1.74747112
O        0.46935389       3.50289956       8.25885340
O        5.87424998       8.18053786       0.86165851
O       10.03038216       5.10827809       2.94828355
N        8.57771307      10.16828568       6.18144860
O        5.94530590       4.21201108       2.75815468
O        5.56475608       5.25972253       7.94652084
O        9.68371063       0.12145291       7.97399144
Li       4.80924739       6.92614039       7.99001328
Li       7.25448354       7.81308466       7.96883722
Li       7.14054731       9.54197012      11.85606382
Li       4.67839647       0.74149716       2.57274582
Li       8.58806544       0.69632628      11.94979538
Li       3.15130129       9.60298661       5.96628386
P       10.04259394       9.28497036       0.58288770
P       10.01300139       4.30671413       7.07795510
O        5.47834496       2.99362610       0.43534639
O        7.63366713       1.88193395       9.34445160
O        1.35227717       9.10428677       0.80899346
O        7.68999845      10.24134977       3.92397004
N        9.60151132       8.21225563       1.63744645
O       10.07720555       3.70186107       5.69355046
O        9.00204236       7.25242180       4.46286564
O        9.59269196       8.67034844      12.05385771
Li       2.65688180       4.10625237       9.05740429
Li       7.18122386       4.21895724      12.70987061
Li       4.99729315       4.93311566       9.98874906
Li       1.52430937       4.10751287       3.72458938
Li       1.93897904       7.82033525       2.84940864
Li       0.13886962       2.02293373       4.97226154
P        5.20657086       9.60437703       0.95891946
P        4.87104003       4.05511563       7.02859926
O        6.75720668       7.42917725       5.57525451
O        8.79928799       8.60118477       8.21757420
O        4.16044240       9.85307687      12.51942428
O        4.20745232       6.90896215       9.98813393
N        4.46782025       9.64910076       2.34758318
O        0.87572939       8.95601281       7.60134879
O        3.83502553       3.04301241       2.57807981
O        6.03453093       0.06905567       1.02552808
Li       4.79245692       7.21480037      12.44323892
Li       6.85767664       1.29098812       6.61797299
Li       5.54695002       8.73400239      10.06661162
Li       7.35575158       4.05121754       8.68900442
Li       3.43420191       2.36598943       4.35228223
P        6.69803240       0.69957733       9.69949279
P        7.55500210       6.75344837       4.48574896
O        9.59472824      10.77103507       0.96922566
N        6.38600329       0.19746103       8.16135332
O        5.41793417       0.94936312      10.35275599
O        7.81538297       5.35018303       4.84746626
O        0.35763122       5.90682402       6.91631809
O        7.61187389      10.55362275      10.27016680
124
Lattice="10.1931 0.0 0.0 0.0 10.9684 0.0 0.0 0.0 12.7908" Properties=species:S:1:pos:R:3 material=LiPON model=NEP89 temperature_K=1500 phase="NVT production" source_frame_index=2099 relative_time_ps=209.9 pbc="T T T"
Li       2.64873500       0.17963921       6.89289814
Li       9.23046635       1.11671023       9.36546500
Li       3.74595839       5.76784273       3.49511113
Li       2.27093013       8.67045722       2.47260871
Li       2.35745531      10.04176939       9.47534065
Li       7.72429878       2.95092179       5.88214489
P        3.04650992       6.80827327       6.01545849
P       10.02449433       3.56778645       1.40115623
N        0.10936929      10.32083690       5.78381159
O        0.40263053       0.55291019       3.69861723
O        4.51313935       7.35353831       5.85438420
O        5.68574705       4.79920110       2.88551801
O        2.03292601       7.20002761       4.78664470
O        8.54983001       3.19157259       1.64975711
O        3.19859113       4.93436409      10.91148232
O        2.34256540       6.88041366       7.46165106
Li       6.35313491       4.08757372       4.22538185
Li       2.44458359       2.26863761       0.91629718
Li       0.32493592       8.61105414       4.88378405
Li       9.94524756       6.13259840      12.78799078
Li       3.88544694       2.72612203       3.58269450
Li       1.91640812       5.41485277       0.91327767
P        2.38970659       1.06324219      11.10514334
P        9.31083054       0.15193912       4.68170998
O        0.02556720       4.48371845       0.14115060
O        6.39943293       7.53291953      11.31834264
O        3.01383175       1.84885490      12.20589183
O        9.91428685       5.01287042       7.55629205
O        0.87144353       1.08001915      11.05164813
O        8.32209662       1.35850093       4.68238527
O        4.32835617       9.71460593       8.45575742
O        2.98539985      10.56121131      11.21864019
Li       7.69658655       8.48949656      12.15385896
Li       4.25061169       1.57666380       8.61263778
Li       4.84507966       8.79145545      10.06348032
Li       6.99470907       6.30674224       0.16848049
Li       2.11442858       5.21257480       8.49650212
Li       7.35910404       3.58888701       0.13278413
P        2.15769547       0.60062338       3.79657731
P        2.35032178       6.30755975      10.93003082
O        5.07803370       0.17119070       6.29765134
O        3.49574288       4.96205968       5.71789582
O        2.56200316      10.10536167       4.26867785
O        5.76576238       3.56691400       5.91756628
O        2.64714959       1.10940246       2.37186731
O        3.00907230       7.48370786      10.30799586
O        0.41337972       4.09062671       2.77753238
O        2.76859284       1.59171260       4.79635407
Li       8.31530834       8.08761151       2.21844803
Li       9.85683368       7.40297127       9.99215447
Li       2.90186138       8.12739937       8.45413325
Li       9.66348675       9.99470495      10.47075415
Li       0.36788329       4.33495652      11.13004583
Li       3.97847323       3.74000708       9.86271901
P        7.36891612       7.04567023      10.15335763
P        5.56554390      10.48678101       7.64466273
O        0.96558707       5.80616906      10.29257106
O        2.73659815       1.67551952       9.78928959
O        8.18574130       5.82316984      10.56169871
O        8.49122628       6.00488503       2.67628905
O        6.75620542       7.00905301       8.64439552
O        6.83764805       9.64822660       7.46560917
O        3.50390294       2.72697026       6.96060757
O        8.24000384       8.27281592      10.18839403
Li       3.54896441       8.32694422       4.65428082
Li       1.10134774       5.64672629       4.22756036
Li       7.65561358       9.74671703       8.88330983
Li       1.95030509       3.15482619       6.24493199
Li       5.60356979       0.71880206       0.58416263
Li       6.35377923       3.90119682       7.96036166
P       10.08881503       9.92397005       7.46463813
P        5.31226191       3.94184724       1.56323596
O        8.29069697       3.14722273       7.62837969
O        4.92923541       8.53236150       3.37624826
O        0.68426512       2.18255295       1.32174482
N        9.36538011      10.90709644       6.40107828
O        3.80421531       3.76807135       1.67951748
O        4.64423204       4.75284211       7.97825949
O        9.21340290      10.49104473       8.67774462
Li       6.75922118       9.79395635       5.35416015
Li       7.89573569       7.69519848       7.25004485
Li       6.26262610       6.44602362       2.96663315
Li       3.11814814      10.93351715       1.19555670
Li       9.09319803       1.44756613      11.93896793
Li       2.18150861       9.16617205      12.34702550
P       10.18222130       9.32801438       0.09862382
P        9.81689063       3.46366976       7.88449369
O        5.97409748       2.55249219       1.56179701
O        5.85091463       2.91886131      10.42285221
O        0.45810562       8.63132734      11.52445264
O        8.51205880       9.97836217       4.02664819
N        9.07270519      10.34007202      12.72023962
O        0.64230398       2.62123820       7.13703450
O        9.85063754       6.44338757       4.85686502
O        1.24084276       9.56451297       1.05450923
Li       8.16940987       3.17328070      10.04160321
Li       4.33605347       6.55594481       0.50737061
Li       5.53722276       6.61435978       7.33245664
Li       9.13292432       3.29849430       3.67895025
Li       0.21244362       6.64106902       6.72864606
Li       7.47191963       0.66873804       2.03477079
P        5.52694191       9.13262312       2.03283848
P        4.34638447       4.04953252       6.63094708
O        7.13282984       6.96892604       4.57120723
O        9.78154461       8.53630934       7.22379516
O        4.28165203       9.05196594       1.00244715
O        2.32756209       6.88299481      12.37633323
N        6.03686511      10.53052281       1.97949424
O        1.38999659      10.07475483       7.70395337
O        5.81239270       5.03337960       0.55764580
O        6.38446656       8.09432058       1.50064884
Li       3.57868634       3.75841212      12.23924475
Li       0.74087118       0.53025911       1.73781418
Li       1.45772024       1.97140610       8.87047242
Li       7.81458054       1.40498666       7.74396419
Li       5.41983028       1.92771765       5.70307135
P        6.33580177       1.40093708      10.30547073
P        8.48037560       5.99663148       4.23290698
O        9.39208043       7.94523355       0.76798133
N        6.09928275       0.70642329       8.65645483
O        5.81282456       0.46302907      11.33507531
O        8.09057311       4.54471463       4.69554271
O       10.07388947       3.04138691       9.46169927
O        7.90466456       1.31978891      10.44965890
124
Lattice="10.1931 0.0 0.0 0.0 10.9684 0.0 0.0 0.0 12.7908" Properties=species:S:1:pos:R:3 material=LiPON model=NEP89 temperature_K=1500 phase="NVT production" source_frame_index=2129 relative_time_ps=212.9 pbc="T T T"
Li       4.55465264       3.05482517       8.95492277
Li       6.74553723       1.96223035       6.72039584
Li       3.82717489       9.22790516       4.85315298
Li       0.90780180       1.64845895       1.44760725
Li       0.51212513       6.33759989      12.70368726
Li       7.27173486       5.82382113       7.55062151
P        3.30284491       6.00419531       4.27143965
P        0.47741670       4.20069112       1.07167251
N        9.62073185       9.66243347       6.18246338
O       10.14181210       0.31721526       4.60605129
O        3.67086357       5.82118131       2.78037983
O        6.57140502       4.91544363       1.13940240
O        1.81226126       5.68659996       4.66507561
O        1.09342112       5.61491692       1.58782621
O        3.65069416       5.60336142      10.90599813
O        3.75271918       7.37295909       5.11624407
Li       7.90604974       1.26486538       0.42970259
Li       5.09246040       5.09501029      12.00046200
Li       9.36973375       6.21776237       7.24892093
Li       8.28670753       0.13932959       2.51344197
Li       3.76840427       1.36369906       7.00549301
Li       3.25012121       2.77007646       0.89262514
P        2.21419570       0.91015134      10.40223964
P        0.04017920       9.68393418       4.50654272
O        9.84650361       3.53241973       2.19333567
O        6.67141383       5.21991262      10.60855972
O        2.49394248      10.39337314      10.71421430
O        8.27993501       3.06967326       9.95334937
O        0.69932491       1.41976405      10.13132619
O        8.89795801       9.07906877       3.91316202
O        6.77710438       0.26028807       6.51232813
O        3.15596039       1.51537276       9.06646454
Li       6.95254703       6.43984504       0.01415995
Li       4.87393520       1.61373081      12.23194579
Li       2.09452198      10.12773640       6.25214484
Li       7.28066766       8.51340381       2.44879883
Li       5.09575080       7.12918932       8.10378300
Li       5.59086952       5.17138792       2.78780708
P        1.25477545       1.35023496       4.34950556
P        3.18623231       7.04163734      10.88473126
O        6.03509524       8.64603549       6.90588962
O        4.12072350       4.72298230       5.03945782
O        2.13868469       0.92609739       5.56781431
O        3.78499006       3.14286704       7.15018934
O        2.05798706       1.14330255       3.00876133
O        3.77529627       7.79351713       9.63747647
O        9.73321205       4.72610542      12.62218847
O        0.85676537       2.70474118       4.71323372
Li       4.77576240       8.90039275      11.50688332
Li       8.61766928       4.68414961      10.89463859
Li       1.47054944       1.10729102       8.03101232
Li       6.46885073       3.24853610      10.47602480
Li       8.08737711       3.64126836       1.50427639
Li       7.03096899       9.27528628       8.63856650
P        7.11678177       6.80146144      10.26761681
P        5.74811536      10.13740777       7.11596584
O        1.67818342       7.08824013      10.50476936
O        2.75824760       1.71523724      11.71723062
O        8.62286525       6.65063837      10.75483952
O        7.31197842       6.29274457       3.55617795
O        7.00695076       7.10760331       8.76425846
O        4.38085727      10.53019041       6.38490259
O        2.87181672       5.49078736       7.42925607
O        6.49314635       7.89704510      11.39303092
Li       3.80690213      10.19822602       8.83142514
Li       3.32965259       3.68238897      11.01861430
Li       9.98092766       7.77219702       9.62285151
Li       1.88369871       8.77716711      10.33763584
Li       8.45060569      10.93246706       7.30919536
Li       9.52605651       3.60694468       6.03038422
P        0.10607500       8.94318341       7.52467832
P        5.63327397       3.58529855       1.06009192
O        9.96544191       4.01160855       8.15405449
O        5.52852664      10.24229345       3.67829385
O        1.49888886       3.26575882       0.61649514
N        0.43356081       8.91489898       5.90447186
O        4.71717063       3.50139332       2.22872257
O        5.33548223       5.03487401       7.62431415
O        0.39302005       7.46018316       7.77794016
Li       7.56229533       9.89493546       5.33953658
Li       5.69339917       1.95277989       2.99672495
Li       3.56585906       5.53268529       0.94630972
Li       6.89083711       9.38356967      12.61949199
Li       2.21778508       6.53586927       8.80737434
Li       2.16245287       9.75376323       2.70427593
P        9.60968827       9.61303424      12.76419607
P        8.67228345       3.20258288       8.39866990
O        6.74187717       2.46827014       1.15203610
O        5.35174399       1.86184857       9.75366099
O        8.48381518      10.57206290       0.37917189
O        1.34895477       9.14410646       4.05320112
N        0.84127427      10.13947408       0.42291971
O        8.99940872       1.70589587       7.95467993
O        9.23371286       5.41475722       4.87394810
O        9.50702324       9.55465206      11.18115864
Li       6.22079468       4.06380366       6.48992696
Li       9.33435425       6.46268678       2.35217565
Li       2.91584319      10.31419350       0.33839516
Li       0.53024366       4.30115578       3.98868411
Li       1.65025001       6.79619108       5.94646140
Li       2.44425430       7.61562455       1.32209395
P        5.00514792      10.00071284       2.25128070
P        4.01075657       4.64612971       6.87798237
O        7.05920572       6.36235911       5.80638877
O        1.35450705       9.83036845       8.24699181
O        5.79859762       9.23679243       1.01751623
O        3.16671255       7.66354804      12.25019482
N        3.85592889       8.93730314       2.07455163
O        8.89008874       8.98931485       8.27079948
O        4.83245616       3.54355766      12.56237737
O        4.58680679       0.47320898       1.70709787
Li       0.95410024       4.60847065      10.41802755
Li       9.15132883       1.49535762      10.53806157
Li       5.68815602       7.60908402       5.40797228
Li       9.84100378      10.51481642       9.55115277
Li       2.65661434       3.61608062       4.86701923
P        6.08649120       0.42111695       9.96744330
P        7.70366954       5.48519786       4.68244922
O        9.52633635       8.09608572       0.72183293
N        5.93402469      10.60555802       8.54635115
O        5.64718657      10.42024994      11.06775280
O        7.01060431       4.04016191       4.60060712
O        7.65349130       3.49306058       7.08483585
O        7.54211300       0.42252563      10.01704222
124
Lattice="10.1931 0.0 0.0 0.0 10.9684 0.0 0.0 0.0 12.7908" Properties=species:S:1:pos:R:3 material=LiPON model=NEP89 temperature_K=1500 phase="NVT production" source_frame_index=2159 relative_time_ps=215.9 pbc="T T T"
Li       7.73465092       9.97362988      11.64111205
Li       3.27807337       4.32277848       2.08160544
Li       7.16274488       7.42557580       3.71192026
Li       4.79599731       2.28337850       3.75626077
Li       0.32431147       7.41184484       1.86536240
Li       9.37267734       0.36154239       9.88720858
P        2.87530597       6.49366376       4.19284330
P       10.17902555       4.05968075       1.09553628
N       10.11772478       9.22251813       6.04423641
O        1.32837071       0.74177887       5.11948801
O        3.48419253       7.89872488       4.48671743
O        6.30047155       4.67276039       0.52754600
O        3.67995977       5.93977296       2.89101224
O        9.56613998       3.69035245      12.41816850
O        2.54592000       5.78151520      11.47965998
O        1.42976522       6.91118412       3.70426955
Li       0.12747796       2.13456445      11.73325191
Li       0.53998550       5.10403979      11.51643802
Li       8.61858792       5.30469309       7.25701844
Li       8.18105991      10.34496133       6.86653546
Li       5.14222393       6.55763749       1.52331497
Li       6.44740516       1.11807903       8.55006801
P        2.02386190       2.33050026       9.54831922
P        0.07791792      10.65480557       4.95001852
O        9.46218237       3.24265368       2.17261622
O        7.29390249       6.44238900       8.79242008
O        0.98641008       1.25880867      10.20785512
O        6.83962120       3.19940773       7.88989831
O        1.36009292       3.72444945      10.06027407
O        9.00795493       0.57494548       4.95019474
O        6.01453672       1.12611289       5.91673607
O        1.94318833       2.13159570       8.06569084
Li       5.80818627       8.32133320      11.18123020
Li       5.69962529       2.88520188       6.12627494
Li       2.57914575       0.54672369       6.34262241
Li       3.96089870       9.58639022       4.01322430
Li       4.87763146       4.44478009       8.94688221
Li       2.74437109       3.77759127      11.98006559
P        2.35996209       1.45620556       4.10586891
P        3.07213501       7.19412044      11.95250979
O        5.72623069       9.66636829       5.43899453
O        3.01704365       5.23967865       5.35892158
O        3.36933343       1.94574286       5.01539770
O        2.41998126       5.27448890       7.80966497
O        2.79644608       0.54377585       2.98573125
O        4.72499890       6.82522016      12.13046168
O        1.61743465       3.87500108       0.71599830
O        1.88380873       2.74176982       3.38680417
Li       5.45025649       5.43222217       4.53569536
Li       4.82036648       5.09842245      11.88165366
Li       2.29488230      10.58161726      10.92481822
Li       7.72067562       3.30181978      11.71706022
Li       7.64725214       4.22685440       2.24936736
Li       3.37342407       7.90134309       9.40911996
P        7.75593803       5.96026895      10.24410101
P        5.37277922      10.73827561       6.47975803
O        2.61808526       8.56452776      11.33818195
O        3.43840621       2.38055243      10.09808638
O        6.90501358       4.73546810      10.74260434
O        7.68707031       5.57217426       3.37202472
O        9.24297149       5.38590049      10.25478265
O        3.98654548      10.80988781       7.12740811
O        4.51633068       6.47644344       6.76047908
O        8.06340334       7.24599737      11.18894791
Li       2.93776867       0.28937093       8.57971001
Li       1.17514809       1.66158664       1.87151455
Li       3.75900829       8.39763846       6.59816131
Li       9.48492674       9.02266564      10.55149827
Li       6.93976775      10.47643371       4.26585294
Li       3.46667659       2.59519878       6.75771570
P        0.85685839       8.93326244       7.52880106
P        5.67447668       3.23375436       0.91767813
O        9.57920443       3.71536353       8.23217411
O        7.00945737      10.13116733       2.41231443
O       10.14027003       5.66719688       1.63039730
N        0.56757856      10.22904391       6.55055119
O        4.71697931       3.04060017      12.43186592
O        4.57878337       4.07223671       7.06829159
O        9.95779599       8.26511786       8.43753896
Li       6.22866685       5.15350722       7.26442817
Li       2.58905449       8.77494035       0.92007073
Li       9.59371537       5.37554777       3.46321498
Li       0.66510170       6.78714603       9.04480818
Li       9.87688201       3.68230883      10.10806495
Li      10.17806104       2.75967272       4.18882492
P        0.38580555      10.85588949       0.09968564
P        8.41698333       2.63090465       8.51997838
O        4.75395085       3.19169593       2.15397831
O        6.84158158      10.07243155       9.87024172
O        1.71704086       0.87767044      12.62919193
O        0.29877561       9.82700092       3.71539414
N        9.64996414       0.64916728       0.99380492
O        8.36925913       2.33274486      10.04815142
O        9.25341357       4.07943595       4.93666456
O        0.77297929       9.43824348       0.63560818
Li       2.65065250       5.27128983       9.86526007
Li       7.68497557       2.14137937       5.13670523
Li       4.66280615       0.69565679      11.45193695
Li       0.94941408       3.93963484       6.64485168
Li       1.78498031       5.95785479       1.75288710
Li       1.57737387       8.59258666       3.52664709
P        5.97795009       9.29218171       1.70667989
P        3.64395899       5.22496792       6.83710364
O        7.31948629       5.81494177       5.80647244
O        2.25406324       8.20299684       7.53033377
O        5.94843321       7.84187375       2.12339436
O        2.52590329       7.04260649       0.62444275
N        4.38796817       9.84399082       1.92811163
O        1.03317247      10.24768947       8.38607495
O        6.54243700       1.94229432       1.16350980
O        6.24203598       9.41175743       0.10337676
Li       6.83145918       7.62500732       7.02868759
Li       5.17507121       1.02166022       2.01680388
Li       8.18887976       5.89569050       0.15474776
Li       8.00563195       0.63983945       1.93497257
Li       0.37621842       0.93255690       7.48022173
P        5.52519677       9.88852415       9.21986981
P        7.67710946       4.79826358       4.72667080
O        9.71169240      10.44148364      11.51295900
N        6.28429713      10.26949182       7.86122731
O        4.46992957      10.95981924       9.82233234
O        6.48204347       3.54799471       4.78188963
O        8.64246885       1.25484342       7.85059759
O        5.07137027       8.41018396       9.44112872
124
Lattice="10.1931 0.0 0.0 0.0 10.9684 0.0 0.0 0.0 12.7908" Properties=species:S:1:pos:R:3 material=LiPON model=NEP89 temperature_K=1500 phase="NVT production" source_frame_index=2189 relative_time_ps=218.9 pbc="T T T"
Li       1.53795734       4.53632269      11.17446158
Li       6.19143233       5.39791956       0.14292344
Li       2.38201764       9.84964634       0.16926140
Li       7.59882735       2.72224891       4.30958273
Li       0.32844350       7.46179776       5.92588844
Li       7.64551067       0.46890257       3.70953461
P        2.48938804       5.53614838       5.79579229
P        0.14799144       4.82811971       1.42614602
N        9.76849724      10.86118195       6.69566917
O        0.79069698       0.21116655       4.06682410
O        3.36953511       6.84012382       6.25832800
O        4.36496211       4.00636735       1.90337150
O        2.41401652       5.30617179       4.24609991
O        9.72174388       3.75212762       0.42560623
O        2.25232879       6.18140690      11.81339570
O        1.28271065       5.84495005       6.67995525
Li       8.20840418       7.70111243       0.34878032
Li       9.34147464       8.44068969       9.26029813
Li       3.92038602       8.47412391       4.30858291
Li       6.06764293       1.22150277       5.46681633
Li       0.29563125       3.16706205       3.84203481
Li       8.34855342       1.02275014       8.02855025
P        3.20145688       1.51839986      11.10278901
P        0.10375962       0.92788082       5.26799002
O        9.68419646       4.40778296       2.75743028
O        6.36883592       5.16276277      10.46658365
O        2.85281733       0.80487664       9.86097066
O       10.12956515       4.51692468       9.79633425
O        1.98128562       2.27622121      11.76808901
O        0.87019342       2.09152619       5.76846207
O        6.28145962       8.37345418       5.29488229
O        4.32207205       2.56686328      11.08884280
Li       5.65915900       8.86030920      12.18118298
Li       4.50431294       5.24465907       3.63749364
Li       1.77176641       6.96141447       7.83933214
Li       7.51944802       7.36331455       3.92357199
Li       0.88865838       1.91645357       0.78382022
Li       4.09173828       4.46064795       9.62160083
P        2.05158127       0.46009454       2.93445774
P        2.05762380       7.40462948      10.72726755
O        4.50629063      10.05254477       5.75178408
O        3.23008304       4.16156216       6.67010899
O        1.81008404       2.08029279       2.73468727
O        3.58389019       1.92117193       7.45604175
O        3.29572919      10.93489913       3.50771948
O        1.04393392       6.91990010       9.65709165
O        1.66257789       4.66016860       1.03291811
O        1.63432626      10.63031002       1.55408920
Li       5.30255361       6.58365825       5.66797259
Li       4.52888921       6.75827395      11.18476854
Li       2.21865766       0.65337225       8.13586868
Li      10.07660708       5.93795907      10.77771553
Li       6.71941691       7.25767876       7.46481968
Li       3.89443033       9.16106898       7.27385909
P        7.30642177       6.49954385      10.44830620
P        5.96476521       9.82563201       5.45483151
O        1.31575341       8.55598415      11.46331437
O        3.40016140       0.47442818      12.00892713
O        8.53787229       6.14239375      11.37303870
O        8.90991884       6.49642803       4.73777741
O        7.82948176       6.33461698       8.94251441
O        6.28529097      10.54287668       4.08939983
O        5.07394668       3.40324562       8.35734675
O        6.61455989       7.85711371      10.78427325
Li       8.96724948       4.23169519      11.58133334
Li       2.45904461       3.75519832       2.36530791
Li       4.83426650       1.18285698       9.02737792
Li       0.62554788       7.75940134       0.60107604
Li       6.36790616      10.82563104      10.48467797
Li       3.22092986       0.64346674       6.03954482
P        0.68128360       9.79433808       7.62848131
P        5.40457663       2.98843454       1.79912612
O        8.85673471       3.84714182       7.71986832
O        4.74749574       6.78945802       0.16415233
O       10.01013162       6.35485747       1.49245641
N        0.79938377      10.67523531       6.14397379
O        5.12016464       1.54066368       1.39659661
O        5.34089943       2.90920859       5.89094884
O        0.22544055       8.26269571       7.37487384
Li       3.09379837       9.82278056       9.54573274
Li       3.90570931      10.77103182       0.72417845
Li       0.56746564       6.14976174       3.56462476
Li       0.74031334      10.14070185      10.83098774
Li       1.57081459       3.34834013       6.85402542
Li       6.06462108      10.86544222       1.55361909
P        8.71804435      10.48382501       0.00096257
P        9.28515615       3.42267963       9.29997024
O        6.36693610       2.95311601       3.06070008
O        7.49365073       9.19729496       8.43200352
O        9.31311157       9.12179862       0.31961483
O        8.84228666       1.13511970       4.92663735
N        8.52460245       0.38967005       1.38865984
O       10.04439417       2.09378846       9.33243711
O        8.21763126       4.06687259       5.48277598
O        7.33287445      10.48886584      12.22724738
Li       6.88301797       3.07966862      11.53412552
Li       4.56268980       1.79528294       3.67998461
Li       0.04175723       1.38739118      11.06311999
Li       7.63920188       5.16489270       2.72527480
Li       8.30816571       2.78016695       1.58012651
Li       9.99001049       9.72357838       1.90415854
P        5.41970794       7.64808928       1.51360343
P        4.43429144       3.09204579       7.03896350
O        6.70799454       5.88918930       6.37467592
O        2.23027210       9.88972134       7.97714962
O        7.03168707       7.37695320       1.77412495
O        3.34649824       7.80967220      10.15261741
N        5.06676821       9.17406997       1.59017977
O        0.16132041      10.08853785       9.06699667
O        6.57272659       3.67420081       0.84260691
O        4.60873954       7.25012196       2.72733972
Li       0.20217374       5.71468040       8.25338607
Li       3.17854140       5.32148853       0.52477900
Li       6.84993614       2.54790746       8.56133441
Li       4.91710579       8.30208627       9.52261462
Li       9.76635381       4.25529162       6.08115466
P        6.46777587      10.24218263       8.12665934
P        7.65835339       5.42326297       5.16567448
O        9.85344832       0.05019228      11.72383026
N        6.65963585      10.43053061       6.62057100
O        6.53017027       0.82610088       8.52388116
O        6.73230893       5.55048115       4.02951528
O        8.02427389       3.17207956      10.05181004
O        5.01001831       9.98106636       8.80404285
124
Lattice="10.1931 0.0 0.0 0.0 10.9684 0.0 0.0 0.0 12.7908" Properties=species:S:1:pos:R:3 material=LiPON model=NEP89 temperature_K=1500 phase="NVT production" source_frame_index=2219 relative_time_ps=221.9 pbc="T T T"
Li      10.15768159       6.56424447       0.56387098
Li       4.39086224       9.91249332       3.39049427
Li       8.38005758       3.09120625       3.86915713
Li       2.15107991      10.35349793      12.47756839
Li       3.33214718       8.51320218       4.86980920
Li       8.37394831       8.47827153       6.32653741
P        3.10040647       6.05369245       5.68462009
P        0.29405032       4.45334976       1.43964150
N       10.17305752      10.36320165       5.60187948
O        0.47086295      10.54182688       3.28388218
O        2.38304792       6.90996341       6.66523449
O        4.15338516       2.17815287       3.01193493
O        3.93504587       6.81978950       4.46949541
O        9.97380614       4.82840267      12.77520489
O        2.74793021       7.46695258      11.91767054
O        2.08843657       4.98597283       5.09352516
Li       1.27581478       3.65944290      11.63505096
Li       0.34801894       8.57459631       4.38168591
Li       7.50309413       0.31190410       2.44595007
Li       8.43057608       2.92999187       9.17106831
Li       0.75893528       4.49444770       4.09048573
Li       4.29144865       7.02420522       8.13572382
P        3.05658165       1.92007883      11.26121383
P       10.11625519       0.65008719       4.35512621
O        9.58525199       3.81948581       2.48922544
O        6.36187377       3.57828482      10.41854172
O        3.50743744       0.98412933      10.26409065
O        2.32781140       4.15185869       9.38873363
O        3.17374802       1.17711147      12.60901155
O        0.68228828       2.02174720       4.52889676
O        4.05104602       8.85554230       7.02347572
O        1.49137484       2.07527155      10.95759472
Li       4.54600105      10.49631912      11.50678697
Li       5.70766276       7.34060978       4.99861003
Li       1.85467751       5.39682855       7.88905789
Li       7.79463472       8.70021555       2.45456591
Li       6.80343454       1.64330096       4.72612047
Li       5.82595219       1.55218685       9.84006484
P        1.76077074       9.58863237       2.54667208
P        1.67721842       8.17018759      11.00046214
O        4.80635348       0.41763395       6.80893470
O        4.31456430       5.08199799       6.53512521
O        3.05470718      10.12166986       1.95683161
O        3.11794106       2.60329652       6.19233678
O        1.92930209       8.33529236       3.43724716
O        1.96099725       7.75354820       9.38260544
O        1.60727254       3.49102786       1.45964156
O        1.12033985       9.08211559       1.21635333
Li       5.68040264       2.42884861      11.99371961
Li       7.80687460       5.31427810       1.55694810
Li       1.13085359       2.63124910       6.27234117
Li      10.02669595       7.17577052       9.57199882
Li      10.05723576       1.10239979      10.61006163
Li       1.87294855       6.68722244       3.54137723
P        6.51227701       4.95124563       9.78413797
P        5.19774891       9.95177969       6.47172079
O        0.22328749       7.45073102      11.29191740
O        3.81968491       3.29433149      11.58281558
O        7.44498050       5.76720093      10.73956147
O        7.30176815       6.64534082       5.47502238
O        6.69376334       4.88564868       8.27222054
O        5.86183983       9.69040615       5.09004525
O        4.89719791       2.83557586       7.97113853
O        4.93088044       5.53806020       9.96824664
Li      10.13773455       6.66065299       7.01812084
Li       3.45294186       4.06819352       3.77774865
Li       2.87893159      10.01555492       9.72861681
Li       6.60623149       6.42609136       7.48109210
Li       8.35072271       2.62043262       1.80107419
Li       3.84325800       0.78008050       7.94506849
P        0.30213385      10.50041965       7.29014365
P        5.45895075       2.96987832       2.53472298
O        0.22701348       5.41186349       8.64978487
O        5.39602436       6.10093830       0.25082994
O        0.96341986       5.80765512       1.99765935
N        0.36820962       0.53135272       5.95258616
O        6.71294536       2.24164201       3.07355737
O        5.82815245       3.05607250       5.69530261
O        0.12435074       8.89222534       7.44171446
Li       4.33239069       6.98133327      11.09989388
Li       9.76210068       9.36374530      12.24687510
Li       2.03907591       8.74092599       7.30706473
Li       3.40782363       2.92918466       1.12166361
Li       5.41506616       6.30158794       3.02850688
Li       7.87327292       7.52467907      11.08265321
P        7.68194860       0.78265204      12.55121810
P        0.67883485       4.13259114       9.33956519
O        5.20494830       4.46532074       3.14665548
O        7.75671351       8.38891544       9.38499133
O        8.49193586       0.81246879       1.07043987
O        8.66140597       0.91107257       4.19652666
N        8.11129702       2.31247910       0.03723173
O        0.50198163       2.98507530       8.23071392
O        9.71883298       5.74605608       5.19186331
O        6.18240953       0.51599318      12.20172580
Li       4.29204407       3.75467952       9.64123203
Li       6.37070204       1.43999177       7.35396101
Li       1.95798436       1.91983996       8.56166621
Li       5.82865815       4.93575868       4.77989164
Li       4.00110271       1.40001285       5.28864895
Li       8.57533844      10.25971508       9.42654555
P        5.96258064       7.53980377       0.67179518
P        4.50006215       3.40514456       6.69391922
O        7.63649824       5.40220073       3.48843083
O        1.69353322      10.59340217       7.94722169
O        7.40439759       7.77764370       0.10934701
O        1.45529179       9.78631319      10.92520321
N        5.26561736       8.70237909       0.03831150
O        9.51686358       0.55049559       7.98247719
O        5.49116161       3.21629004       0.94318903
O        5.53615739       7.78134054       2.11494818
Li       9.04452906       5.31075562      11.52514145
Li       3.09822718       7.46487831       1.08781416
Li       4.87775579       4.59192538      12.44337491
Li       2.37681906       1.08956858       2.33123613
Li       8.85991176       4.57027910       7.23302730
P        6.50185354       9.23888316       8.97396309
P        8.40469726       6.34411960       4.40590395
O        8.80896053      10.95350757      11.65592475
N        6.48709459       9.20193415       7.30835078
O        6.72344109      10.68303604       9.37468684
O        8.64758351       7.69019791       3.66017683
O        9.89124527       3.70062655      10.44767290
O        5.03871767       8.73659052       9.51930252
124
Lattice="10.1931 0.0 0.0 0.0 10.9684 0.0 0.0 0.0 12.7908" Properties=species:S:1:pos:R:3 material=LiPON model=NEP89 temperature_K=1500 phase="NVT production" source_frame_index=2249 relative_time_ps=224.9 pbc="T T T"
Li       4.10789171       6.97944913      10.84072481
Li       9.96482813       9.25931079       4.14694096
Li       4.58721878       5.59177154       7.84736632
Li       6.06036732       0.21065213      10.27710460
Li       7.03250485       1.90799612       3.61953594
Li       4.32736215       8.94394898       9.64950773
P        3.31699494       6.18065732       5.84112379
P        1.37490472       4.09317470       1.69927529
N        0.26432759       0.30608774       6.07026663
O        1.93701863       1.28152421       4.13774860
O        2.23387559       6.27039712       4.71598461
O        5.70491623       1.80149036       2.10427793
O        2.79172117       6.33316879       7.23426533
O        1.56794640       5.56138461       1.56823807
O        0.84546158       8.06789065      12.40724499
O        4.65748727       6.84642507       5.36164929
Li       1.40925714       2.80964232       7.88415911
Li       2.06298476       8.33301962       5.50390855
Li       4.97613715       1.13568110      12.27258136
Li       8.20175756       0.70976526       7.53439922
Li       9.12831646       3.10229960       1.02426587
Li       2.73455113       8.23000315      12.47253074
P        2.83694314       0.80970315      11.24760993
P        0.69210000       1.48107853       5.13597755
O       10.10670948       4.08328338       2.24757372
O        5.61458702       3.13858465      10.40186696
O        4.23221912       0.68730259      10.58732747
O        8.65023657       3.83738613      10.16582471
O        3.26118737       1.33139005      12.68993170
O        0.51262410       2.92019146       5.73818740
O        4.80400263       0.00524190       5.76004027
O        2.38650569      10.31486559      11.45921112
Li       0.14264674       4.68300922      10.22493735
Li       9.00603062       8.58813896       6.72149395
Li       2.39145264       3.96141121      11.29256573
Li       8.28348854       7.93584945       0.05593853
Li       7.65652748       2.63305043       6.51435559
Li       8.01984329       5.72633753       6.40604942
P        2.17273734      10.56920041       3.17228794
P        0.92208781       7.20319201      11.14667784
O        6.96379067       0.67736341       6.30976016
O        3.55508340       4.35098823       5.88708404
O        3.62798433      10.63620040       2.93746154
O        5.26204495       2.84177101       4.60957399
O        1.74055735       9.33794384       3.86348502
O       10.01435654       6.16322981      10.98849369
O        1.79134722       3.51250905       0.32688368
O        1.42527789      10.68634289       1.82470811
Li       7.11559426       3.85750003      11.31448695
Li       3.00221342       6.08553234       0.85367719
Li       0.35972362       5.19331746       7.02985538
Li       1.45411827       7.62902112       7.83704047
Li       9.44676418       9.07285189       9.68672052
Li       5.48043230      10.59777164       1.36476367
P        4.67723993       4.35336204      10.34492419
P        6.26855249      10.61572689       5.51934448
O        0.86888236       8.00776099       9.93107150
O        1.44342122       1.34444228      10.56297537
O        5.00945279       5.65220101       9.65383708
O        7.20589711       6.42802067       3.69005921
O        3.28339694       3.95967950       9.54888584
O        6.73720470      10.62740235       4.03175603
O        4.25537927       2.36380274       7.13747469
O        4.28872614       4.40197625      11.85471156
Li       0.12222548       0.75779413       1.88821356
Li       5.65416550       5.27015402       4.70450164
Li       0.72314051      10.20121578      12.09525433
Li       3.61766191       3.12494544       0.51916759
Li       7.44166071       9.50525143       2.60684712
Li       5.04871404       0.75899165       7.60108116
P        1.03774037      10.33521476       7.22348710
P        6.31235430       3.20018060       1.71887538
O        8.37197547       5.17803118       8.07672591
O        4.85249182       7.78461907      12.44162636
O        2.51236277       3.65427575       2.72296211
N        1.53366339       0.62384937       6.17976466
O        7.54751047       3.38466365       2.83407875
O        6.16024134       4.12244985       6.42336832
O        0.91988654       9.01542125       6.54913929
Li       8.38251197       5.99171923       1.85825680
Li       1.43865613      10.79283128       9.94036091
Li       4.53503295       8.88910234       5.54193430
Li       3.16830972       5.37083882       3.26937583
Li       6.75629998       8.04463909       4.83255685
Li       4.52264014       9.08384837       3.26276398
P        8.25248982      10.84575335      12.52788307
P        8.68553700       3.86171483       8.58098810
O        5.27241531       4.31545038       2.02732956
O        5.75729722       7.62362423       8.02932881
O        6.79446713       0.10990443      11.96323857
O        9.57041840       1.26896270       4.19106286
N        8.99387771       1.27377498       0.02127734
O        0.04783454       3.74268346       8.21623788
O        8.42817670       7.66931231       5.30829103
O        9.15123836      10.64999781      11.28395407
Li       9.61410966       1.11147270      10.09413515
Li       6.48307711       2.02331079       9.25862136
Li       1.35720978       4.17736146       4.39710758
Li       3.28227958       2.18812456       9.15461792
Li       3.51477417       1.11406572       5.78291143
Li       6.90031965       6.08160982       8.77814109
P        5.45883916       7.59264280       1.02069812
P        4.81369125       3.32053868       5.92353073
O        9.29528561       5.46748555       4.81040776
O        2.31385909      10.57989852       7.88935127
O        5.94794873       8.97987541       1.83513352
O        2.26453127       6.30209478      11.36467887
N        4.47387759       7.07740421       2.10065384
O        0.00605399      10.55641331       8.22869532
O        7.03556835       3.12044640       0.37416691
O        6.89048998       6.88589309       0.87668130
Li       1.21434754       1.78227505       0.03002552
Li       0.06188081       8.73965703       1.05227541
Li       4.20835403       2.01606657       3.24800335
Li       0.86059268       6.88652456       3.84094769
Li       9.03648355       3.59463814       3.92030678
P        6.33951663       8.93665970       7.75688086
P        8.61677587       6.72700129       4.18571000
O        8.53290544       9.70186906       0.82009853
N        6.68391498       9.16336513       6.23577964
O        8.00558102       8.74819857       8.15812750
O        9.46582644       7.75534311       3.01459655
O        8.06670697       2.47015145       8.23284477
O        5.80591479      10.10356640       8.53724480
124
Lattice="10.1931 0.0 0.0 0.0 10.9684 0.0 0.0 0.0 12.7908" Properties=species:S:1:pos:R:3 material=LiPON model=NEP89 temperature_K=1500 phase="NVT production" source_frame_index=2279 relative_time_ps=227.9 pbc="T T T"
Li       3.17355032       3.13054519       3.00304814
Li       3.76975525       9.52735599       8.18216186
Li       3.84040653       8.27021486      11.49284834
Li       5.71343623      10.93888971       9.64176968
Li       5.77523695       7.59324114       5.09278045
Li       3.52225760       3.77161421      10.70271232
P        3.48797678       5.83540741       5.25389924
P        1.68764835       4.05540603       0.71840258
N        9.92847185      10.00055873       5.39719398
O        0.76604622       9.73138755       3.03863941
O        2.90457675       4.71986731       4.38140372
O        4.74731707       3.77728436       2.53116655
O        3.09290263       7.38211773       5.16019933
O        2.40762650       5.12091972       1.53532084
O        1.76178575       6.68578165       9.77279863
O        5.04720400       5.65101874       5.10015282
Li       1.31836190       4.67445725       5.61263957
Li       6.35409028       5.93093092       3.70510114
Li       8.26681794       0.71924902       5.16017994
Li       6.57304285       2.57421291       6.10482987
Li       9.94037042       2.86970776      11.39337167
Li       4.91675602       0.08893806       3.97614999
P        3.54601996       0.72376226      11.15903576
P        0.55798366       0.04443312       4.02014962
O        0.22715483       4.30317060       0.40267310
O        7.02770787       5.32271564      11.95345999
O        4.45054583       1.38946956      10.23597383
O        9.68770397       3.56097463       9.35654166
O        3.82070052       1.16694274      12.71700961
O        1.62372939       1.20034352       3.92425981
O        4.70764723       0.23451747       7.55389221
O        3.75026158      10.13680059      10.83813339
Li       1.51051854       2.48538370       8.02508421
Li       9.89868358       6.80701383       8.64010016
Li       1.39153077       5.02548523       9.77707104
Li       2.13525474       9.83756204      11.82660990
Li       8.98876702       3.19972628       5.69620088
Li       9.20489005       3.45174172       2.15100795
P        1.95558193       9.37736501       2.08078608
P        1.25397113       7.61261507      11.03002408
O        6.96938426       0.74153016       6.30094796
O        3.22742230       5.11931821       6.68194952
O        3.11403259      10.09132587       2.66531203
O        3.04585740       2.64125691       6.77003624
O        1.72651117       7.88215247       2.21148938
O        0.75243841       9.13530898      10.76166094
O        2.38569434       3.87060352      12.15502564
O        1.61613725      10.13503740       0.66391042
Li       3.06587962       6.71279238       8.37120665
Li       3.06312955       6.72338454       0.63763204
Li       1.20186046       6.82129527       6.25385738
Li       8.28687297       6.26598971      10.60931489
Li       5.88277704       2.37577711      11.59514166
Li       7.56219168       0.53279042       2.42761341
P        5.58741349       5.34494718      11.37913079
P        5.84023829      10.59047671       6.69948068
O       10.10727770       7.03789135      11.42745402
O        2.09785235       1.12659869      10.78095606
O        4.77141905       4.00417167      11.71212830
O        7.98144420       5.95101966       4.70005846
O        4.64687671       6.48043048      11.75224414
O        5.27593853       9.78361181       5.42174709
O        3.15568961       3.76167994       8.88522210
O        5.42335213       5.22813619       9.86287860
Li       4.40658506       0.15623601       1.43615886
Li       2.57333283       0.64575225       7.02930691
Li       1.78461180       6.99544279       3.95818835
Li       4.10180625       3.24386733       0.29597515
Li       5.78558802      10.11064593      11.67100980
Li       7.25326472       4.94313393       0.84494480
P        0.45676687       9.55265802       6.89256682
P        6.25340076       3.12154630       2.96645384
O        0.46811002       3.84389840       6.93239512
O        5.31557000       9.11801061       0.51757971
O        1.65673929       2.79441106       1.61606146
N        1.02035879      10.32004734       5.41308453
O        6.74029267       3.39568280       4.44555984
O        5.41089003       3.90861611       7.53868886
O        9.89833086       8.22977452       7.02201686
Li       4.23523201       5.29897377       2.38194147
Li       2.20462412       1.03153824       0.86326393
Li       8.69505386       1.75357500       9.06679112
Li       6.43389557       4.79188484       5.78166408
Li       8.27348938       7.66064764       5.84406115
Li       3.46726968       2.25825801       4.92339153
P        8.18815869       0.31611146      11.48273375
P        9.32846904       4.05884359       7.91451606
O        7.07253493       3.23321278       1.79839431
O        6.73974594       7.46426983       7.05777787
O        6.88844799       0.85828921      10.74421511
O        9.34658743       0.62016463       3.40384952
N        9.26451208       0.33266301      10.17886614
O        8.00498802       3.17963725       7.45508658
O        0.22685167       6.03110714       4.94046930
O        7.90843890       9.90435182      11.82032641
Li       8.29636230       9.39305625       9.50376336
Li       6.57286573       5.32216641       8.22148657
Li       0.68602789       6.34598491       0.97145201
Li       1.23425130      10.61184524       9.73839442
Li       5.64255088       2.17835495       8.43846147
Li       2.88235706       9.45849731       5.05438661
P        6.19906341       8.50890036       1.59448145
P        3.73701875       3.71711057       7.47600466
O        9.44182960       4.00259138       3.87784771
O        2.10657544       9.26144695       7.18760964
O        6.31163808       9.37528310       2.81828888
O        2.24731534       7.25578800      12.07982412
N        5.57730836       7.51908929       2.71688984
O        0.24463109      10.58886734       7.95647223
O        5.75190433       1.69450123       3.08434150
O        7.39342347       7.84696724       0.86652517
Li       9.72071571       1.18823109       1.04588410
Li       8.93253215       7.61728965       0.15574791
Li       0.86262786       3.26546227       3.43529627
Li       8.60478066       7.82863847       3.16569464
Li       7.10434845       8.09312274      11.68960104
P        6.22074019       8.17933808       8.23047034
P        9.36972435       5.54424963       3.95978266
O        8.88990106       1.34778327      12.37998978
N        6.70739669       9.68577370       7.70043814
O        7.26668710       8.07243265       9.36660111
O        9.34453132       6.25766053       2.54956743
O        8.72749902       5.47540870       7.75831992
O        4.82519876       8.09900870       8.75831421
124
Lattice="10.1931 0.0 0.0 0.0 10.9684 0.0 0.0 0.0 12.7908" Properties=species:S:1:pos:R:3 material=LiPON model=NEP89 temperature_K=1500 phase="NVT production" source_frame_index=2309 relative_time_ps=230.9 pbc="T T T"
Li       2.97896604       3.94018447      12.18184332
Li       2.64775037       5.88353961       1.48087865
Li       5.05787046       1.48692812       0.05676791
Li       1.33419980       0.70037877      12.29318742
Li       3.13558067       8.67257289       9.34925660
Li       5.44628100       2.38464425       7.93719791
P        3.39777845       5.88581624       4.47151797
P        1.33335735       3.58442414       0.86933179
N        1.46307134       0.09861360       5.84560315
O        1.90754978       9.66917104       3.29565349
O        2.25822236       6.18016801       3.61939139
O        7.51122859       2.56815215       3.63964662
O        3.74181378       7.22524541       5.26034160
O        2.86346777       3.81913805       1.38618613
O       10.01987798       8.21211739       9.42298149
O        4.75734176       5.52210198       3.83365831
Li       8.05202926      10.77141154       8.10226304
Li       4.55029474       3.96869647       1.91207109
Li       8.47602004       8.81063129      10.37981456
Li       1.06643512       1.78979943       7.64836774
Li       8.31094138       2.12367964      12.38219289
Li       0.38200154       4.42838515       6.98873298
P        3.27354396       0.76052211      10.70440917
P        1.28199670       0.02269095       3.99552652
O        0.75741936       5.08863564       0.88448375
O        4.45417106       5.60886164       0.21890980
O        3.95806111      10.21583319      10.93853998
O        9.44204064       3.24647758       8.00058430
O        3.41242867       1.47508149      12.03789041
O        2.31767442       1.11147215       3.86618878
O        5.28444186       0.67618648       7.36426410
O        1.74912754       0.41520885      10.35759759
Li       0.44984003      10.05758838       9.81751619
Li       5.05469568       8.56189451       9.86578208
Li       4.49186406       6.47932250       7.25485777
Li       9.55683269       9.67523756       0.25795263
Li      10.16506715       1.70720462      10.13453338
Li       5.41430607       6.37565207       1.74326951
P        1.82769299       9.58163467       1.65918822
P        0.24460370       7.42517843      10.75464477
O        7.31053406       0.86467515       5.87598961
O        3.06280586       4.89226313       5.66761566
O        3.21148281       9.68716141       1.01502629
O        3.17070212       2.84023379       7.25097924
O        1.28848601       8.14608295       1.61797462
O        0.32641776       8.55757723      11.71976483
O        1.43173236       2.87756418      12.26990904
O        0.88373312      10.66641501       1.06595152
Li       9.77672077       0.74859243       1.66946931
Li       5.45423027       9.32812844      12.37895217
Li       2.39207643       7.08996756       6.65343727
Li       7.55438998       5.66589980       6.86342656
Li      10.16946822       7.15181488       0.65998887
Li       2.35722533       9.32869222      11.73499316
P        4.96911465       5.83812644      11.56728442
P        6.07359822       0.03326584       6.12766921
O        9.15027164       6.70505304      10.99342991
O        3.98639166       1.26288461       9.47448801
O        4.56788419       7.24698528      11.00507512
O        0.00587828       3.83322005       4.96362767
O        6.61732289       5.41210569      11.42625207
O        5.10589919      10.78397978       4.99416498
O        5.36161089       3.90944907       6.36195480
O        4.29385425       4.66846628      10.67945664
Li       3.55759354       0.70890576       6.24959393
Li       5.61914139       3.32387809      10.43835120
Li       8.98737630       5.36275382       1.87040436
Li       3.71780818       4.09559290       8.95356891
Li       8.45082742       0.75594558       4.17481353
Li       9.57069421       3.00910707       3.49033133
P        0.79553352       9.99473059       7.01098071
P        7.12770087       2.54869136       2.08806524
O        6.79939900       3.55685721       8.41763846
O        6.18089471       8.18634261       0.74994596
O        0.61615244       2.89827157       2.16103505
N        1.22537098       9.82297661       5.44437433
O        7.99231088       1.26254958       1.65075949
O        3.98440543       2.53087002       4.76014062
O        9.88776743       9.07770508       6.64420048
Li       5.61371094       7.77913680       4.60216917
Li       4.97941959       1.39096506       3.66806060
Li       5.46260593      10.60574263       9.05373839
Li       5.95467175       4.95626748       5.20414189
Li       3.61285313       9.29375665       5.30513206
Li       9.71185848       7.32448046       7.80366933
P        7.43953060       0.09166527      11.19545109
P        8.30435007       3.77304060       8.98052248
O        7.55251753       3.86804446       1.48903385
O        7.18497749       8.89257739       8.50013756
O        6.76663094       1.24746369      12.11588532
O       10.03212765       0.63132796       3.58469403
N        7.23724654       0.52234239       9.58174763
O        8.32174742       3.49124009      10.48950189
O        7.97439010       4.95713047       5.13472173
O        6.86889244       9.55462553      11.17004547
Li       7.45529227       7.00081051      11.72680150
Li       8.27881094       6.40088808       9.69854083
Li       8.28990494       4.83416487      11.58587330
Li       3.41992939       7.61165972      12.69590304
Li       7.20745786       4.92790184       2.88000253
Li       7.45265524      10.73834058       1.33792546
P        7.43672182       7.87966833       1.63252933
P        3.90335300       3.56968368       5.97617146
O        9.77324494       6.31801063       6.22360841
O        1.72352047       9.53132675       8.06080055
O        8.25114042       9.22225740       2.01260685
O        1.49486296       6.66084138      10.66364894
N        6.93501460       6.99461777       2.73487815
O        0.25688209       0.16208284       7.93074004
O        5.57061038       2.25987720       1.95547572
O        8.32764088       6.87003639       0.81942551
Li       1.52099391       3.46975212       4.21711864
Li       1.03623245       7.14963412       3.44553232
Li       8.05068821       2.81265581       6.16754449
Li       7.85015003       8.25339553       5.45266510
Li       2.98213908       1.54566277       2.22688855
P        6.08078855       8.41668923       7.37157321
P        9.48674831       5.31791654       4.98239027
O        8.98864633       0.27133346      11.50194506
N        6.35013901       9.45186877       6.16541011
O        4.65067902       8.65492450       8.10256187
O        9.60278820       6.33213841       3.79780586
O        8.72491817       5.16353067       8.40685098
O        6.38577908       7.09833384       6.73993579
124
Lattice="10.1931 0.0 0.0 0.0 10.9684 0.0 0.0 0.0 12.7908" Properties=species:S:1:pos:R:3 material=LiPON model=NEP89 temperature_K=1500 phase="NVT production" source_frame_index=2339 relative_time_ps=233.9 pbc="T T T"
Li       8.09541382       2.26895966       0.05367415
Li       5.14315234       2.39225405       4.46473460
Li       8.52983692       2.28766226       3.33084569
Li       0.06593106       1.36959397      10.69010773
Li       5.64396612       0.26831543      12.50500989
Li       9.32827908       0.12472146       8.22258159
P        2.89291792       6.24062409       4.53604150
P        0.88438864       3.98306260       0.43329103
N        1.52045536      10.47215039       4.71957349
O        1.88892172      10.91820583       2.26296757
O        1.48009398       6.68910845       3.90281876
O        6.67346415       1.55804955       3.09227457
O        3.84549635       7.41411113       4.83299305
O        1.61542641       2.78961636       0.95721624
O        9.67934733       8.03058485       8.71018258
O        3.43857175       5.21770369       3.51560477
Li       7.82230264       9.23945335       9.59036062
Li       8.47882890       6.34189165       7.81013375
Li       8.68533951       8.86441228       5.84323073
Li       9.54370415       2.19649748       7.89528547
Li       1.92668772       6.01915159      11.63597643
Li       7.00755395       0.74444568       9.17663450
P        3.35566881       0.95237785      10.24136353
P        0.70874990       0.17875671       3.37801398
O        9.44053242       3.97712875       0.65898162
O        4.66438930       5.88729520       0.80570947
O        4.06068412      10.56696114      10.30505593
O        6.78346963       2.63426321       8.93813792
O        4.09875101       1.86082186      11.21018354
O       10.14549090       1.46167983       3.07682261
O        5.54307720       1.20288347       6.58767874
O        1.77747474       1.00268732      10.55375664
Li       0.63472682       4.73379410       7.29612310
Li       3.63830286      10.33490800       8.38021358
Li       4.59633498       9.94020036       3.12497560
Li       0.59322427       9.43317357       9.86255413
Li       7.13933858       2.51675425       6.92933286
Li       2.78701891       2.19973361       2.39396422
P        2.39144163       9.81661506       1.19330607
P        0.14625769       6.92894977       9.58387555
O        7.92948715       0.65282446       6.69990753
O        2.47037340       5.47938140       5.85102090
O        3.86440544       9.81393703       1.16762779
O        2.41325056       3.52623919       7.51925385
O        1.73109958       8.34076539       1.82896556
O        9.40083340       6.21449249      10.56435682
O        1.47622845       5.26714391       0.96426714
O        1.75692550      10.26585823      12.51747554
Li       9.33656466       5.14635924       2.03725608
Li       9.76107598       9.27191403       1.48561011
Li       0.06725985       7.95346289      11.86942714
Li       6.72923392       5.32357163       4.36338121
Li       5.46939595       3.16171063      11.45161702
Li       5.50388504       8.88429751       0.48794170
P        4.92593644       6.40485262      12.15767091
P        6.58921487       0.05859140       6.63346436
O        0.82560752       5.83168452       8.83150475
O        3.52519808       1.26886230       8.71045081
O        4.87459730       5.27250262      10.91793002
O        9.02212163       4.22232072       4.09689340
O        4.32359018       7.89797588      11.87616803
O        6.20797017      10.26486837       5.39443243
O        4.29475045       5.20563547       6.99377161
O        6.46879428       6.46544192      12.06503639
Li       1.84165052       1.93372575       7.62187994
Li       2.75463148       3.28287351      11.53835322
Li       0.73142675       3.80236266       3.94406884
Li       4.69007900       6.99858608       2.28006856
Li       5.96927314       8.32671042       4.62834654
Li       3.66164716       1.41032514       6.57222299
P        1.23483533      10.77697090       6.38049445
P        6.14965338       2.39251247       1.89047872
O        7.63278642       3.56236266      11.13821623
O        8.98242599       7.49424946       2.15460119
O        1.11623606       3.89839765      11.52416610
N        1.31952720       0.77416436       4.81456556
O        6.41456775       1.74670548       0.50242921
O        3.61379077       3.10341586       5.45434029
O        0.06492201       9.77654610       6.38322408
Li       7.94434831      10.86506881       3.87834774
Li       2.93577685       8.25080198      10.83624488
Li       6.08405714       5.30565640       7.24730972
Li       5.28502304       4.53599491       2.55537960
Li       3.54741346       8.44299001       6.32471072
Li       9.30063238       6.41890808       4.51970001
P        8.46490984      10.34184039      11.86452898
P        7.91187969       3.29043174       9.63217898
O        6.97117902       3.69679713       1.83307297
O        6.43160029       7.57817727       8.87896243
O        8.40777445       0.36554747       0.24451640
O        9.74960696      10.14993048       3.11108370
N        6.94599649      10.52018295      11.20419350
O        9.26771500       2.69717857       9.53387064
O        9.19562197       3.30081815       6.40223284
O        8.72751706       8.85177882      12.52285395
Li       9.83696792       4.56645566       9.87837778
Li       6.93493030       6.26112259      10.07614858
Li       7.90611361       4.49240367      12.50779058
Li       4.83377997       7.89408089       9.55960232
Li       0.42531525       6.84351073       2.48606065
Li       2.62339626       6.45219663       1.47086272
P        7.51630899       7.95509268       2.54733739
P        3.30691206       4.13761846       6.51053619
O        8.94278466       5.81384051       6.11197998
O        2.35575951      10.11684520       7.01091866
O        6.57837757       6.75266677       2.68703111
O        1.22676156       7.71287836      10.62082462
N        7.73570346       8.02537592       4.09163143
O        0.68648725       0.98041436       7.16331305
O        4.60781492       2.50986778       2.41093723
O        6.98894881       9.00303302       1.60620564
Li       1.98261227       8.56416439       4.29990395
Li       7.95804443       7.38812495      11.50843457
Li       4.86218087       2.66279802       9.43014204
Li       7.66899990      10.67678224       1.79598456
Li       1.70333912       1.27275869      12.58921368
P        6.27480978       8.41283085       7.68103425
P        8.63195087       4.43482964       5.58237376
O        9.08946194      10.68934761      10.50559023
N        6.82474324       9.86888051       7.98202373
O        4.82678308       8.89414538       7.64405358
O        7.05957304       4.40093948       5.71849933
O        7.83332128       4.64777245       8.91528053
O        6.94491210       7.53568034       6.52922415
124
Lattice="10.1931 0.0 0.0 0.0 10.9684 0.0 0.0 0.0 12.7908" Properties=species:S:1:pos:R:3 material=LiPON model=NEP89 temperature_K=1500 phase="NVT production" source_frame_index=2369 relative_time_ps=236.9 pbc="T T T"
Li       5.68882133       6.09464687       9.35516155
Li       1.67498930       3.35105466       4.12184510
Li       9.54593938       8.35585060       5.30461835
Li       9.97986287       1.05745777       1.12921734
Li       5.57485454       8.62095326      10.74205881
Li       8.51177131       8.40168992       8.75914736
P        3.08511023       6.44509747       5.14374968
P        1.31285501       3.97877764       1.16057018
N       10.19180197      10.52642436       4.98189300
O        0.91434352      10.05422472       2.21784181
O        4.65923571       6.48044884       4.95813295
O        6.60914040       0.68200101       1.98932900
O        2.67938238       6.98074675       3.77625311
O        0.21943253       2.92434268       1.56744729
O        9.71502567       6.90968144       8.71312330
O        2.66576578       7.47138058       6.17289786
Li       7.02324606       0.52032407       9.59960077
Li       9.80927853       4.93933686       8.15859493
Li       7.64296544       6.34134870       7.87992114
Li       3.94170110       1.41894166       4.16094725
Li       1.18302381       3.35919286       9.69582425
Li      10.17558819       2.91807366       6.69447368
P        3.82784604       1.46975828       9.85190384
P        0.65486605       0.16539284       3.51119423
O        0.94866516       5.37787098       1.14352324
O        4.33129726       5.50498886       0.51624010
O        4.89767751       1.36155826      10.86390041
O        7.05815135       4.86972602       9.14595215
O        2.88167423       2.78566695      10.11098117
O        1.75127612       1.22171945       3.39133692
O        6.32375466       0.80719714       6.18052947
O        2.77100735       0.28375693      10.12549143
Li       9.79662707       5.73431553       5.28827240
Li       3.50148601       9.10750587       6.10792986
Li       8.07067712      10.62522930       2.58467996
Li       3.61318551      10.01527091       8.44522655
Li       2.70649918       0.97853602       6.51632310
Li       3.23104262       1.82322522       1.91679350
P        2.13197761      10.06137186       1.04274645
P        0.55616304       6.84117164       9.79781747
O        7.42253595       9.40625843       5.52622820
O        2.34272854       5.01928991       5.51720915
O        2.32139803       0.54510666       0.43276037
O        3.15920021       2.75032492       6.09598981
O        3.46127663       9.35605181       1.71450087
O        1.41050407       8.09818848       9.68977428
O        2.56761648       3.95497843       2.15747104
O        1.64662334       9.07697829      12.75672262
Li       7.02859047       8.68505457      12.74388222
Li       0.34875918       7.22406885      12.77729659
Li       3.43050500       3.43125379      11.73903736
Li       2.79702340       8.33052854      10.84887341
Li       9.65827868       1.11829785       8.82077945
Li       5.22698876       5.72895813       7.06416887
P        4.91416921       6.21777806      12.00866365
P        6.20887075      10.28422594       5.52184238
O        9.93193431       6.69287446      11.12751794
O        4.49083371       1.43059594       8.45425759
O        6.14331957       7.22388868      12.16196711
O        7.98925672       4.09082408       4.37911941
O        4.68447766       5.14013177      10.86436674
O        5.25648180      10.14169951       4.23793409
O        1.51738888       3.80623894       7.47597290
O        3.73326820       7.13865188      11.44838110
Li       8.10535196       2.47336148      12.25447878
Li       5.62927146       3.38748948      10.92046277
Li       2.95019561       4.60315139       9.69491551
Li       2.18270340       5.69968871      12.33151889
Li       2.93696461       8.75617771       3.79676020
Li       5.11333360       2.24888822       6.93533196
P        0.67094029      10.61407632       6.58493043
P        6.04795310       2.04726228       1.90946575
O        7.15795327       2.43295581      10.19484475
O        6.93509673       6.09899695       2.42123408
O        1.86802849       3.82906997      12.56953462
N        1.28707767      10.74747218       5.10470887
O        4.83230488       2.59623670       1.05444582
O        3.94983594       4.70914458       7.58882958
O        9.91321823       9.45538970       6.97986363
Li       5.83518441       9.59593322       2.58243940
Li       1.00345453       9.73355797      10.43491461
Li       6.52665504       7.19397435       5.44405216
Li       4.51317472       1.02094631      12.48972575
Li       0.75394884       8.11722320       7.60889799
Li       0.99709967       7.18633470       2.90542327
P        9.07528888      10.66913112      11.65312985
P        8.01554767       3.84368993      10.01004375
O        7.33723349       2.79367622       1.23289415
O        6.56833173       9.61736745       8.81965632
O        9.83600812       0.76001635      12.33976129
O        9.27889918       0.56636017       3.59628192
N        7.84512497       0.41517652      12.26659111
O        9.52588838       3.90566690       9.55494304
O        8.24304496       2.78028371       6.34168505
O        9.31213092       9.22816880      12.08089147
Li       8.91908058       3.07146190       2.84328252
Li       1.69406048       1.29699184      11.38106332
Li       7.48312506       4.64894447       1.05636454
Li       2.96119336       7.00256114       7.91730065
Li       6.41601454       4.64157070       3.61778522
Li       4.72953842       6.74211203       2.73814427
P        8.10542861       7.19325701       2.09842418
P        2.87943153       4.07966621       6.78076539
O        8.12446223       5.37528791       6.66109003
O        2.09353183      10.44160342       7.33728672
O        7.77138655       8.81110961       1.61901992
O        1.49999566       5.69879941       9.53643809
N        9.20380833       7.02223628       3.31679619
O       10.07196230       0.90394158       7.11516212
O        5.82414156       2.42185234       3.40648945
O        8.90337538       6.72959702       0.73896660
Li       6.82035712       1.95265402       4.74702316
Li       9.96235751       4.92559295      11.38110130
Li       7.84671299       6.57210362      11.81120079
Li       9.73712982       9.28005069       1.39938073
Li       8.51847222       0.57500954       6.14789866
P        5.73250490       8.64544034       7.93193467
P        7.57115000       4.20766414       5.88084523
O        9.28290326      10.80483839      10.21251909
N        5.24449808       9.70684017       6.80717204
O        4.54095251       8.21321688       8.65698152
O        5.96507136       4.21679494       6.02105742
O        8.14948780       4.39977299      11.55646544
O        6.21409230       7.28396609       7.35136210
124
Lattice="10.1931 0.0 0.0 0.0 10.9684 0.0 0.0 0.0 12.7908" Properties=species:S:1:pos:R:3 material=LiPON model=NEP89 temperature_K=1500 phase="NVT production" source_frame_index=2399 relative_time_ps=239.9 pbc="T T T"
Li       4.24278525       4.83104717       2.00521139
Li       0.94519202      10.82556318      11.50154232
Li       7.72916556       9.23872384       5.43929788
Li       6.70568313       3.81805415      11.51002307
Li       2.18104659       1.78328022       6.97551001
Li       8.87513043       8.22162878       8.33394068
P        3.38743782       6.19452627       4.05699216
P        0.96168651       4.11020226       0.22861985
N        1.15284517       0.36519257       5.36534938
O        1.12059339      10.18922318       2.62523861
O        4.36607428       6.94208592       3.01695491
O        5.21943787       1.26303491       0.72825309
O        2.44922080       5.21215664       3.33350717
O        9.97353187       4.16217627       1.28078551
O        9.69862107       6.83183398       9.59923744
O        2.48248225       6.97882880       5.13215169
Li       3.99537074       1.30842558       5.40427655
Li       6.93341505       3.81502773       4.90345960
Li       9.14718666       4.71839784       8.89976096
Li       2.53140791       2.18723437      12.37770634
Li       6.56522186       5.15179157       1.26725413
Li       0.58275407       7.18751636       6.16784189
P        3.01266968       1.57143049       9.79211337
P        0.60220015       0.56910789       3.58235739
O        0.95424386       5.47327378      12.37310431
O        5.21524293       5.34479938       0.13729404
O        3.49210652       2.45116153      10.95966576
O        6.55680712       3.78211200       9.63458655
O        3.32992739       2.16142928       8.40468135
O        1.54863057       1.75273042       3.48946622
O        5.66503897       1.02093232       8.36782696
O        1.39811828       1.38396038       9.86798048
Li       7.53682357       6.80546074       6.09620019
Li       3.47080233       6.22819054       6.84725133
Li       8.46595669       1.73155143      11.73525969
Li       8.33195631       2.15133613       2.01617968
Li       1.60059303       5.01281800       6.57602066
Li       3.26351406       7.33739944       1.51401687
P        2.25087197       9.95811412       1.45666301
P        0.93237506       6.27602747       9.24473028
O        7.17522795       0.84450096       6.05664117
O        4.47723867       5.17849351       4.84538973
O        1.99698761      10.89758700       0.33710444
O        5.40165040       2.77303960       5.65174882
O        3.64978078       9.37817249       1.68481447
O        1.50499364       6.59089770       7.82246710
O        2.43431665       4.02881983       0.69296979
O        1.41605113       8.40062452       1.00036601
Li       0.98426998       8.65054245       3.76325400
Li       7.28679547       0.08762452       9.54630777
Li       4.82657417      10.63315208       2.89000261
Li       3.18179947       4.44238361      11.77506215
Li       9.80400833       0.80707565       9.12790864
Li       7.42487274       7.38350756      10.30154751
P        5.40766607       6.28401921      11.85337533
P        6.10251305       0.31032191       7.11239117
O        1.82385742       7.09903807      10.33223367
O        3.48014009       0.16368889      10.22805693
O        6.84211848       6.27924378      11.42704830
O        8.99523877       3.28841385       4.86671145
O        4.47984808       5.98687576      10.53563651
O        4.81942882       0.00588985       6.23359431
O        2.85945472       3.20646503       6.00465256
O        5.03187940       7.57770354      12.46818760
Li       7.72947361      10.61366229       1.95241690
Li       5.57181211       1.85127877       9.95411573
Li       0.49440120       2.93255957      10.24348474
Li       9.91376407       9.21297462       1.27647050
Li       3.56242649       8.71704434       6.20670195
Li       1.22268881       3.66977652       4.57228770
P        0.82042518      10.25650774       6.49187733
P        5.77686539       2.30520614       1.75282117
O        7.17515159       1.59048376      10.63737156
O        7.19720961       6.53887952       1.90315391
O        0.98048541       2.91843058      12.03331285
N        0.41791260      10.41117824       4.84270826
O        4.79410010       3.25613233       2.41292026
O        4.60713959       4.57835501       7.24398345
O       10.05013805       9.03040659       6.69525984
Li       8.14313812       1.39563414       4.16279432
Li       3.61768973       7.59580576       9.76420720
Li       5.42769989       7.45190664       4.80310726
Li       3.83163020      10.44050974      12.11085656
Li       5.96689104       5.81373891       8.65328782
Li       9.04112295       1.88932633       6.74482879
P        8.62221385      10.15263451      11.98735520
P        7.66253029       2.77341888       9.75070320
O        7.09695760       3.12642691       1.16921774
O        6.92806165       7.74735104       8.43571600
O        8.26942687       0.25249377       0.22399149
O        9.35890891       0.63980947       2.95144034
N        7.26616406       9.67217315      11.31475712
O        8.15744738       1.98953823       8.61962026
O        9.98833073       3.34029059       7.17013860
O        9.24839903       8.85787283      12.54771750
Li       6.05419973       0.24528790      12.34137488
Li       6.74383214       8.39975470       0.19744453
Li       0.24516702       5.90175841       3.31951552
Li       3.01197124       4.29607153       8.81184357
Li       1.93924340       3.08698673       2.32766609
Li       8.80217619       4.30640264       2.50303723
P        7.75839570       7.48912781       2.95409977
P        4.25754733       3.81405544       5.80585419
O       10.08171287       5.35742772       5.56647529
O        2.24715801       9.76544864       6.97524651
O        6.77241081       8.79190558       2.60867456
O        1.04850362       4.70484717       9.38224938
N        7.31525135       7.41255761       4.41705662
O       10.15600781       0.44806275       7.18786491
O        6.34756336       1.39895787       2.92462990
O        9.26652868       7.66702755       3.06185468
Li       9.68249597       5.26505213      11.36857793
Li       5.13247001       8.17093034       1.99824645
Li       2.87130154       9.91453924       8.58139282
Li       0.42124342       7.45755558      11.79275229
Li       5.81260811       3.41483789       8.02997039
P        5.87418789       8.63723600       7.75321051
P        9.17649122       4.22169140       6.03966699
O        9.46484503      10.71401120      10.95240676
N        6.69193450       9.91785857       7.52485799
O        4.74852203       8.99977084       8.81092971
O        7.74735325       4.87586576       6.50632644
O        8.78297579       3.59768629      10.35770722
O        5.11136484       8.09506844       6.56847415
124
Lattice="10.1931 0.0 0.0 0.0 10.9684 0.0 0.0 0.0 12.7908" Properties=species:S:1:pos:R:3 material=LiPON model=NEP89 temperature_K=1500 phase="NVT production" source_frame_index=2429 relative_time_ps=242.9 pbc="T T T"
Li       9.15502884       4.78715543       8.42146484
Li       7.46178120       6.30444000      12.45932015
Li       5.46134601       9.54907275      10.50062162
Li       5.29945857       3.14280650      11.37001464
Li       3.91743411       3.82689358       9.03730204
Li       3.14174896       1.77295791       7.63291423
P        3.18358804       6.54462421       4.18071929
P        0.50353996       4.05674765       0.37690008
N        0.46890077      10.42157617       5.21675195
O        1.08930838      10.09198586       3.06155684
O        2.59738174       7.91024381       4.53746678
O        5.64558706       1.39237545       1.68103142
O        4.33434058       6.76617161       3.22763057
O        0.16979562       3.33270307       1.62682888
O        1.50026062       4.95217571      10.07901927
O        2.16619864       5.86079689       3.08471894
Li       6.32433048       2.68320863       7.14727664
Li       7.12464418       3.96088244       4.49041696
Li       9.14274453       2.47036374      11.61432710
Li       3.64532339       0.38004575       5.47648287
Li       9.24064021       6.38766269       5.60815446
Li       0.92668604       8.40017977       4.38625637
P        3.79655785       1.03978572      10.56598867
P        0.69482188       0.48299556       3.84924110
O        1.82943687       4.99242917       0.35790967
O        4.83214683       6.17244337       0.27365153
O        4.04154157       1.93089616      11.84284421
O        7.38546277       1.75509233       8.92270747
O        3.14692729       2.11341308       9.53337460
O        1.95548391       1.35530181       3.82418779
O        5.19660695       0.80046794       6.92174930
O        2.71611153      10.83138674      10.66731886
Li       8.71893863       9.36356346       6.74055327
Li       0.28587455       2.52385940       8.82919232
Li       3.23238808       6.66556030       1.26976130
Li       9.39737952       1.26901445       1.40518431
Li       5.59699962       7.46052925       1.94844646
Li       0.65793834       6.27696383       1.51203765
P        1.64002305       9.84431145       1.47704388
P        1.32894121       6.25842885       9.39467444
O        7.15461537       1.09961954       5.28839323
O        3.61754057       5.60748302       5.50894157
O        1.03055964       0.17824139       0.86100648
O        5.55712293       3.87079412       5.64544194
O        3.17570621       9.83450947       1.53521023
O        2.43076939       6.55993040       8.37452802
O        0.77733197       3.03676835      12.03287995
O        1.12473535       8.54273568       0.90059936
Li       5.76354853       1.45898595      12.69612432
Li       6.60591703       5.26100966       7.32732735
Li       7.10709953       0.84555368       3.39236911
Li       3.52911339       7.38241615       9.18750201
Li       7.72811368       7.57209095       9.60966653
Li       5.13581271       4.71467676       2.85561545
P        4.88093311       6.48143874      11.53706898
P        6.00875913       0.15759947       5.68505695
O        0.07288779       6.69579859       8.50290657
O        4.98443183       0.29082988       9.84052647
O        6.34962392       6.41147182      11.22150514
O        8.82899995       4.00798958       6.07702757
O        4.10386414       5.42428007      10.63280877
O        5.28549129      10.67196840       4.34050071
O        3.60053452       3.34069915       4.41928320
O        4.34783638       7.94781973      11.07778399
Li       7.50784946       4.32927201      12.71809977
Li       2.00477494       2.57333041       5.64225272
Li       2.02262790       4.22629125       7.70323231
Li       7.96872315       9.89868483       2.35276000
Li       3.36910273       8.12819809       6.50906343
Li       1.97404482       1.06411924      12.13010347
P        1.12426101      10.46121474       6.89348134
P        6.87385432       2.54647356       1.62123783
O        7.18993438       3.50654596      11.12656004
O        9.18324462       7.13010362       3.83112020
O        9.58721419       5.03996893      12.55904754
N        0.38589897       0.60088038       5.61974102
O        7.27198906       2.83295105       3.13551626
O        3.68776298       3.68748224       7.22890371
O        0.18961502      10.80491423       8.02820552
Li       3.04738318       1.10603327       1.19448211
Li      10.12946319       7.26984388      12.18205465
Li       1.01806807       7.05742477       6.93799792
Li       6.54397545       0.17564545       8.75508088
Li       3.71608639      10.33017718       8.20816551
Li       8.63228569       1.07467644       6.30296026
P        8.25564908       9.78022851      11.79098296
P        7.46029148       3.20132706       9.65862356
O        5.99635648       3.69944508       0.79038123
O        7.68651321       8.73548885       8.44587331
O        7.81639074       9.68099007       0.44692374
O        9.45100608       1.02546014       3.55920681
N        9.17735720      10.95546894      11.48136237
O        9.10582381       3.52296212       9.83990500
O        0.66429131       3.27646587       7.14068942
O        7.18692569       9.97765018      10.85559541
Li       1.71944447       3.19936101       2.85362466
Li      10.09618752       4.56660128      10.82748513
Li       2.33218626       6.03957364      11.61085015
Li       3.83815260       3.66684005       0.54969648
Li       9.00287409       2.89088774       3.57411852
Li       0.83406182       5.82171832       4.30776326
P        7.90728478       6.75900616       2.98241784
P        4.01846819       3.86564020       5.76777441
O        0.77724881       3.60697674       4.53042654
O        1.15083133       8.90486727       6.98957477
O        7.02778508       8.10714788       3.00374370
O        1.38883727       7.40409838      10.39842385
N        8.24149193       6.50657352       1.36606834
O        2.46190121       0.27207414       7.03145880
O        8.02608069       2.34042078       0.63675413
O        7.23857970       5.46341341       3.49875935
Li       9.84844596       8.05070844       9.35424717
Li       3.94110201       9.68477408       3.32868560
Li       3.38282578       9.67329473      11.83615567
Li       0.99793129      10.62180511      10.09568081
Li       2.65208872       3.47407334      10.75282750
P        6.46427639       8.37844284       7.32705994
P        0.17924408       4.05908554       5.95788465
O        9.03797609       8.52382766      11.18539909
N        6.78496524       9.59871612       6.48599648
O        4.98289672       8.09696630       7.70921079
O        0.35142794       5.55101382       6.33546243
O        6.55996457       4.29566796       8.88655058
O        7.18274379       7.15091335       6.49746492
124
Lattice="10.1931 0.0 0.0 0.0 10.9684 0.0 0.0 0.0 12.7908" Properties=species:S:1:pos:R:3 material=LiPON model=NEP89 temperature_K=1500 phase="NVT production" source_frame_index=2459 relative_time_ps=245.9 pbc="T T T"
Li       3.85250656       6.41683336       8.72897196
Li       8.16781901       7.99989846      12.51362696
Li       3.81011478       9.50173861       7.83040322
Li       7.29493111       4.44190849      12.56037597
Li       5.69143657       5.10547488       1.44722293
Li       9.55318036       3.44976609      11.04582226
P        3.91125120       6.13854746       3.89315459
P        1.03343335       4.15169280       1.07605817
N        0.54290634      10.22857975       5.07635589
O        2.28737188      10.66952222       3.40047734
O        4.49819769       7.58701683       4.11284461
O        6.64270404       2.51253241       2.76376014
O        4.49532591       5.65310791       2.61311154
O        0.23080884       3.74889194       2.27147658
O        1.75157604       7.05423472      10.75935869
O        2.38586561       6.21783882       3.85481896
Li       6.27920097       2.35611433       6.90570724
Li       5.02417655       7.35219672       1.57881374
Li       3.81335254       2.90196840       8.21084726
Li       5.26788151       4.27001534      11.15822284
Li       8.09975652       6.68774959       9.57057574
Li       0.79541079       8.30878703       9.70875196
P        3.55305527       0.27538134      10.10874345
P        1.31299996       0.47913322       4.25373289
O        1.19588301       5.78207952       1.13826350
O        4.02407666       6.54308857       0.17018759
O        4.84421341      10.71989200      10.71891097
O        7.81722398       2.55256338       8.56978623
O        3.85395450       0.98306038       8.77299825
O        1.88380832       1.73129123       4.76442004
O        6.91174398       0.57115019       6.30409969
O        2.56185321       1.07368718      11.02941059
Li       8.93133203       9.44117420       4.07116746
Li       9.30703912       3.10365218       3.64993006
Li       4.26653880      10.68333272       0.46445066
Li       0.44778830       7.91803262       0.15313888
Li       7.00562366       7.67440506       5.21820509
Li       7.67789276       5.14256288       3.89841054
P        2.40518437      10.07472170       1.89404754
P        0.69292172       6.02204053      10.26453318
O        7.13575278       9.94920247       4.25912061
O        4.57662997       5.39700295       5.16133488
O        2.39477184       0.43981459       1.00803978
O        4.81244562       2.80850032       6.25421022
O        3.87983486       9.63498467       1.67708447
O        0.47178865       6.75447167       8.72625971
O        2.26114063       3.19938637       0.75952052
O        1.44878022       8.86904527       1.71825028
Li       8.63234048       2.35780096       1.08487677
Li       8.11240264      10.69776548       8.09638007
Li       3.62411201       9.10982718       3.82168552
Li       1.40049665       6.13760902       5.96005695
Li       0.78934353      10.59206008       9.43428141
Li       1.27046434       2.61046680       6.36235708
P        5.32499049       6.99340374      11.97146099
P        6.21547245      10.46383897       5.48874240
O        1.63672807       4.84651419      10.51346529
O        2.96614253       9.83510441       9.77445318
O        6.76982414       6.34451132      12.06964005
O        9.44627436       4.70153800       4.37086294
O        4.84150918       6.32796945      10.55965660
O        4.84587038      10.88477068       4.81241694
O        2.52074389       3.96479887       5.82752280
O        5.38978397       8.51450781      12.13341904
Li       3.08951535       5.67637679      11.61512343
Li      10.17148277       5.87803456       2.91900902
Li       6.29124723       5.47678149       6.87989478
Li       6.53663053       9.90502439       0.66712636
Li       2.62158223       6.75998319       1.23565030
Li       5.84913586       9.27082008      10.44931909
P        0.94459274       9.26364810       6.52829145
P        5.70526499       2.25283702       1.53411552
O        8.03328397       3.54594578      10.94502363
O        6.83428013       8.30906742       1.79778833
O       10.07446648       3.77527435       0.10432423
N        1.60858667      10.54429249       5.69109795
O        4.22174167       2.37419605       2.13946618
O        3.98389996       4.85112311       7.59822612
O        0.01328896       9.82041188       7.64959465
Li       5.53064485       9.54927853       2.96711035
Li       1.01013361       1.96952553      12.60357928
Li       1.27194383       3.84605956       4.34012442
Li       9.55291088       2.44092066       8.58173530
Li       9.11548984       7.59309576       6.43944001
Li       8.54900864       1.70504296       5.84206029
P        8.89151170      10.71502780      11.23153693
P        7.19959886       3.54473987       9.63033656
O        5.60536093       0.96964859       0.67679247
O        7.01232873       7.21009090       6.81255951
O        9.52974995       9.18215305      10.94566130
O        0.17410177       0.71414516       3.11516042
N        9.71764348       0.55748627      12.37148230
O        7.12079519       4.97023582       9.02248472
O        9.69745774       3.03581052       6.37815468
O        7.53957989      10.12316852      11.86930440
Li       3.40035507       1.97748998       0.10358067
Li       9.79343762       5.96862693       0.33014821
Li       3.15976551       0.94658923       6.27717142
Li       5.62812553       0.92430754       9.37311575
Li       3.70453859       4.09775129       0.94975185
Li       1.26096918       7.79894016       3.37510466
P        7.87624096       7.20424108       2.35810700
P        4.02418209       4.20197688       6.24157817
O        9.73288343       5.49317771       6.72720743
O       10.14726673       8.46901540       5.55923644
O        7.32893181       5.75896561       1.88645065
O        9.57342340       6.12437968      11.15106942
N        9.14926519       7.74548581       1.53349654
O        2.29024015       8.69598079       7.01908253
O        5.68064689       3.43306697       0.64844422
O        8.21471442       6.86573917       3.96392176
Li       1.67098934       2.06360436       2.15177915
Li       5.37419856       3.16385218       4.27934155
Li       3.25939242       8.33103070      11.04430574
Li       9.64307677       0.01795339       1.46115717
Li       4.04455893       1.07729316       3.23956662
P        6.23014225       8.32217376       7.66509206
P        9.09564955       4.37289757       5.87879934
O        9.14901833       0.71763762      10.10118602
N        5.89561544       9.18514048       6.44656443
O        7.00592450       8.90388625       8.79417527
O        7.55724253       4.53429339       5.93827710
O        5.77308950       2.91414799       9.89224787
O        4.84128484       7.83820251       8.11195371
124
Lattice="10.1931 0.0 0.0 0.0 10.9684 0.0 0.0 0.0 12.7908" Properties=species:S:1:pos:R:3 material=LiPON model=NEP89 temperature_K=1500 phase="NVT production" source_frame_index=2489 relative_time_ps=248.9 pbc="T T T"
Li       3.67696726       7.12863068       8.79304594
Li       8.34066018       6.77406993       9.47598115
Li       3.20658260       7.07969950      11.54354973
Li       1.70057190       3.19933459       4.48652830
Li       8.04808738       7.81801319      11.85451893
Li      10.15928207       2.16410080      11.10813724
P        3.78273559       5.21727961       3.77831534
P        1.12603587       3.51107933       0.52159159
N        1.10959792       9.60505055       4.57550041
O        2.45708909       9.74178447       2.80046250
O        3.06431727       4.02217141       3.22547541
O        7.20303488       2.45127340       3.59281675
O        3.06618513       6.53890675       4.40677951
O        1.01686268       4.85846661       1.10317606
O        9.81446337       7.15480851      11.55811332
O        4.81537458       5.75894134       2.79839224
Li       4.26019963       3.48623886       0.86561487
Li       7.22850708       2.52403535       5.83874463
Li       7.51309099       8.77534906       6.11710483
Li       4.14019692       0.05616430       7.01522105
Li       1.85027305       4.25299832       8.11584891
Li       1.18004026      10.54773505      11.58293725
P        3.04676769       1.64816558       9.64910911
P        1.47096873      10.82786265       3.52590793
O        2.55784529       2.86638675       0.78970064
O        4.60306469       5.92485677      10.30104300
O        4.05535856       1.37538576      10.75291042
O        9.97070577       2.80946822       9.05000206
O        3.70051523       1.25086558       8.36458212
O        2.16174339       1.15491233       3.68583614
O        7.44230038       0.64278392       7.90449378
O        2.61055022       3.20519837       9.47396722
Li       7.69035807       0.45441945       3.56602197
Li       5.04231964       7.06125639       0.89537251
Li       3.20725261       2.29778780       2.36561442
Li       9.70924369       5.17153686      11.76121255
Li       8.71173427       5.11575965       4.31835548
Li       4.90636777       2.40534389       7.38055079
P        3.19601872       9.66467230       1.24121788
P        0.59827176       7.60256712      10.33008680
O        7.59173679      10.67203103       5.53607382
O        4.42562857       4.77366307       5.19334169
O        4.45225286      10.47027951       1.13201308
O        2.87186634       3.09547571       6.09940020
O        3.81918680       8.16376971       1.17550736
O        1.15770977       9.09346270      10.29858258
O        0.04449048       2.48158389       1.07713091
O        2.06409489       9.88139219       0.28173696
Li       0.23301730       0.32306727       0.92218343
Li       3.01413508       9.96596961       9.37194783
Li       1.29235236       7.19160549       7.80884234
Li       6.38258665       4.65899986       2.71638978
Li       8.55253974       9.29839464       8.28574733
Li       1.14508397       5.98315120       5.87884961
P        5.26480731       5.26762555      11.61056198
P        6.68412902       0.15078219       6.64458930
O        1.83191148       6.78411024      10.19803307
O        1.65556613       0.95428115      10.01499606
O        3.85803212       5.36346072      12.45404815
O        0.24966175       4.18210999       4.43308698
O        5.55284909       3.79012675      11.44047922
O        5.69595224       1.21117000       6.05150284
O        2.73952289       5.71590164       6.75052671
O        6.41341801       5.91491610      12.39409062
Li       1.45764793       1.43128906       5.92315628
Li       4.76591556       2.57323056       4.68328251
Li       7.68643615       4.54033045       7.38169245
Li       5.58323098       5.32065734       8.85963029
Li       1.88385391       7.97844188       3.99908322
Li       5.65275325       0.49376242       0.26847712
P        1.27156408       9.46616105       6.35405013
P        6.40729315       2.20250598       2.38840740
O        8.44551727       3.51194591      11.11665796
O        6.65691594       8.19635167       4.44581360
O        1.04350118       3.58771862      11.77559679
N        1.32143202      10.65645592       5.19226278
O        4.90196727       1.86975818       2.81271203
O        4.77656379       4.30783485       7.62454996
O       10.04118710       9.71654037       6.90234080
Li       8.53336282       2.50796115       0.05790726
Li       1.02863993       3.96097487       9.78627252
Li       9.21751878       0.56988501       5.91695298
Li       0.16057849       6.04183340       2.99052117
Li       9.77855863       5.66136252       8.02278444
Li       9.70256493       3.23096592       2.66929061
P        8.34159627      10.82186606      11.55492177
P        8.64455665       3.55280600       9.58429957
O        7.02985452       0.88887262       1.77181946
O        7.40435456       8.06058122       7.90223310
O        7.62599640       9.79386472      12.53760697
O        0.02639696       0.06040455       2.79222652
N        7.36578153       1.00359817      11.80159523
O        8.94346738       5.11193251       9.34345459
O        9.97424285       2.27626914       6.05479872
O        8.50618506      10.21933117      10.14012151
Li       2.80850497       3.82411887      11.32207298
Li       7.05919355       3.85291964      12.36745786
Li       0.78685170      10.82984257       8.49615947
Li       5.85679079       0.14911972       9.09452811
Li       0.45571423       8.44054495       0.56394353
Li       3.51359702       7.21259098       6.37791369
P        7.88209831       7.48082610       3.77273529
P        3.56750308       4.49721227       6.49125583
O        0.40153348       4.73569764       6.88754714
O        1.58835737       7.86305631       6.23186360
O        9.34257980       7.67002002       4.40719701
O        9.84897380       7.22727623       8.99329794
N        7.72980047       5.99006172       3.16969904
O        2.60105745      10.09723745       6.92837594
O        6.43372321       3.36615883       1.40412657
O        7.75727481       8.21797779       2.29283321
Li       4.62869081       0.14901079       3.92767348
Li       4.47218720       7.77890465       3.10240726
Li       2.59391571       5.88448358       0.80502677
Li       7.39939227       9.90183505       1.67235402
Li       6.76299873       2.26896302      10.38914850
P        5.89930985       8.67341508       7.95539927
P        9.84780175       3.90678335       5.88713657
O        9.73537138       0.38511662      11.82799098
N        5.61574522       9.88539157       7.04069094
O        5.34048588       8.98384913       9.38135184
O        8.32280807       4.07409017       5.88807699
O        7.23550409       3.25850423       8.87093469
O        4.89664732       7.49676975       7.49432119
124
Lattice="10.1931 0.0 0.0 0.0 10.9684 0.0 0.0 0.0 12.7908" Properties=species:S:1:pos:R:3 material=LiPON model=NEP89 temperature_K=1500 phase="NVT production" source_frame_index=2519 relative_time_ps=251.9 pbc="T T T"
Li       6.78184541       5.75167431       9.04368234
Li       9.44187428       6.72450389       7.59517156
Li       2.95487302       6.21921157       0.00481857
Li       1.81188725       4.21783287       3.71869562
Li       8.80439183       6.98553362      10.99881795
Li       8.61031405       1.44309538      11.84739851
P        3.15265030       5.52767549       5.52347284
P        2.09568759       3.43179602       1.20464116
N       10.17641191      10.71387404       4.94902411
O        1.67990225       9.20772211       2.86540925
O        3.45663346       4.78768111       4.23484189
O        5.83447303       3.16059793       2.48466912
O        2.68599258       4.47895575       6.67179472
O        1.40429687       2.35040258       0.24011331
O        2.16334071       6.02957853       8.66154037
O        2.46462361       6.89491506       5.57387051
Li       6.04231335       2.98606414      11.77403971
Li       5.84856669       3.24737200       8.27274148
Li       7.78573100       8.21613093       5.97120946
Li       2.35736071       7.51137592       7.55838907
Li       0.28272874       9.46842409       8.98576757
Li       2.93091977       7.97571208      10.83200559
P        3.70568276       2.14450376      10.25188262
P        0.34858626      10.21764360       3.24766742
O        3.35959118       4.04474597       0.58524337
O        4.60899189       6.76105070      10.35094094
O        4.53003537       2.07711389       8.98186868
O       10.15036277       2.78120576      10.06961989
O        2.46798223       1.24006286       9.92250529
O        0.90302746       0.65101859       3.00848295
O        6.14514916       1.14816000       5.26265365
O        3.16254401       3.67196614      10.29556243
Li       0.34233231       6.01471130       0.02829211
Li       7.21380847       8.83097437       0.15000188
Li       6.94459851      10.62948226       4.65050071
Li       9.54886263       3.12954578       0.54078062
Li       5.66009499       8.36745424       5.47549323
Li       4.81792271       3.04369040       4.75098965
P        2.48233442       9.18613623       1.35353797
P        1.23544090       6.59127462       9.96811434
O        4.89509290       9.86081830       4.74965636
O        4.64878641       6.19317961       5.86077342
O        3.95824154       9.42057894       1.58747282
O        6.47564228       4.37678693       5.78696618
O        2.05182167       7.89084905       0.63857471
O        1.41957050       8.13665724       9.77695283
O        0.89188235       4.43467630       1.32038483
O        2.09453996      10.52310624       0.41736636
Li       2.04185802       1.01531786       1.42810962
Li       2.67953510       0.09071627       8.39474047
Li       1.32111553       3.65908121      10.99315708
Li       6.98673691       4.52065884       3.87722447
Li       2.94061632       9.24246333       5.36686173
Li       5.38295546       9.74793182       2.68006689
P        5.60037875       7.28495557      11.38219520
P        4.89544760       0.32461890       5.72816055
O        9.90993715       6.41465300       9.76059491
O        4.32756920       1.86437459      11.57479503
O        5.39574579       6.13039762      12.37862099
O        0.95746823       2.23051744       6.62811002
O        7.10663796       7.14343718      10.74134792
O        3.75024472       1.29176690       5.82008558
O        5.15626401       5.05278428       8.00569617
O        5.52923596       8.68998303      12.04827748
Li       7.83101842       1.22330149       7.15208044
Li       0.91732208       7.35389211       4.80532911
Li       6.52532970       0.97283390      10.20425668
Li       0.95740105       4.92134200       7.53836008
Li       9.98333919       7.86856581       1.19299323
Li       2.83109421       2.63759254       6.85838410
P        9.78566368       9.80879360       6.27346154
P        7.20323649       2.57354710       1.97584798
O        8.63609494       4.28427597      11.61850643
O        7.84794089       8.19015186       4.00799316
O        2.59645334       2.59684404       2.43510209
N        0.09459279       9.43396976       4.72054533
O        7.91278768       1.23644530       2.67847505
O        7.08652160       6.33413516       7.11876128
O        8.29061636      10.08347458       6.40167957
Li       2.06216898       1.70596172       4.21796045
Li       7.98863919       4.37815412       7.18372136
Li       1.01187308       2.35548246       8.51691687
Li       4.86132664       5.32265749       2.64969221
Li       4.90063279       6.76244033       8.72014132
Li       9.39438701       2.29750191       3.59219373
P        8.72154204       9.81394644      10.93069956
P        8.62658654       3.54096987      10.09885051
O        8.39514996       3.70203033       2.08423799
O        5.97896597       8.73323837       7.36457752
O        9.21597837       8.69157810      11.83216533
O        9.69746329       9.84179544       2.09340767
N        7.61437749      10.47090530      11.88361139
O        8.40412886       4.61743973       8.84134754
O        8.76609736       2.62607134       6.03615324
O        8.37361165       9.34035426       9.53384595
Li       3.38914923       4.52356654       8.31887212
Li       7.68449777       5.31886577      12.71918045
Li       3.35932245       5.24795424      10.83287903
Li       4.33559504       0.06262813      11.20791596
Li       7.68990843       8.54282570       8.30101864
Li       7.06829026       2.77225344       5.51041683
P        7.40754252       7.36766015       2.85315286
P        5.87984211       5.56295917       6.60838909
O        0.13438372       4.67072407       6.13726160
O        9.85175528       8.24687817       6.72319515
O        8.40514701       6.75249321       1.73774880
O        1.66259152       5.86001801      11.28025740
N        6.61470469       6.19693412       3.39481636
O        0.51050265      10.49315967       7.48120299
O        6.82244063       2.22040093       0.57594294
O        5.97397954       7.68203077       2.36965955
Li       4.64778865       2.56833922       1.01160404
Li       4.62775290       7.68615414       0.81539951
Li       8.09189126      10.32479005       1.95913563
Li       1.18328839       0.97441714      11.16955063
Li       9.87239074       5.39344199       2.51525711
P        4.83338839       9.63488389       8.01816731
P       10.19064143       3.09335343       5.74690361
O        9.64808537       0.17031117      10.84038878
N        5.29038717       0.17564112       7.33365525
O        4.55046494       9.91925808       9.51946459
O        0.44946320       3.16225142       4.25592555
O        7.50251995       2.52632266       9.94051706
O        3.33258001       9.43991991       7.45096264
124
Lattice="10.1931 0.0 0.0 0.0 10.9684 0.0 0.0 0.0 12.7908" Properties=species:S:1:pos:R:3 material=LiPON model=NEP89 temperature_K=1500 phase="NVT production" source_frame_index=2549 relative_time_ps=254.9 pbc="T T T"
Li       9.25541695       2.61721547       3.26610059
Li       6.84675924       7.30266525       6.05519402
Li       9.82344527       4.68899468       8.47122051
Li       8.23784415       8.11188862       9.87162862
Li       6.24502491       2.38416242      12.01316611
Li       8.20355641       5.27046462       1.01288925
P        3.08121436       6.06080012       4.11547214
P        0.61220519       4.24454206       0.48162843
N        2.00262790       0.27383509       4.51169053
O        2.22039892      10.88666558       1.67409779
O        3.77344423       6.33096686       2.81919668
O        7.22162040       2.45068428       3.25216466
O        2.75989050       4.50373414       4.17619676
O        9.94162237       5.41566416      12.72564654
O        2.39727703       5.70021404       9.90092570
O        1.79270640       6.85454942       3.99583413
Li       3.15657830       2.11585533       7.32515763
Li       9.46630727       7.80087551       7.17570520
Li       6.84773915       5.12099079       7.75970432
Li       1.49806242       5.00951413       6.32033982
Li       0.49364889       1.66160514       8.13685126
Li       3.61456342       9.53589892       9.02890185
P        3.04607068       1.21001235      10.35895644
P        1.22355133       0.38600174       2.93499734
O        2.13281655       4.42248271       0.23273848
O        5.51802765       4.31134156      11.31467488
O        3.57903981       1.05894727       8.94425235
O        9.13507704       0.94853821       9.14349217
O        1.94920322       0.20316882      10.87137822
O        1.72216771       1.93245583       3.39247912
O        6.22687956      10.65074569       3.90561881
O        2.45016854       2.69071956      10.26964706
Li       7.48801584       0.80101479       7.75443462
Li       8.29803471       0.97947054       2.01656483
Li       6.70819465       0.33320545      11.70806844
Li       4.60493362       6.83050300       8.91066729
Li       8.33533590       9.75187045       5.55716346
Li       2.30021504       3.55990913       2.63994179
P        2.84055510       9.31454174       1.37320648
P        1.35653189       6.66145895       9.14193488
O        4.78659378       1.20722223       5.87413913
O        3.72098047       6.31172971       5.65159446
O        4.07471483       9.29809221       2.28977126
O        5.17664211       4.21181118       5.63639947
O        1.86443584       8.26724653       1.79271742
O        2.04519890       8.16147974       9.10172128
O        0.52446578       4.32211140       2.07004297
O        3.25951680       8.87018767      12.73420619
Li       4.52099390       0.32633265       3.31462647
Li       4.87897499       4.71198028       1.08317275
Li       0.39549370       2.74235424      11.06208571
Li       4.25789502       3.99469119       3.71189313
Li       2.85415018       8.37102850       3.90432424
Li       8.70699887       1.36333921       5.30537223
P        6.03303739       5.73212644      11.76496484
P        5.95916957       0.04027592       5.49005063
O        0.67028762       6.11985884       7.78272726
O        4.19973909       1.41284663      11.48772564
O        5.80243230       5.98514549       0.45291455
O        9.28598108       4.44145916       4.54611447
O        7.52398980       5.87137479      11.22245936
O        7.33003978       0.39305871       6.15636558
O        3.05399755       4.38360833       7.36251008
O        5.08114858       6.64546371      10.94776736
Li       5.68684097       3.69218888       9.55501706
Li       0.38918960       8.47490004       4.55496375
Li       5.63121019       8.93484432       3.67148387
Li       9.34073141      10.29488233       9.59054714
Li       5.36697671       8.61469655       0.19401096
Li       3.27466276       4.07513363       9.08026298
P        1.82635585      10.31013705       5.94085080
P        6.38978931       2.40802262       1.84933938
O        9.12669797       3.40828235       9.73128710
O        8.38166703       6.36637922       2.54123774
O        0.02535565       2.81314534       0.23434706
N        1.09787517      10.26787980       4.31996814
O        6.33088853       1.00843912       1.19084568
O        5.16810160       5.50826418       7.73690311
O        1.49581839       0.45914421       6.97828549
Li       1.77034373       2.60493726       5.12459630
Li       8.91441721       7.33194244      11.61610539
Li       2.95424913       1.51936521       1.27042444
Li       7.14415134       3.48807691       4.58249355
Li       1.51612222       9.29583606      10.99038749
Li       1.16354437      10.95843418      12.67536591
P        8.72223406       9.63052140      12.57689279
P        8.24301954       2.28538892       9.61796151
O        7.09944069       3.35800060       0.97099742
O        7.70605175       8.05093284       7.79622848
O        9.37625754       8.42690670       0.43184771
O        9.91904539       0.54424688       2.75201037
N        9.51099439       0.02049460       0.18974479
O        6.94033298       2.61758999       8.72243391
O        7.90997915       3.00154581       5.92029155
O        7.23057797       9.78138737       0.19929246
Li       8.91103945       5.15290963      10.36842216
Li       5.81742463       6.79718844       2.07472848
Li       2.83126621       6.64846238       1.12847796
Li       6.75491555      10.28888448       2.08330138
Li       1.74355470       5.09999533      11.30257604
Li       5.92032640       2.46708141       6.49899292
P        7.77318389       7.13367397       3.75323841
P        4.22160606       5.04307073       6.60685540
O        0.21982526       3.29432177       6.53626812
O        0.56173021       9.17773366       6.56013620
O        8.72030471       7.94036849       4.61228262
O       10.17709177       6.73706958      10.04014090
N        6.84277049       7.91764264       2.90894157
O        3.09697490       9.46389091       6.34156370
O        4.89022759       2.91533368       2.01998483
O        6.82171569       6.30016382       4.50965479
Li       3.46124721       3.55963513      11.47800538
Li       4.52038094       8.49156744       6.60565039
Li       1.68899908       7.14184622       5.96737864
Li       0.38394734       5.22071536       3.50091796
Li      10.11567085       7.64882911       2.16377797
P        6.67600916       9.07547551       7.95452090
P        9.13145192       4.02716483       6.00123192
O        9.19818702       9.39913685      10.99116631
N        6.29213409       9.68289317       6.45492498
O        6.94789064      10.13563830       9.00151915
O        8.43469125       5.12474225       7.01946737
O        7.63891248       1.79546673      10.97430934
O        5.28080473       8.30495707       8.35560876
124
Lattice="10.1931 0.0 0.0 0.0 10.9684 0.0 0.0 0.0 12.7908" Properties=species:S:1:pos:R:3 material=LiPON model=NEP89 temperature_K=1500 phase="NVT production" source_frame_index=2579 relative_time_ps=257.9 pbc="T T T"
Li       1.64268089       7.41105260       6.50359730
Li       3.99900556       7.24444448       6.49696271
Li       7.85422604       6.34510478       7.13349381
Li       4.26640759       7.52467459      10.22286684
Li       4.94038233       3.06458924       9.98467683
Li       8.73347716       8.02600676      10.21506358
P        3.29442117       6.43019332       4.21149594
P        9.82572109       4.96880462       0.14078676
N        1.49742121      10.89803730       3.28279822
O        3.48977869      10.94793252       1.71650922
O        3.71517222       7.90420823       4.41811568
O        8.74912493       2.16438990       1.92282187
O        3.69218675       6.04219397       2.79713017
O        8.77944103       5.27682022      11.93411831
O        1.48185396       7.84995182      10.68098962
O        1.82285070       6.04175875       4.59783217
Li       3.80208067      10.02767602       4.81760884
Li       9.79841008       7.19308155      11.66703216
Li       5.98444295       9.05438223      12.53792173
Li       9.25889216       1.88797703       0.01631448
Li       8.59052073       4.34719835       3.29482671
Li       4.16512138       5.30455687       9.33286836
P        2.48185262       1.57251736       9.85705069
P        2.47178167       1.16262149       2.68915872
O        0.69328383       6.25152511       0.41805522
O        3.70691542       6.25299251      12.37226774
O        2.07664593       3.09700446       9.74444180
O        8.86794184       1.10812336       8.91911454
O        2.15499377       1.04439733       8.44665225
O        3.41646744       1.76196050       3.69428207
O        5.67806708      10.41183023       5.55735192
O        1.46060126       0.77149415      10.85205546
Li       1.39066977       9.63450804      11.27352961
Li       8.60276990       0.98575568       5.49234238
Li       7.00046341       0.96513874      12.27514501
Li       5.20737211       1.85654858       7.48647763
Li       9.03165223       9.88053514       7.03769948
Li       2.24546675       4.23120828       5.04306997
P        3.49548981       9.38224254       0.91738445
P        1.42160037       7.01616061       9.45231040
O        4.98801876      10.75795065       7.95492153
O        4.19185421       5.29377321       5.19587966
O        4.94997000       8.76083053       1.13813473
O        4.91384469       2.93448109       5.81022130
O        2.40255714       8.47721776       1.59064151
O        2.48143106       5.86795420       9.56578436
O        9.15596391       4.52064686       1.46739863
O        3.28883510       9.79861129      12.18238336
Li       0.89302268       3.62385622       1.86174763
Li       7.05511882       4.43135209      11.47604017
Li       9.79763008       1.23047941      10.24205131
Li       5.91868719       8.27432844       4.92283097
Li       2.64697809       9.35188430       3.14747122
Li       7.35461960       5.59335929       1.20363789
P        4.64954848       4.84022591      12.38015959
P        6.05924452      10.35652076       7.00418359
O       10.01226397       6.62580821       9.28179244
O        4.01161402       1.57827944      10.47495309
O        3.77060130       3.53756040      12.67510960
O        0.15303524       3.85088759       4.51539616
O        5.14468125       4.56767429      10.91090559
O        7.31683322       0.17010278       6.87273169
O        4.07860326       4.48501708       7.83049928
O        5.75404370       4.67223108       0.56708993
Li       5.39529678       4.85418195       3.86499277
Li       7.83034278       9.86665226       2.88809568
Li       5.67458035      10.94043241       1.85013695
Li      10.17185194       0.45275805       2.16002518
Li       7.00622107       4.89061809       8.79918345
Li       1.91072100       5.06379077       7.55546191
P        1.04759429      10.56524474       4.84424616
P        7.18808218       2.10100303       2.23662384
O        8.42591611       3.73800898       9.07915187
O        6.68397202       6.75914885       2.49321455
O        0.64968694       3.70243568      12.46994936
N        1.42115728       1.03105487       4.18002315
O        7.11966296       0.65329383       2.97963645
O        6.07594233       5.04455091       6.43455479
O        2.29176643      10.41638582       5.92793769
Li       0.47478071       1.80664966       7.81143574
Li       0.68179825       6.68683373       2.67587722
Li       2.78001358       1.42519955       6.25388681
Li       7.41385933       3.76509529       6.27994844
Li       1.92620932       1.57683869       0.11352596
Li       7.36499138       0.13376353       8.70667292
P        8.80534662       9.87001726      12.64628361
P        7.88189932       2.30940470       9.45465669
O        6.16806935       1.80977191       1.06718203
O        8.11550122       9.10779900       8.95692431
O        8.89686773       8.53402269      11.80854527
O        1.48148895       1.95848344       1.75489999
N        9.35657862       9.47623561       1.20798274
O        6.53495197       1.91038014       8.89924456
O        9.16989886       3.06673814       6.54666854
O        7.33277236      10.15861128       0.06467508
Li       2.02551702       7.16855797      12.49758815
Li       5.03694276       7.08043727       1.76120901
Li       2.45627940       5.99885994       1.31946334
Li       0.54933476       8.80872667       2.20202652
Li       5.45129944       0.28404328      10.10532986
Li       5.08961269       1.52916025       4.15704627
P        7.85791635       6.87818002       3.52712451
P        4.76761597       4.25429121       6.45312357
O        1.69271496       3.59907597       6.54469472
O        9.95959309       0.17833891       5.44101736
O        8.02472628       5.84684940       4.62147391
O        1.67562870       7.78706130       8.11792032
N        9.24537167       6.87534748       2.77522327
O        0.85261750       9.02060913       4.34035492
O        6.87320568       3.22262774       3.12226748
O        7.57444212       8.29842023       4.12124008
Li       2.37214929       4.47026409      11.20814691
Li       4.36450764       1.89612886      12.77413565
Li       9.93638246       4.49338128       9.91890991
Li       2.51350156      10.16176155       8.31003628
Li      10.04999020       6.47096384       4.63045220
P        6.78597059       8.36181836       8.58425223
P        0.05047255       3.96020558       5.99037844
O        9.67116629       0.09439898      12.06716537
N        6.17117489       8.77453135       7.18074372
O        5.90689312       8.74051653       9.78934944
O       10.11845511       5.29725822       6.63273539
O        7.78424848       2.17578631      11.01027876
O        7.00412074       6.83006302       8.36662935
124
Lattice="10.1931 0.0 0.0 0.0 10.9684 0.0 0.0 0.0 12.7908" Properties=species:S:1:pos:R:3 material=LiPON model=NEP89 temperature_K=1500 phase="NVT production" source_frame_index=2609 relative_time_ps=260.9 pbc="T T T"
Li       4.80245619       7.19646836       2.69189839
Li       4.76861008       4.36763484       9.46542742
Li       6.09886726       5.23195165       3.24483809
Li       3.02451553      10.96291545       7.56933040
Li       4.72858285       0.08400410      10.88459230
Li       6.96451548       2.31761616      12.64294558
P        2.37294421       5.94587652       4.66280298
P        0.09047607       5.29753514       0.13120553
N        1.98550906       1.13462485       4.29280535
O        3.55636114       0.25449414       1.96519077
O        2.23611529       5.83310293       3.13820870
O        8.38694486       1.94876569       3.63906342
O        0.97833059       6.49850778       5.47437226
O        0.72701709       6.71546321       0.57024048
O        3.12574877       6.38885365       9.36884234
O        3.25273713       7.09009232       5.13908430
Li       5.21139615       7.08353155       5.44978279
Li       2.27779036       5.27522882       7.84552193
Li      10.18028442       7.14176131      10.41962296
Li       9.18319030       1.47869278      11.03829183
Li       8.77002905      10.68903087       4.12539015
Li       4.58904920       2.68278308      11.40243480
P        2.18490011       1.75850834      10.07785373
P        2.58938499       1.37775968       2.48926942
O       10.01388098       4.76408407       1.50040930
O        6.17084738       4.43376677      12.67075722
O        1.97519176       1.17782661      11.59377086
O        5.78839106       1.58104891      11.31667180
O        3.31603301       2.93911124      10.11632566
O        3.21964671       2.59235913       2.90185121
O        5.43504356       9.48925105       5.28122450
O        0.65820687       2.06797251       9.72888376
Li       0.62283772       0.54518644       0.48446218
Li       3.07574195       4.55395778       2.13029867
Li       2.47822473       9.92932071      11.26732160
Li       7.25665631       1.56170111       7.36521589
Li       3.40107617       9.15197433       4.67694853
Li       6.26953846       4.02864209       7.77686102
P        3.34924432       9.78728783       0.96034625
P        2.25321880       7.63332989       9.22049855
O        5.09758952      10.48893978       7.36143951
O        2.78371689       4.43247269       5.20328312
O        4.47117066       8.67182603       1.49881300
O        5.61148263       5.30783392       5.03613393
O        1.94152036       9.04868194       1.00103828
O        2.08444733       8.44539065      10.53032968
O        9.03625399       5.69165399      12.09204253
O        4.34108152       9.80799091      12.40723284
Li       2.08802058       2.18722074       5.95879363
Li       6.02955127       0.03999449       0.34594353
Li       9.40118473       2.71190112       5.51858197
Li       7.51788021       4.76718133       1.11723503
Li       5.53842938       7.80003701       0.18512431
Li       7.90969935       5.03370309      11.13689529
P        4.91237291       5.35345164       0.10018600
P        6.14838357      10.06727614       6.47240415
O        2.96434470       8.47275141       8.04879049
O        2.58190633       0.42504683       9.23547060
O        4.65268937       5.85989855       1.44889736
O        8.72110872       4.99023985       6.13197608
O        4.99592979       6.68432929      11.89894639
O        6.88657112       0.34633748       6.07527259
O        4.87267027       2.81267819       5.50251405
O        3.79797764       4.38043642      12.48635678
Li       9.06602303       7.35936475       0.54952847
Li       8.48540251       8.67313012       5.93733159
Li       1.23078226       8.59820911      12.24823271
Li       0.00506076       9.93598433       2.05662817
Li       0.17323281       6.49288270       7.47034385
Li       4.33238154       7.76042085      10.49605784
P        1.14210923      10.90971121       5.07032554
P        7.45764521       2.38403913       2.53231112
O        7.94675941       3.04630144      10.91138509
O        7.04216655       7.90511169       4.76504821
O        1.12882948       4.59265867      12.09452621
N        1.55817171       0.39055708       3.35997874
O        6.32164239       1.49003730       2.04509086
O        4.74298169       4.38888362       7.25033384
O        0.25325457       0.98931967       5.92154725
Li       0.42184097       1.21486718       7.72459179
Li       2.52587173       7.30752370       0.76490374
Li       5.50098902       1.33942639       4.71159583
Li       2.49310012       5.01579414      10.67864511
Li       0.33073178       3.05325431       2.44235816
Li       7.28702158      10.31994558       9.65230961
P        8.59207725       9.80887185      12.18854356
P        6.88455221       2.07402319      10.19463368
O        8.28575662       3.08124921       1.39683398
O        7.81397247       7.44878413       9.27227352
O        9.32377666       8.41147481      11.97730294
O        1.65844363       1.72681376       1.36989868
N        8.89933637      10.72566619      10.84653040
O        7.44851654       0.97320941       9.30835657
O        8.85016802       2.85858958       7.40766678
O        9.31718589      10.36761727       0.56118880
Li       4.47697185       9.68564582       8.96009499
Li       9.85086435       9.17222660       9.55899358
Li       2.20001379       3.07451799      12.51460071
Li       1.53514925       7.81113953       3.36616994
Li       5.57839819       9.72088235       3.43016123
Li       4.94975049       1.27229963       8.04378396
P        7.77073435       7.95847591       3.49661720
P        4.60731886       4.33650974       5.62111690
O        0.76244812       4.23584275       7.22202028
O        0.34674219       9.82330218       4.43498308
O        7.66585856       9.37192881       2.96091880
O        0.83932626       7.35255338       8.83835620
N        9.39009094       7.71120393       3.57929594
O        2.06789303      10.09798785       5.97518409
O        6.47353699       3.50137707       2.92488827
O        7.22057143       6.78206810       2.51152158
Li       7.26485104       6.38904119       5.91922578
Li       4.88550461       2.84999117       2.56749198
Li       9.70120675       3.53096726       9.92589950
Li       1.36976719       8.05520106       5.95733648
Li       9.20136429       5.80998931       3.28813121
P        6.61326810       7.77329744       8.47934628
P        9.36830524       4.25729112       7.43588930
O        7.13444142       9.51092826      12.21764693
N        6.96982710       8.93420016       7.44527449
O        5.58498502       8.30534127       9.50862269
O        9.09731075       5.14779052       8.67248291
O        5.91831796       2.94291890       9.29060622
O        5.99069650       6.84606286       7.49317143
124
Lattice="10.1931 0.0 0.0 0.0 10.9684 0.0 0.0 0.0 12.7908" Properties=species:S:1:pos:R:3 material=LiPON model=NEP89 temperature_K=1500 phase="NVT production" source_frame_index=2639 relative_time_ps=263.9 pbc="T T T"
Li       7.86632448      10.61848167       9.76678857
Li       2.68176490       5.66382958       7.52385112
Li       4.29124920       8.04766348       1.94842665
Li       4.66105837       6.80835458       8.93632579
Li       4.39983221       2.89168889       4.62262181
Li       6.76729111       7.91540754      11.35515329
P        3.60756506       5.52751508       4.11876507
P       10.17512272       5.61058475      12.29664417
N        0.61924948       0.09014208       4.15747200
O        1.82778821       0.95696333       1.97629914
O        2.21445832       4.91449465       3.66566999
O        6.39516016       2.76995451       4.22033199
O        3.71110349       7.05592456       3.82437503
O        9.39149437       5.37292388       0.90140736
O        2.01080520       6.28386982       9.10125002
O        4.48475620       4.52800319       3.32378260
Li       9.35584874       4.07408024       3.56792780
Li       9.95554713       8.30470857       7.26968393
Li       5.02341639       0.08558482       9.11955066
Li       0.44690280       4.64134463       9.61486028
Li       6.96171139       6.31232552       6.79777818
Li       5.43724776       3.71947645       9.74367095
P        3.37876002       1.41204386      10.95753062
P        1.35064380       1.52987102       3.48738313
O        0.56886935       7.11074177      12.38490168
O        4.33055672       5.57459445      10.71626971
O        4.35300788       1.21152689      12.23774236
O        7.30169257       2.38697459       7.42754108
O        3.97538481       2.67951977      10.29377566
O        2.49188601       2.24822745       4.14382882
O        4.37728196       0.12361952       6.82095868
O        1.87347733       1.49956532      11.32249052
Li       8.96891592       2.30847689       1.22154339
Li       1.58200826       6.28695691       1.60600172
Li       4.38904307       9.65240589      10.92881528
Li       2.82424210      10.04412045       7.26014753
Li       0.98602785       1.47054277       8.96764606
Li       8.05825806       4.04227240      11.36944651
P        2.45859898      10.30927317       1.61509446
P        2.46219682       7.89915393       9.12294360
O        6.73337171      10.78302391       5.99108297
O        3.54695777       5.03704312       5.74292909
O        1.43336680       9.41134450       2.33592879
O        5.96570488       4.96827454       6.02149450
O        2.49823087      10.34488711       0.03336327
O        2.89486247       8.40104336      10.52844572
O        1.06872453       4.50762231      12.14071723
O        3.85220920      10.11215370       2.19047959
Li       2.97667989       3.78868071      11.52557131
Li       4.59097396       3.29748446       1.38227045
Li       7.92954690       0.88245972       4.92318957
Li       3.15532428       9.04177766       4.05894251
Li       6.85454694       9.94972358       3.72950774
Li       0.05758671       9.96999333       8.34921592
P        5.25544230       5.38109620      12.02014426
P        5.26464531      10.20969418       6.05134703
O        3.59598943       8.18918011       8.08213902
O        3.67780427       0.17302356       9.97116730
O        6.16891352       4.13424701      11.70758302
O        1.39093336       4.28786926       6.99272604
O        6.01016312       6.54131266       0.04648096
O        4.99008419       9.63859213       4.64980022
O        4.15235576       2.91350134       6.44188912
O        4.14525265       4.74275603       0.07111799
Li       1.47029604       8.79352433      12.37820982
Li       8.02080782       8.95091826       6.21526944
Li       4.63647007       7.88491213       5.59654393
Li       9.71362001      10.28405041       2.73302834
Li       2.05546724       7.30350621       6.00753410
Li       7.87821564       5.30291514       1.62980990
P        0.74938781      10.39768949       5.68264744
P        6.68421163       2.13941403       2.76214959
O        6.26423298       1.23165156       9.29515676
O        7.32752329       7.85809243       5.14347379
O        9.25079703       5.82399578      11.18289761
N        1.27267182       0.75081103       5.05730254
O        7.63312575       3.15436946       2.03339231
O        4.45813817       4.73894820       8.22074635
O        1.31037704       0.22225130       6.86912158
Li       7.44965884       3.65233371       6.29879880
Li       6.23550098      10.51998752       1.13481145
Li       5.97083018       2.00194513      11.49743955
Li       2.20772878       6.42856755      11.24478953
Li       1.36397010      10.20794969      10.78138222
Li       7.22709155       5.49442687       9.22088717
P        8.24136335      10.19624090      12.20690751
P        7.56194978       2.05017445       8.91957233
O        5.52651607       1.99715401       1.83004205
O        6.72265278       6.95400363       8.63138337
O        8.72651954       0.80825623      12.08207180
O        0.23859939       2.54995330       3.14336392
N        9.23244207       9.79481149      11.03856944
O        8.84529719       1.23245094       9.00907097
O        9.51303526       4.28071074       5.71370117
O        6.73231588       9.89187821      12.00927821
Li       8.56664516      10.80954155       7.44789535
Li      10.16627591       7.11201200      10.04183704
Li       0.94503785       1.24475207       0.19898544
Li      10.10707445       6.95799513       4.43400733
Li       5.86519918       1.44247594       6.94560308
Li      10.17536476       2.56986144       6.65986475
P        7.68603130       7.45807241       3.64350947
P        4.64978007       4.27393603       6.78742543
O        9.20053298       4.96538254       8.10009536
O        9.44677169      10.07684823       5.76014313
O        6.63127903       7.96327146       2.71536944
O        0.94516603       8.76084270       9.12168318
N        8.74705981       8.43020485       3.06229339
O        1.58389440       9.10769539       5.68686794
O        7.15345198       0.67316024       2.60547158
O        8.06764550       6.02356134       3.54408190
Li       1.43427402       3.94884772       4.92921252
Li       6.48990579       5.09856088       4.45364833
Li       9.26543201       7.93298038       1.12716304
Li       1.90660216       3.55335848       2.48883775
Li       3.11314430       1.44506384       7.02673993
P        6.65657602       8.56294018       8.16206543
P       10.13333805       5.01326075       6.83546218
O        9.02709588       9.62268286       0.72246378
N        5.78048603       8.88379833       6.81817275
O        8.21295174       8.99598089       8.14999860
O       10.19147314       6.48449610       6.36250038
O        7.33820492       3.41795155       9.77084655
O        5.78614314       9.23109317       9.11531872
124
Lattice="10.1931 0.0 0.0 0.0 10.9684 0.0 0.0 0.0 12.7908" Properties=species:S:1:pos:R:3 material=LiPON model=NEP89 temperature_K=1500 phase="NVT production" source_frame_index=2669 relative_time_ps=266.9 pbc="T T T"
Li       7.50369739       5.54992598       6.79847720
Li       9.10140102       7.35267916       7.74882411
Li       5.90704811       7.51297629       5.41072927
Li       5.20121998       0.19191852      10.15215835
Li       0.55748451       6.74596214       1.98713451
Li       9.82335222       2.89627726      10.20284701
P        3.22006990       5.73977416       4.22455869
P        0.39189684       5.00429177      12.62293328
N        2.32121981      10.92123221       4.04952967
O        3.81840613      10.39707896       2.59925021
O        2.26753733       5.22758592       3.05939119
O        7.03013339       1.32297124       2.62791341
O        2.74768439       6.67858928       5.36319879
O        1.53245838       6.01848937      12.35990667
O        2.48557009       6.17508309       8.85481727
O        4.44350635       6.42577591       3.43446359
Li       6.17179717       4.85119441       3.68109700
Li       3.09642258      10.56680849       7.66853049
Li       2.26157367       3.09492195      12.08934363
Li       1.79483437       4.28691364       9.72517690
Li       4.94368377       6.38855125       7.64153101
Li       1.94250490       9.66223726      10.92157757
P        2.30410618       1.12363494      10.00560072
P        3.00745641       0.83243464       2.98251400
O        9.32141939       5.44002957       0.45439191
O        4.20506817       3.88111849       0.70961162
O        2.72227879       2.39946604       9.33900845
O        6.11748770       2.18595066      10.30257721
O        1.06289048       0.53040070       9.16781260
O        4.11067558       1.87758768       3.33312991
O        5.57437390      10.47447107       8.65710347
O        1.80144509       1.45103881      11.40229432
Li       8.03410934       4.50325651       0.18724237
Li       9.84029077       8.95697293       2.88758799
Li       3.32019530       3.70907873       2.32577451
Li       2.50569784       7.95041106       6.72420187
Li       1.60328465       0.56434788       0.08379487
Li       8.73956502       7.29502847       0.35117021
P        4.47481794      10.11493390       1.04831820
P        1.85597378       7.48595284       9.25038405
O        7.62881157       9.98315300       7.28050075
O        3.89052833       4.21929055       5.27726055
O        5.54782795       9.06137939       1.40766123
O        5.47753336       2.28000411       6.20506736
O        3.33295915       9.66631832       0.10821294
O        2.34221170       7.70491097      10.75089293
O        0.06729920       4.53342241      11.17442917
O        5.13493899       0.39466857       0.19381713
Li       2.94508426       6.06034068      10.79248828
Li       5.01070333       6.96095598       1.79010466
Li       2.70310900       2.67094661       7.47635952
Li       5.80864919       1.07211299       8.06522681
Li       6.26530963       8.12849402      12.48677478
Li       7.44574162       1.05917900      12.20209932
P        4.62118272       5.04482546      12.34582676
P        6.20980170       9.41600426       7.71425898
O        2.28788046       8.69724405       8.29354410
O        3.39863561       0.02567660       9.98648239
O        6.09775796       4.94396060      12.35748397
O        0.62606889       4.35251598       7.82610719
O        3.85396578       4.69840807      11.09517062
O        5.35598358       8.42012993       6.80309796
O        4.32600753       4.07736452       7.79663445
O        4.23504303       6.39320201       0.34196222
Li       9.85076258       9.07094382       5.24802998
Li       4.87882480       2.05414308       1.72079298
Li       0.38133750       6.79620009       4.55170924
Li       7.62158873      10.77631477       4.44730154
Li       2.68707543       5.41482163       6.86704296
Li       4.11325408       8.71958594       9.15837866
P        0.90294655       0.35553398       5.11884438
P        7.75547778       2.52571583       2.11898526
O        8.49664369       1.52964762      10.59503955
O        7.42877513       9.09574441       3.46426896
O        1.05692535       3.77349844       0.62333076
N        2.02252895       1.32423581       4.28437391
O        6.63263093       3.44974701       2.52319054
O        6.06758535       4.79308749       5.97600101
O        1.10987560       1.43953757       6.18839476
Li       7.34485775       2.56015437       6.31098387
Li       9.43230706       7.87572427      10.79092555
Li       4.39854934       3.55888777       9.85349250
Li       2.16277917       7.85475221      12.66366477
Li       0.45449846       2.43222673       8.02995036
Li       7.26140076       4.89356926      10.86437969
P        9.71383201       9.76631773       0.33551477
P        7.47213535       2.26514608       9.70547471
O        7.93962484       2.79503910       0.53614448
O        7.24343957       7.84807055      10.72486903
O        0.04311723       9.82222337      11.65415229
O        2.49586689       1.56388549       1.69513389
N        0.00747491       0.12835423       0.81579890
O        7.33993763       1.74030575       8.10873544
O        8.70467963       4.15242410       6.37103610
O        0.15809147       8.62957053       1.20686681
Li      10.16939848       1.05092979       2.42707440
Li       6.87446776      10.54302969       1.45930494
Li       6.14738624       3.00604293      12.78762737
Li      10.08909246       3.61201516       3.73784596
Li       0.22498937       0.86220108      10.59989187
Li       2.03936766       3.17315188       4.74455368
P        7.58880375       7.60052400       3.22935488
P        4.95160271       3.89959277       6.40341052
O        9.93728204       6.38147680       6.37496849
O        9.93734693       0.39842656       4.08857625
O        7.21914877       7.03426017       1.82760165
O        0.26397680       7.35175543       9.08556664
N        9.18292071       7.41320823       3.38800494
O        1.22119447      10.02208172       5.86149883
O        9.16820858       2.81528595       2.78242057
O        7.21011665       6.71918674       4.53754795
Li       9.72068855       2.56779079       0.32391940
Li       5.59799481       2.59153027       3.82572596
Li       8.64545533       4.93562548       8.37173828
Li       2.54620865       5.33364877       0.80325579
Li       0.50358861      10.67285522       7.59149551
P        6.59783555       7.36802316       9.37113170
P       10.05030236       4.83250762       6.54942053
O        8.13983388       9.52207619       0.30695446
N        7.23459552       8.40074771       8.35229587
O        5.08768256       7.40127979       9.82031866
O        0.96391796       4.55726624       5.39810260
O        8.09391017       3.71207721       9.62149322
O        7.15530796       6.13599132       8.61566842
124
Lattice="10.1931 0.0 0.0 0.0 10.9684 0.0 0.0 0.0 12.7908" Properties=species:S:1:pos:R:3 material=LiPON model=NEP89 temperature_K=1500 phase="NVT production" source_frame_index=2699 relative_time_ps=269.9 pbc="T T T"
Li       8.47722664       4.27108703      11.34072806
Li       5.23150824       7.35726608       5.15960553
Li       8.08221021       4.72199658       3.90027239
Li       2.19131690       2.86355943       0.64819495
Li       9.94109656       9.87438891       2.55890775
Li       7.89297329       1.30905322      12.42426023
P        2.93664541       6.88070145       4.97634024
P        0.86568011       5.22448684       0.60682352
N        1.60642506       1.19262283       4.25000843
O        2.72494001      10.83593709       1.56729283
O        1.60517449       6.39026098       4.39579616
O        8.87782793       0.30169716       3.10418529
O        3.47671993       8.15959037       5.55554992
O        9.45844240       5.04587237       0.59928138
O        0.87445845       7.42091641       8.00566476
O        3.65205875       6.86569467       3.56188611
Li       7.26758585       2.94415271       5.45912740
Li       3.42023925       9.28439441       7.07868128
Li       6.71379372       3.11477840       1.13377385
Li       0.52584624       3.19072869      10.17133720
Li       6.60398275       7.86338884      11.43540667
Li       9.74591046       0.45238572      10.49418582
P        2.57229463       1.69631346      10.12945919
P        2.37813620       1.25845778       2.56749638
O        1.39830211       4.51264476       1.90448997
O        4.47807447       5.45590536       1.09322620
O        3.25695406       2.47764017      11.25789135
O        8.59208847       1.34525579       8.96505386
O        2.31361365       2.64328271       8.92254438
O        3.65890616       1.99622546       2.54091194
O        5.83299301       1.24053780       6.85883437
O        1.28094795       0.95719659      10.52286388
Li       5.41607994       2.06459021       3.78411913
Li       2.40228483       8.06007771       0.48617379
Li       9.80004954       3.09837224       1.71331354
Li       8.27189255       7.13092414       1.44207165
Li       0.43689487       2.17113287       7.89779443
Li       0.64850040       0.62753802      12.73404004
P        3.87786166      10.25691858       0.81482263
P        2.09158663       7.21860673       8.89907528
O        8.19391687       0.22298995       6.01925264
O        3.68172057       5.74997030       5.96195493
O        4.72490043       9.54465151       1.83364192
O        5.59223986       4.32500383       4.35582659
O        3.47525142       9.35540204      12.46009420
O        1.94947151       8.07861273      10.20393692
O        1.36987782       4.66774240      12.07767400
O        4.56947066       0.53298418       0.30466625
Li       2.66107807       4.67620888       7.84469095
Li       4.33268242       1.31911960       6.01394122
Li       9.46627878       7.33117797       7.16163758
Li       6.37292596      10.68780859      11.94978073
Li       3.63300348       9.46206821       9.35100157
Li       2.76717238       5.67368119      11.06549920
P        5.53484428       5.43477732      12.70843281
P        6.58895427      10.88168216       6.31000247
O        2.38740396       5.80767433       9.29292807
O        3.60038633       0.64944690       9.60644205
O        6.62446360       6.49253333       0.41084469
O        1.02432071       4.04860513       6.77190081
O        6.15440713       4.09711448      12.23214729
O        5.95808899      10.25515441       4.99013469
O        3.89105991       3.14656566       6.05741027
O        4.69803256       5.93829490      11.51724952
Li       6.89441693      10.30903298       3.57512928
Li       5.65318214       5.86783944       3.01220228
Li       5.54533851       7.72860828       1.27961525
Li       7.05373247       3.47475683       7.84754233
Li       7.41240063       5.99673213       6.58180867
Li       1.02048420       8.23326946       4.22303891
P        1.78480269       0.14836716       5.61535094
P        7.90830156       1.49488443       2.76688825
O        7.41298224       3.56808863       9.63573778
O        6.60695041       8.27985230       3.27947001
O        1.31068997       6.57794473       0.79827440
N        2.67082261       0.50023120       4.14826581
O        7.86817852       2.67078986       3.77576374
O        5.82119242       4.46070522       6.83499782
O        0.87559388       1.11428582       6.39986526
Li       5.39920593       0.14524057       9.29861487
Li       7.70586445       5.74692373       9.39456926
Li       5.43484909       3.33747470       9.63390473
Li       0.01817394       6.25857082       3.73713005
Li       3.69602300       1.08494572       7.72804833
Li       4.84961684       2.24947181      12.28528191
P        9.00791829       9.27607759      12.56990863
P        8.02852352       2.08947388      10.18585611
O        6.41391417       0.93248369       2.78463902
O        8.58929113       9.11735880       8.52959538
O        7.89414549      10.11501508       0.40588938
O        1.10679727       1.64160955       1.83376773
N       10.01578856       8.48800172       0.75279117
O        6.91028000       0.95152593      10.75382474
O        8.98220379       3.03462213       6.62440777
O        9.90346751      10.34233980      11.83936416
Li       1.37203188       9.93087347      11.06420892
Li       6.80509768      10.80439555       1.51721202
Li       3.95357213       3.93299930       2.22141827
Li       9.27419784       1.24486016       4.81458177
Li       0.26673366       7.48008812      11.01815018
Li       1.69231377       3.13814690       5.50022551
P        7.70323942       7.62729266       4.12190616
P        4.73830704       4.49375997       5.81929013
O        8.87959213       5.39332849       7.46959986
O        1.06838357       9.93640981       5.15063672
O        7.99844459       6.25207412       3.26604866
O        3.47104188       7.69261977       8.36508412
N        9.14066637       8.22135858       3.75971479
O        3.03079517       0.03602088       6.49382234
O        8.24116613       2.07728548       1.36817763
O        7.20261289       7.54920226       5.60130941
Li       4.91418507       6.55218911       8.53069880
Li       3.96851224       9.99793927       4.11619232
Li       8.95542243      10.94823480       7.56041685
Li       2.34239900       6.18021940       2.51682170
Li       9.30987789       9.53029552       5.48093055
P        6.97629698       8.75972292       8.43749437
P        9.76709351       4.44737037       6.53273990
O        8.43352435       8.24368290      11.55469086
N        6.30553905       9.84408051       7.48611400
O        6.11417073       9.01918061       9.78363748
O        9.83784802       5.02357242       5.10020239
O        9.15755803       2.21079209      11.24978338
O        6.50109118       7.32001104       8.02672095
124
Lattice="10.1931 0.0 0.0 0.0 10.9684 0.0 0.0 0.0 12.7908" Properties=species:S:1:pos:R:3 material=LiPON model=NEP89 temperature_K=1500 phase="NVT production" source_frame_index=2729 relative_time_ps=272.9 pbc="T T T"
Li       4.24955892       7.94939392       6.88970591
Li       5.62560663       9.79232107       5.90417074
Li       8.32766679       7.63575277       6.94586529
Li       2.72172097       3.82658685       9.07030960
Li       6.33700693       5.95004178       5.29191353
Li       5.04828566       1.77025412       0.32933255
P        3.69925628       6.11119968       4.42574527
P        9.29684910       4.93319398      12.54473984
N        2.28571938       1.19714422       3.78999544
O        3.56880457       0.32154642       0.98981175
O        3.14533584       6.98082477       5.54683567
O        8.16219728       0.64561899       2.22852432
O        4.32720373       6.90950994       3.32304913
O       10.08153734       5.72440196       0.81672632
O        2.29585104       9.25582334       8.11913044
O        2.38005907       5.33529030       3.74789805
Li       7.99872687      10.14944090      10.20332693
Li       3.95211266      10.86940410      11.60011742
Li       7.03424116       3.65501733       0.24505361
Li       4.85857487       6.16823319       9.02200776
Li       5.52421277       7.63723606       1.70816305
Li       9.55431796      10.22640997       2.50902278
P        2.12847465       1.50167611      10.25916404
P        3.39698510       1.60393288       2.26985772
O        9.74674468       5.48481269      11.21213470
O        5.33376666       4.19526392      12.62227328
O        1.72955998       0.33439472      11.13071652
O        8.51257780       1.07413638      10.41018259
O        1.01669049       2.74684181      10.00404426
O        4.73316739       2.47202260       2.14617378
O        9.59217304       8.96729153       6.79012012
O        2.87743116       1.05912996       9.03922469
Li       7.37966456       1.97237847       6.74090147
Li       5.25820006       3.32875185      10.97882143
Li      10.13065335       2.12927409       1.50278422
Li       2.13963357       7.22247112      11.53165302
Li       0.69474921       9.84952846       9.68482447
Li       4.64578001       7.84589994      10.79614698
P        3.92065064       9.74586033       0.65378949
P        2.21223210       7.76938830       8.58704095
O        8.14909469       0.12428700       6.50275214
O        4.59488135       4.83083591       4.95750019
O        3.49603400       9.19467462      11.96048469
O        5.33384784       5.47861043       7.31012498
O        5.45329780       9.50095793       0.82912379
O        1.70931087       6.84693257       7.48825019
O        9.38923683       3.33796767      12.65356098
O        2.72871971       8.82809111       1.33311131
Li       8.87756666       4.18507180      10.02389289
Li       5.51895714       2.86014045       4.61287915
Li      10.17335594       1.20655204      11.26904710
Li       1.97021046       5.08510389       6.20488535
Li       1.29809500       3.81296913      11.20131774
Li       9.24629936       7.20136787      11.11417271
P        4.48960853       5.38941607      12.13552239
P        8.89455743      10.17081830       7.51318385
O        3.48834146       7.38081322       9.34697418
O        3.26314293       2.15101752      11.22289795
O        3.02733055       5.47449983       0.07896462
O        9.09631311       4.85032644       8.01881622
O        5.36829315       6.71137276      12.13642936
O        9.89642064      10.85929201       8.47559889
O        5.56707682       3.02123773       6.59292830
O        4.27582963       5.09735967      10.59239628
Li       1.35808504      10.82910534       1.74911189
Li       5.62896962       3.98450981       1.80671259
Li       7.07545326       9.92854453       1.77657314
Li       7.18483158      10.96788894       3.92278295
Li       0.34179108       5.40766777       4.50639716
Li       1.68835120       8.10082751       6.26957303
P        2.47517949       0.06206365       4.95898169
P        8.08950146       2.08207181       3.04817951
O        5.76696989       1.19455461       9.26033021
O        7.06330053       7.56105801       5.05025468
O        7.70641805       5.16528896      12.57544495
N        3.44804986       0.68333276       3.64787239
O        9.43441141       2.66518355       3.69746344
O        3.34780692       3.70428238       7.16381650
O        3.79470003      10.75019902       5.77532322
Li       6.56023216       8.89148918      12.21707432
Li       4.33700206      10.39354103       9.20334986
Li       7.04451566       4.49683782       7.19691968
Li       7.31670747       5.98557391       1.94257121
Li       1.65144434       2.49689407       7.66189274
Li       6.89278048       5.90249278      11.29178183
P        9.36583984       9.80640751      12.64860666
P        7.08437987       1.78725913      10.18972519
O        7.35506693       1.70757257       4.34727491
O        5.67319062       9.30306173       7.83897182
O        0.08534473      10.92034834       0.08639839
O        2.20308292       2.43561060       1.89077060
N       10.14588437       8.89468849       0.76264049
O        6.48514057       1.91743104      11.71388335
O        9.20906710       2.41029964       6.80615555
O        9.26221609       9.12206321      11.21033161
Li       9.70899750       1.25486483       5.30549561
Li       2.87016856       8.25002262       3.19687740
Li       2.62368971       4.58307062       1.77870681
Li       2.46856064       0.03025237       7.49863066
Li       0.50145797       6.13947841       8.40636211
Li       1.48787810       3.09518677       3.81561695
P        7.95218996       7.91965835       3.78249394
P        4.55903274       4.31858568       6.62047272
O        8.22936551       4.32397153       5.65191742
O        1.60199557       0.80720772       5.92553155
O        9.18893070       6.88885096       3.83949761
O        1.10078942       7.80950240       9.77409135
N        7.01501231       7.66351010       2.48744360
O        1.92298689       9.85388436       4.14208146
O        7.42355196       3.25260207       2.24141329
O        8.45730658       9.44103605       3.75084776
Li       8.41877205       1.08174133      12.66331035
Li       4.61334794       1.93163254       8.07758946
Li       9.68990609       9.03910948       4.87737974
Li       9.81739257       2.25793921       8.67141016
Li       0.51059356       7.15331246       2.11977901
P        6.57485258       8.82455210       8.93556812
P        9.40671895       3.91507804       6.75116420
O        7.85338089      10.16597489       0.21417714
N        7.94485500       9.61609294       8.54742546
O        6.82402608       7.34984126       8.92398498
O        0.57334840       4.06452528       6.01108356
O        7.38196595       3.19904872       9.35762309
O        5.90916133       9.01009586      10.39037239
124
Lattice="10.1931 0.0 0.0 0.0 10.9684 0.0 0.0 0.0 12.7908" Properties=species:S:1:pos:R:3 material=LiPON model=NEP89 temperature_K=1500 phase="NVT production" source_frame_index=2759 relative_time_ps=275.9 pbc="T T T"
Li       7.83340798       5.04102521       1.84305763
Li       4.37944917      10.21218550       8.46917476
Li       6.01870223       7.30145813       6.78081842
Li       5.13866667       3.48905082      11.54823249
Li       8.76663696       1.60533182      11.77581329
Li       6.67667581       9.17445788      12.18986521
P        2.36548224       6.23741194       3.84434224
P        9.56329010       5.14276321       0.09909157
N        2.07876468       1.27933900       3.51233490
O        2.80152523       0.52506394       0.97986708
O        3.51281817       7.38705210       3.65319340
O        9.28269205       0.77847823       3.98151265
O        2.32982187       5.37104215       2.52864205
O        8.63968831       6.51728947      12.63830520
O        2.67370396       7.40049627       7.22313379
O        1.00935998       6.99030887       4.50636986
Li       1.61283713       6.66661682       1.17830029
Li       3.69088061       0.97419231      12.09445723
Li       1.10934666       1.95605848      12.60309527
Li       4.99447880       6.84612278       4.48913462
Li      10.09891276       5.44758750       4.10051953
Li       4.12280700       8.02904035      11.35925937
P        2.51528280       2.57506863      10.10541740
P        3.06928055       1.63101502       2.10861100
O        9.87466782       5.57299181       1.55520152
O        3.43741400       6.00102779      12.76357858
O        1.09859254       2.06998770      10.62499135
O        7.96788399       1.04105972       9.97328407
O        3.38274512       1.49942805       9.10266569
O        4.53225550       1.86395411       2.26287481
O        9.66978818       8.44867160       6.76384129
O        3.28687057       2.95968260      11.55492388
Li       1.82573176       3.28059940       6.73394031
Li       6.73277702       3.61630301       7.11128382
Li       9.73067210       1.78382163       8.92895107
Li       9.37637479       8.16538257      10.86703960
Li       2.04287534       0.84987755       7.99862389
Li       4.26536410       1.76445960       7.01258908
P        3.71482167       9.79931098       0.67962220
P        2.44067805       7.61788827       8.67305540
O        8.53508981      10.66089651       6.55976773
O        3.03856114       5.28623166       5.13922760
O        4.28950482       9.78017742      12.07141936
O        5.29147170       5.82737323       6.02542884
O        4.92567429       9.84692576       1.83432204
O        2.96340186       9.07780227       9.32355986
O        8.72340033       3.81313636      12.46577376
O        2.65030323       8.76982147       0.94867301
Li       6.88349152       4.80946538       8.95779742
Li       7.65913115       4.48359257       4.82052759
Li       5.58267147      10.34414252      10.37291084
Li       9.17276905       7.12028786       8.42032234
Li       2.70063925       3.99492523       0.25281119
Li       8.50142483       7.57195699       1.41228713
P        5.01695001       5.85995396      12.58446106
P        9.34798597       9.71070728       7.61771649
O        0.78897469       7.44119068       8.81205574
O        2.30909380       3.80784731       9.13556758
O        5.36223411       7.29327725      12.67087117
O        9.63711176       5.05792773       9.32995089
O        5.73413531       5.15708791       1.00263945
O        0.22022932      10.36787168       8.45630277
O        5.37216590       4.11118350       4.23743564
O        5.39472209       5.46713337      11.20074621
Li       2.41465812       5.63018582      11.19806887
Li       5.26845788       3.86913504       2.35026174
Li       1.19861253      10.67814534       2.14629552
Li       8.19325377       1.03438663       7.85149467
Li       9.69668496       6.42153515       5.97868851
Li       8.36792192      10.53420249       4.79350644
P        2.41008969       0.55136215       5.16336789
P        8.12933536       1.91553351       3.60424434
O        6.11849068       3.01957561       9.42803118
O        6.45932391       8.29759571       4.88462352
O        0.83609542       4.77846467      12.13967536
N        3.21720106       0.73269091       3.66204769
O        8.87595263       3.26006775       3.53255263
O        4.28769785       3.56347903       6.57917655
O        3.72920880       0.52385922       6.02088497
Li       5.32894549       7.20233692       9.88579688
Li       1.39308734       8.31133497       5.99680961
Li       5.69961137       2.14326462       4.37739905
Li       9.22545679       2.05406058       1.23746788
Li       3.96165171       4.96993983       8.31864793
Li       7.22705494       6.47925414      11.84695259
P        9.73716107      10.00739222       0.19820759
P        6.47706641       1.58532080       9.86782291
O        7.32500506       1.96389583       4.96513482
O        5.94207355       8.63907583       7.88460845
O        9.80077522       9.03625597       1.35635377
O        2.02809055       2.71750208       1.57375717
N        0.42694539       9.42971765      11.90840484
O        5.74111303       0.64130357       8.89818659
O        7.92899016       5.03717122       7.24369861
O        0.21918168       0.40056938       0.74357605
Li       6.74510978       9.69486954       6.74986499
Li       4.72072284       8.09866542       1.95501322
Li       0.38991687       8.89205940       4.12338739
Li       1.33408560       9.93666452      10.22485896
Li       1.10177729       5.75065971       9.08205873
Li       9.59835531       1.99465368       6.09786231
P        7.64496284       7.82880548       4.02956404
P        4.55384614       4.59074486       5.42280011
O        0.24881463       4.60634230       6.76919009
O        1.56523040       1.50991138       6.01090549
O        8.16640438       6.26715148       4.31406347
O        3.16526492       6.62621896       9.69969137
N        7.10056446       7.87224582       2.57853730
O        1.69526159      10.17262981       4.95073892
O        7.32482445       1.62508048       2.39624149
O        8.85945823       8.61148614       4.18764366
Li       7.33648399      10.47924847       2.03442538
Li       6.52276610       2.25114039       0.79842062
Li       3.55883514       9.44706119       3.57194540
Li      10.13289855       3.70931256      10.52282360
Li       0.72537925       4.38460287       2.32362667
P        7.07190857       8.35125674       9.07284272
P        9.17251982       4.35050250       7.85270222
O        8.23592879      10.26629852      12.52527131
N        8.37160510       8.94975854       8.60558476
O        7.12440008       6.81834009       9.12523797
O        9.08306245       2.78887639       7.70312396
O        5.71479389       1.46818314      11.34360374
O        6.50740965       8.85832978      10.51838871
124
Lattice="10.1931 0.0 0.0 0.0 10.9684 0.0 0.0 0.0 12.7908" Properties=species:S:1:pos:R:3 material=LiPON model=NEP89 temperature_K=1500 phase="NVT production" source_frame_index=2789 relative_time_ps=278.9 pbc="T T T"
Li       0.80360510       8.68120814       3.31396899
Li       5.48068894       7.57649022       4.62079055
Li       9.91459158       7.41637066       7.98099332
Li       7.28527432       4.93990152       6.19786591
Li       9.28354527       4.72869534       4.72354844
Li       6.30827938       3.39149899       3.58422486
P        2.33561821       6.46785187       4.03010329
P        9.82197176       3.88482307      12.66185755
N        3.68751828       0.50574053       3.32007523
O        3.62820964       0.85844019       0.97880496
O        2.70772466       7.13111046       2.84037670
O        9.66054483       1.94188025       3.65039810
O        1.41054729       5.12808268       3.73001606
O        8.62113555       2.95650923      12.62667142
O        2.83914881       7.25417981       9.81422636
O        1.45972008       7.42177561       5.02075857
Li       9.32813046       2.77355446       9.72600882
Li       3.20268080       9.31921083      11.97098867
Li       9.00279286       9.89107248      11.53245356
Li       5.35466055       6.82504265       9.80893939
Li       3.32085805       7.87583069       5.72707067
Li       7.02948598       8.39428809       0.29338000
P        2.27856527       2.23051694       9.39632593
P        3.15720173       1.71409830       2.28148901
O       10.00780318       4.65359570       1.22340260
O        4.32645754       7.17629905      12.47134562
O        3.31826712       1.98165510      10.37587820
O        7.88730682       1.75462610       8.96694190
O        2.32883039       1.57304361       7.97461755
O        4.23128328       2.72479212       2.35401916
O        9.71260690       8.84925539       6.71300226
O        2.37006730       3.80987030       9.17562698
Li       8.78417064       7.42674199       5.66926483
Li       8.62004209       9.96229084       4.87849492
Li       3.77459855      10.83503406      10.36056710
Li       6.68148327       6.80912608       7.59355965
Li       5.30367567       1.75836997      10.97145364
Li       3.99370824       0.77579638       7.73091816
P        4.97426493       0.28426137       0.34847255
P        3.18720677       8.58056737       9.04736766
O        7.41252098      10.04582933       6.79217681
O        3.71101873       6.11825491       4.68692249
O        4.60798749      10.55614186      11.78799600
O        5.71582070       6.43236535       6.08975637
O        5.79460354       1.52266829       0.11084895
O        2.86752085       8.59650217       7.52807419
O        0.93191804       3.06839323      12.36716671
O        5.83976058      10.27182921       1.15666831
Li       4.64114837       2.72391294       5.88525957
Li       2.31217654       6.19738029       8.54022474
Li       0.62065176       3.63584486       3.07824312
Li       4.15290417       4.09736752      10.09004237
Li       2.36264044       7.25046656      11.57335628
Li       1.31218686       9.14433221       6.59688159
P        4.21270574       5.65199716       0.05531494
P        8.62416870       9.65428269       7.65172400
O        2.57573613       9.90318197       9.63781821
O        0.80161846       1.94716534       9.94969653
O        4.88873282       5.54298671       1.40516609
O        0.99176259       5.97625898       7.50712650
O        2.77806652       5.13991120       0.24961362
O        9.33559467      10.80542790       8.26026243
O        5.45130915       4.14196466       4.82056282
O        5.09697905       4.79564254      12.02023664
Li       2.80636615       2.48860878      12.47075396
Li       5.35309467       5.95755806       3.01449084
Li      10.11748710       6.14248185       2.92321553
Li       5.75888844       9.85002765       8.22351378
Li       0.41601961       1.39135749       0.63625145
Li       6.70238207       0.94206825       6.07886744
P        3.23406767      10.71081043       4.75369990
P        8.22499345       1.60248463       3.22900985
O        5.88113968       2.39634708       7.45563675
O        8.52544755       8.11330457       3.79602128
O        9.86663728       5.00198060      11.53323621
N        2.67265738       1.09455435       3.71781744
O        7.62459160       2.95951588       2.35631299
O        3.44853618       4.68279936       6.66210158
O        3.97163005       9.40151489       4.57812032
Li       9.67705205       6.80748692       0.19393777
Li       1.21652884       0.37720845       7.18715422
Li       5.81501685       3.01643144       1.29042083
Li       9.13285745       5.66145104       9.87459540
Li       1.98613920       3.57058809       7.12154642
Li       1.93231895       6.44751284       1.18300133
P        1.15782475       9.39895488       0.43132295
P        6.39266573       2.10140733       8.84709213
O        7.26318703       1.31008324       4.32912465
O        7.46322213       9.24539135      10.88406289
O        1.30314347       7.91756676       0.25824410
O        1.84095540       2.34971768       2.11671459
N        2.48427335       9.74323487       0.95480892
O        5.57911610       0.66359949       9.28684848
O        8.70115638       5.76296853       6.65144152
O        0.18870333       9.45922846       1.71175040
Li       3.72716990       9.00362039       2.07182630
Li       5.65378816       9.59670656      10.69005158
Li       8.76777148       9.10637994       2.13139467
Li       0.82588426       0.21490305       9.96390236
Li       1.23557653       4.38579741      10.83997178
Li       8.78687591       2.82132366       7.42295062
P        7.71946911       7.06147272       3.13302472
P        4.74806704       5.20461225       5.69305252
O        0.35186233       3.84930290       6.18551218
O        3.90311126       0.58632555       5.91382813
O        6.23063953       7.53219715       2.92009252
O        4.79163047       8.81295516       9.27960196
N        8.29904049       6.92665124       1.68008823
O        1.71488110      10.38019402       5.08874525
O        8.22704038       0.18269134       2.56067391
O        8.01122990       5.71657265       3.78094860
Li       6.36152489       0.33988421       2.77699929
Li       0.03592615       0.24663404       3.11540497
Li       2.64057250       4.19453338       1.83653595
Li       7.37915379       3.97230078      11.02185935
Li       7.74245046       1.26475261       0.86670779
P        8.01398719       8.09395170      10.09903395
P       10.07017143       4.96720545       7.19194750
O        0.96272985      10.37136160      12.07017540
N        8.25309613       8.33030636       8.58545539
O        7.11366218       6.82629460       9.87368378
O        9.44406050       4.23353024       8.43390297
O        5.84614522       3.30968985       9.97130376
O        9.28448732       7.65942397      10.89825756
124
Lattice="10.1931 0.0 0.0 0.0 10.9684 0.0 0.0 0.0 12.7908" Properties=species:S:1:pos:R:3 material=LiPON model=NEP89 temperature_K=1500 phase="NVT production" source_frame_index=2819 relative_time_ps=281.9 pbc="T T T"
Li       0.65606040       8.12448475       7.52821920
Li       1.49420784       5.09678071       1.75315097
Li       6.80931355      10.17576667       8.97837743
Li       7.83271853       3.96566604       7.35681406
Li       7.98581745       0.91732536       6.71213091
Li       2.76888880       6.24593239       6.78178248
P        2.79176934       6.30446298       4.03277215
P        8.89226892       3.84682337       0.17035705
N        3.52843842       0.41031491       3.45648569
O        4.74343151       0.35687528       1.56533350
O        3.43623931       6.05561371       2.59690561
O        9.74521709       0.12606369       4.02476991
O        1.42710984       6.00327662       3.74997513
O        7.85258364       3.85554536       1.39721567
O        4.50348577       7.56694671       8.27557646
O        3.26539055       7.60689933       4.43275630
Li       0.73952646       5.65020436       9.61493116
Li       3.78260472       8.20062671       2.46168170
Li       6.41909135       9.86840699       2.26792650
Li       5.46404472       5.88348064       8.44148713
Li       5.08216613       7.25073813       4.52432648
Li       0.97117227      10.39593990       8.46409195
P        2.22285254       2.43896817       9.38963830
P        3.73829261       1.48830336       2.17224552
O       10.11324121       4.59695369       0.49082164
O        5.33117537       5.91799445      12.73051561
O        1.65866458       3.60421974      10.27352929
O        7.92544056       0.67346048      10.20874923
O        3.53929375       1.88318509      10.13376184
O        4.74261767       2.77407948       2.17063369
O        9.82122234       8.73063922       6.26273453
O        2.56514077       3.00260630       7.98541892
Li       5.29648000       8.89753961       6.04413176
Li       1.79323642       8.83886243       5.48619049
Li       5.22592248       2.31234482      10.78886384
Li       6.74048347       8.01597821       0.04593305
Li       1.03529572       7.48753324      11.74440958
Li       6.08666241       2.26260537       4.65542385
P        5.28480323      10.95732721       0.00486559
P        3.28681495       8.08150180       8.99370117
O        7.43233585       9.67149853       6.54638831
O        3.73651730       5.35983559       5.06905513
O        3.95641512      10.73944473      12.05544193
O        6.09201845       6.52867336       6.06422045
O        5.97569693       1.31704175      12.25153027
O        2.71690684       9.57429913       8.51711560
O        8.92123220       2.40662661      12.44904795
O        5.87703710       9.59439233      12.71830989
Li       2.73968415       5.50721797      10.17784689
Li       1.75067184       4.17750078      12.37190337
Li       4.70940111       3.46593938       8.69511459
Li       3.19849056      10.52181367      10.54524086
Li       3.67384881       9.29181896      12.54895429
Li       2.96662146       2.74406806       6.48628031
P        4.28400767       5.19823234      11.99985598
P        8.85211194       9.41650841       7.13105118
O        2.28868614       6.88080013       8.77453247
O        1.23475581       1.34031705       9.20797496
O        3.59282545       3.97077415      12.72159883
O        1.02450858       5.97179331       6.48939204
O        2.79368440       5.98678638      12.00673340
O        9.52654525      10.77619838       7.71257612
O        6.07866414       4.39012524       4.99541821
O        4.39388134       4.78233233      10.45811338
Li       6.36288997       4.79925182      10.73853222
Li       7.72394408       6.93825652       7.03813522
Li      10.00172572       6.83149415       5.09187863
Li       8.98886997       9.29379456       4.31196382
Li       1.43677772      10.90930945       3.30707290
Li       7.37712735       5.73542066       4.81444842
P        3.64782619       0.47929971       5.19839167
P        8.74360249       1.24475730       3.25883722
O        7.08324726       3.16488337      10.15384692
O        7.12056705       5.80323652       3.11873799
O        8.05970667       4.79713705      11.88225198
N        3.45808683       1.59714922       3.81146510
O        9.67613055       2.34375238       3.03198589
O        4.75771808       4.60295871       7.29099367
O        2.25574343       0.44341314       5.83033425
Li       5.15571267       4.34877133       3.34622897
Li       2.32073908       3.37022683       4.40509462
Li       3.93544120       4.63126285       1.80793819
Li       9.63937905       0.35581375      10.07254302
Li       9.13366176       4.68175091       3.48575517
Li       8.92323609       6.62015719      12.19030439
P        0.40333429       9.12105924       0.58938754
P        7.44291822       1.84392505       9.28548802
O        7.47756713       1.21554599       4.05897808
O        7.46654943       7.81850787      10.86332097
O        9.75948800       7.66358307       0.21829588
O        2.42743105       1.70710311       1.50170178
N        1.80151104       8.84824010       0.05854408
O        8.29604708       2.47518913       8.13956895
O        9.09779265       4.96885495       5.47792842
O        1.04804407       9.23866442       2.03507456
Li       0.14399819       7.01771773       2.39779628
Li       5.47087470       7.80827443      10.96214002
Li       8.21291097       0.54584021      12.03434909
Li       4.16059587       0.85812419       7.89467049
Li       9.77329135       3.21061181       9.00057938
Li       8.24022158       4.50633660       9.73293224
P        7.41238370       7.33747715       3.02041510
P        5.33333283       5.25989649       5.93873976
O        0.62043484       3.59657860       5.94663296
O        4.62911999      10.25444314       5.24132911
O        8.76250608       7.58786520       3.65147054
O        3.57797853       8.26544291      10.43611252
N        7.65044428       7.63655481       1.50753349
O        4.46582738       1.63070935       6.32166673
O        8.35971563       0.57551609       1.97817554
O        6.37909078       8.20905034       3.57843783
Li       0.36816124       1.22303960       5.84831771
Li       0.52910709       1.53104408       0.97846330
Li       5.86886697       2.71244573       0.83896420
Li       2.99475047       2.19459895      11.92908969
Li       7.01450611       5.55272074       0.79754886
P        8.40539599       7.32345586       9.76422949
P        0.00970303       4.81288887       6.45729013
O        0.03125531      10.52329123      12.50807471
N        8.62683618       8.54504908       8.62131505
O        7.67870478       6.16527864       8.95160815
O        9.70758203       4.75841406       8.07357424
O        6.27503875       1.33819861       8.32415131
O        9.68977557       6.83539649      10.20999186
124
Lattice="10.1931 0.0 0.0 0.0 10.9684 0.0 0.0 0.0 12.7908" Properties=species:S:1:pos:R:3 material=LiPON model=NEP89 temperature_K=1500 phase="NVT production" source_frame_index=2849 relative_time_ps=284.9 pbc="T T T"
Li       8.28952239       9.22047567       1.36700852
Li       1.93684268       4.95413905       5.44831018
Li       6.61683683       9.93602512       9.52642127
Li       7.89875940       2.62325788       5.91846286
Li       2.20000439       9.18278326       5.17607570
Li       7.16832464       7.12636243       7.83229077
P        2.90953699       6.65886552       3.83548933
P        0.14519222       4.04142574       0.73793299
N        2.85726909       1.31095097       2.69168162
O        4.93058309       0.61004201       1.04043814
O        4.21282509       6.97215767       3.14805698
O        9.43068157       1.52062097       3.39731145
O        2.35047797       5.33396229       3.35980604
O        8.74011042       4.09526181       0.76255469
O        3.09157320       8.98529880       6.79804782
O        2.12818817       7.91533319       3.85465642
Li       7.02003111       3.62191245       0.14057266
Li       7.54983083      10.68196593       6.87868010
Li       2.96345969       8.14248644       2.16907214
Li       9.37075937       3.24552267      10.47470919
Li       3.55419979       3.97434253       3.65693897
Li       1.61094140      10.46236518       7.58860739
P        1.53684077       1.95265643       9.98015212
P        4.07762473       2.00438792       1.71371293
O        0.45846265       4.13907147       2.34059926
O        4.38699556       7.26715788      11.38660918
O        2.63624332       1.31949374      10.81533913
O        5.00513958       1.16266876       8.87826252
O        1.84723220       1.98879387       8.31706299
O        5.34464776       2.76211495       1.88091261
O       10.18307924       8.26099739       5.96480474
O        1.27199996       3.33882443      10.61426915
Li       1.61852429       0.91687236      12.47043308
Li       5.82082720       7.95365977       4.56669834
Li       7.44005691       1.03437665       1.60564405
Li       1.00972432       4.76894388       9.55435610
Li       3.63861203       9.10737305      11.42625310
Li       9.28892943       8.93158236       3.64532897
P        6.26791128       0.21960464      12.56306795
P        3.72595177       8.70092525       8.11059340
O        7.81764030       8.64272899       6.71523386
O        3.29425623       6.10552720       5.43459248
O        5.25465239      10.70010664      11.41897334
O        5.73705759       6.82876959       6.09319822
O        7.10418587       1.44905973      12.50670294
O        2.78371945       9.70282107       8.94776563
O        0.30720001       2.52584076       0.39369953
O        7.11788703       9.99496874       0.30991614
Li       1.26776202       7.15690632       5.88006597
Li       4.70143320       2.62727616      10.60481399
Li       4.28517799       3.25868892       6.89710546
Li       4.06106760       0.19490213       9.89166130
Li       0.03263645       6.69818559       0.05478747
Li       1.09933243       2.27909653       6.70196149
P        4.83819828       5.77750821      12.16117672
P        9.25886591       8.81095723       7.24627299
O        3.66863940       7.34196899       8.64969859
O        0.01778217       1.20243091      10.30365320
O        4.41730586       4.62986251      11.21004096
O        0.56231997       5.86012517       7.46419344
O        6.34224456       5.83822295      12.38416218
O       10.07426513      10.12394509       7.53943592
O        5.16401575       4.54158692       4.70699497
O        3.94176011       5.95493901       0.65829686
Li       9.59445290       0.92907348      12.47270926
Li       1.37087707       7.74198785       8.32903580
Li       2.21266281       4.51912184       1.25019459
Li      10.12711609       2.83232472       4.28018456
Li       0.76242170      10.60361820       2.77308497
Li      10.14582312       5.44732370       3.94758256
P        2.82535289       1.31588939       4.44613003
P        8.13226318       1.27389625       4.02846129
O        7.57203601       0.51388884       9.42989524
O        6.87133517       5.87953407       2.63318266
O        0.81684123       5.02082424      12.65324589
N        3.92144843       1.99720186       3.29201202
O        7.19315638       0.22036071       3.37158067
O        4.72092199       4.80452941       7.48458061
O        1.93885781       0.15387134       4.32605680
Li       1.99736025       6.15197657      11.95605789
Li       8.57638036       3.69357856       2.44523955
Li       0.94064828       2.22859602       2.45564638
Li       6.55887150       7.78441422      11.74199335
Li       6.03475699       3.91165864       3.25039491
Li       6.77256743       4.44987063       7.96799899
P        1.50432415       9.24941164       0.41697673
P        6.45878205       1.63802085       8.84085510
O        7.35328192       2.66677121       3.95017481
O        7.23053289       6.69319200       9.65048471
O        1.59669667       8.00392450      12.41358000
O        3.25527588       2.54149694       0.61690527
N        0.22291502       9.99560432       1.00295507
O        6.62632927       2.23655898       7.43403317
O        8.25991278       5.17838019       6.95369158
O        1.79840496      10.13574895      11.95173811
Li       1.48602599       8.16883262      10.72309370
Li       5.24043356       6.14953219       9.50451823
Li       4.74504837      10.82223431       7.30326053
Li       7.86679595       6.58958866       6.03145449
Li       2.62129507       3.10554536      11.82732696
Li       8.42380248      10.67145316      10.84081428
P        7.58061735       7.17457185       2.73724816
P        4.87411514       5.51162846       5.97755281
O        0.09027925       4.42588217       5.44804608
O        3.84226861       0.92972782       5.55359518
O        6.67140198       8.44319421       2.27186207
O        5.11689899       9.34293986       8.29331133
N        7.67104734       7.43966497       4.14526782
O        2.02322682       2.67475240       4.83605326
O        8.14520058       0.86359201       5.52946230
O        8.84080645       6.98746412       1.75556976
Li       9.36101825       0.37848733       8.50419460
Li       5.08057304       7.08468762       1.57940223
Li       5.95464701       1.77285953       5.52936690
Li       6.25941078      10.18284157       1.93682683
Li       8.06161097       5.67125122       0.22010778
P        8.59083971       7.55291141       9.90010572
P        9.74444685       4.82923435       6.95168348
O        2.38979328       9.58422898       1.61166851
N        9.25431349       7.99716789       8.57539854
O        9.63098610       6.62972696      10.52836164
O        9.95731229       3.77333997       8.14980975
O        6.46722260       2.65793364       9.86753239
O        8.09544988       8.75744017      10.74388859
124
Lattice="10.1931 0.0 0.0 0.0 10.9684 0.0 0.0 0.0 12.7908" Properties=species:S:1:pos:R:3 material=LiPON model=NEP89 temperature_K=1500 phase="NVT production" source_frame_index=2879 relative_time_ps=287.9 pbc="T T T"
Li       9.25094883       8.93923616      12.14190130
Li       0.54919164       6.85064327      12.65096862
Li       1.99029209       1.76295770      11.57737340
Li       7.67204261       3.35266803       4.59361297
Li       4.57619355       8.70298647       6.23781097
Li       4.01125963       1.07331207      11.72593180
P        3.23016552       7.34104486       4.24992948
P        0.49156215       3.95420383       0.95606862
N        4.70333529       0.90833735       2.99034377
O        5.53463214       0.61140053       0.91030903
O        3.52034242       8.34842722       3.00146135
O        9.63250797       0.58982514       5.88756274
O        2.48497684       6.15961003       3.92260634
O        1.14152044       5.27528752       1.39182508
O        5.04107653       8.85908520       7.80834940
O        2.63262421       8.35794249       5.43385818
Li       6.74929816      10.65621337       2.98383722
Li       7.17773859       5.69560643       7.81945591
Li       0.75671442      10.81192975       7.26938852
Li       9.21732485       1.12500229      12.37863459
Li       5.06450274       0.60090464       6.89793079
Li       1.65755579       2.23049206       7.64961188
P       10.07898015       0.97451709       9.70395166
P        4.85962316       1.87643831       1.55351409
O        9.07767847       3.94843989       0.85131203
O        4.33008349       6.13578034       1.55827240
O        9.35091968      10.89821111      10.67271341
O        3.09243273       3.28107820       7.94319121
O        1.01684800       0.53095127       8.69085996
O        6.11386073       2.76502382       1.48977784
O        8.39934878       9.36877316       8.39458357
O        0.49020858       1.95442824      10.65986566
Li       6.02084423       3.69582504      12.59149614
Li       3.67534464       9.59308767       4.44164525
Li       7.83654444      10.42672575       9.69608481
Li       1.89562185       7.53342391       7.06988849
Li       6.39105447       7.30707412      10.79499311
Li       9.61953138       9.57379714       4.63982534
P        6.85412448       0.86130689      12.66171711
P        4.39069930       7.82391162       8.83005545
O        0.67126583       8.36414251       8.89498472
O        4.69432152       6.89982114       4.86299814
O        6.75686199      10.33698441      12.06204848
O        6.91530925       7.27287347       6.01908276
O        6.57411732       2.06257167      11.77691684
O        3.55838649       8.68992743       9.87387326
O        1.05454099       3.57088123      12.37792300
O        8.04734980       0.95609696       0.76631885
Li       1.59428485       7.34879888      10.11501853
Li       8.55328766       7.21748004       5.22639642
Li       2.89082509       3.80079575       5.89379598
Li       2.97364936       4.82964469       1.91375667
Li       7.50497836       5.40130436       0.49503099
Li       5.92821737       3.09267193       6.47612538
P        4.46863480       6.24469403       0.13634890
P        9.46610631       8.32441939       8.13770569
O        3.45699962       6.89740794       8.12711313
O        9.21528065       1.60166589       8.72478739
O        4.64073966       7.73130936      12.33033989
O        1.28776010       5.52613683       6.73292438
O        5.80837717       5.46198381      12.33913280
O        9.76868444       8.11051577       6.64460991
O        6.80876510       5.43930617       4.03631526
O        3.20948636       5.86146120      12.24476179
Li       1.73952732       1.10887120       1.31663308
Li       9.68960310       3.72007634      10.83056588
Li       5.16713687       8.47051613       1.06073899
Li       9.73681673       1.21943955       2.25707537
Li       8.29984112       5.41665328       3.43807528
Li       0.78642928       0.91135011       4.68985169
P        3.55468395       1.10264516       4.36757219
P        8.14188533       0.88819314       5.28274581
O        5.67237820       3.32112679       8.60210847
O        7.94834332       6.15988057       1.92908863
O        0.91433894       2.84485249       2.16611049
N        4.08844275       2.09270233       2.92426977
O        7.29280327      10.59626663       4.98297687
O        5.78249090       5.07382791       6.53624335
O        4.35588260       0.16882286       5.24548904
Li       3.81203374       9.04620780      11.68211343
Li       7.79346415       3.48844457       1.86018521
Li       2.15412679       3.40612574       3.55357210
Li       6.50298071       4.40213863       9.98621514
Li       2.27823301       7.72319632       1.41195344
Li       8.56742331       2.83787332       7.40480018
P        1.45512212      10.09465991      12.53137134
P        4.15235141       2.69169628       9.02838697
O        8.32278281       1.74216434       4.04121952
O        8.32523963       5.03815909       9.92103914
O        0.86752628       8.84653391      11.55123011
O        3.71069419       2.08354362       0.59820135
N        2.36520846      10.91989319      11.51528017
O        3.83111765       3.56611969      10.33843747
O        9.12454302       4.29475060       6.43599625
O        2.61445304       9.43796926       0.75217013
Li       1.15990426       9.95105107      10.07438924
Li       2.03043877       4.62918631       8.70535661
Li       3.59692223      10.52923272       9.00125624
Li       6.79633616       8.92226345       5.79045053
Li       3.15584336       3.85271708      11.82876092
Li       5.90522304       6.03851361       2.52069410
P        8.43785716       7.74532024       1.99241284
P        6.13444405       6.18365063       5.31236502
O        9.89872584       5.86166794       4.83664014
O        3.45230719       2.41318863       4.99006843
O        7.35919694       8.67258269       1.84244846
O        5.47013228       6.76608043       9.34193457
N        9.05204788       7.98551410       3.43747418
O        2.29514807       0.25936728       3.84635239
O        7.40946984       1.53923193       6.46109983
O        9.65944084       7.79504752       1.02881600
Li       8.82841923       0.13299906       7.63852486
Li       4.30193410       5.60454277       7.39750364
Li       0.83895446       6.56655489       3.10144607
Li       1.65781365      10.00345940       2.61506207
Li       4.04067670       5.63446929      10.46421338
P        9.09562769       6.36112131      10.11663934
P        0.33980427       4.79920017       5.90474063
O        0.41721766       0.05231232       0.44028505
N        9.18582710       6.86477273       8.59999740
O        0.22324102       5.99909857      10.56552881
O        1.17770035       3.78123099       5.17184696
O        4.19707338       1.19799581       8.94243704
O        8.34159886       7.38082660      11.01070616
124
Lattice="10.1931 0.0 0.0 0.0 10.9684 0.0 0.0 0.0 12.7908" Properties=species:S:1:pos:R:3 material=LiPON model=NEP89 temperature_K=1500 phase="NVT production" source_frame_index=2909 relative_time_ps=290.9 pbc="T T T"
Li       6.66802324       9.02098200      10.53068488
Li       2.85744598       3.33820515       0.92574312
Li       8.22391332       2.68487688      12.59331769
Li       8.63571209       2.32593503       6.69292525
Li       1.38078051       2.49465657       6.96775731
Li       5.06232301       9.14173236       0.12302245
P        3.99770589       7.02014034       4.52658575
P        0.22043657       3.90701168       0.92191960
N        4.01938017       2.62528556       3.19079882
O        5.59459292       1.24588081       1.45719353
O        3.88260517       6.32042966       3.13248993
O        7.66018295       9.75567497       6.34516725
O        2.63901714       7.51198800       5.09606188
O        1.04056968       5.05840422       1.62240771
O        5.68070997       0.47967463       7.50629276
O        4.88832568       8.21861597       4.38758136
Li       0.67539106       1.87378400       2.14613713
Li       8.12140609       3.98422183       3.40369292
Li       0.29677087       0.67741302       4.83879986
Li       1.54307923       1.35288467      12.09472256
Li       3.28756973       5.16759004       7.71737731
Li       6.62008917       7.31774233       3.90559802
P        9.22107605       1.89239703       9.25422438
P        5.65718764       2.60519810       2.29098029
O        9.72435547       3.98009764      12.26771461
O        5.70121218       8.01028035      11.64619974
O        9.75792553       1.05917005      10.50608235
O        2.37848726       2.06602499       8.42470529
O        9.96540550       1.37823709       7.90206412
O        7.09749816       2.52499498       3.02267462
O        1.58057368       9.98766609       8.66622675
O        9.91973648       3.36807890       9.32442741
Li       5.15117468       6.00881282       1.41053152
Li       5.58912429      10.13917687       5.88859466
Li       1.49796586      10.84177285       6.91349699
Li       0.06124126       7.86693601       4.80316754
Li       8.00695717      10.90272298      11.28228519
Li       1.28882678       6.66431889       6.04456728
P        6.65173306       0.87568924       0.16272931
P        5.13270394      10.24541623       8.29362455
O        1.96857171       7.61061422       8.08363779
O        4.97701658       5.74886980       5.32728480
O        8.10301217       0.63137533       0.61756371
O        7.08427323       6.69813776       6.06724696
O        6.29728268      10.45509032      12.22934331
O        4.44888408      10.83980262       9.58560647
O        1.15025625       2.74436160       0.60466587
O        6.62049866       2.03558769      11.96840791
Li       1.29860464       0.91480483       9.01419274
Li       4.87602011       2.04259523       6.66485111
Li       0.81189117       5.06336682       8.60956303
Li       0.87563389       5.28369819       3.35164491
Li       3.63021242       4.80796677       2.81496778
Li       6.63893518       2.04427157       4.90429146
P        4.70934355       6.83050039      11.53751298
P        0.87506783       8.67681268       8.13896400
O        4.51645899       9.24346541       7.19571318
O        7.75118800       2.24694302       9.01193304
O        3.53777953       7.45518344      10.63583017
O        1.65773179       4.66627114       6.64446941
O        5.29661777       5.87069160      10.46661571
O        0.40499151       9.05081372       6.72738632
O        6.73246666       4.23080654       6.85412743
O        4.12269339       5.96445516      12.57981981
Li       0.56855909       6.37745984      12.48635983
Li       8.53923375       5.38206791      11.26629630
Li       3.14006442       7.19690218       1.46370843
Li       4.99133453       9.79498139       3.51322064
Li       7.39539225       8.08831416       7.53815617
Li       8.42147153       5.78278741       5.42175994
P        3.28995254       1.75279011       4.27196725
P        8.02571397      10.56840011       5.07159090
O        4.55459981       3.24733876       9.08653635
O        7.89161066       5.94430753       2.82274502
O        9.38305788       3.34069917       1.88109030
N        5.01680824       2.03458925       3.75565338
O        6.80135090      10.15832916       4.20320702
O        5.10677421       5.95512359       7.66999917
O        3.22680748       0.13780820       4.39911331
Li       3.95609104       8.19080620       8.48322104
Li       0.94896938       9.49552760      10.49317413
Li       2.89501660       4.27968492       5.48303532
Li       5.95127390       1.74877803       8.99020875
Li       1.97244516       6.37850152      10.21199317
Li       9.01248521      10.14016670       7.53797915
P        2.17017320       9.70161142       0.51639576
P        2.96438846       3.05857029       9.49542168
O        9.39724765      10.36024247       4.44535963
O        8.16945558       6.40856670       9.76755622
O        1.04133721      10.28900873       1.32020951
O        5.11224480       3.84421824       1.56881697
N        3.59384625      10.13695396       1.13667140
O        2.40836764       4.48568311       9.68627266
O        9.58690368       5.45540662       7.16848307
O        2.39343133      10.55926322      11.80159156
Li       7.80177932       8.70505437      12.77288784
Li       5.86832009       4.71921490       9.40170809
Li       4.41949834       0.49313407      11.46522369
Li       8.54621236       1.76519555       2.17625274
Li       5.07772813       2.96566004      11.89247372
Li       8.05955780       4.52985675       1.34705250
P        7.96303675       7.17390895       1.78529404
P        6.11719529       5.59335030       6.61620941
O        0.30456583       5.54203890       4.87112143
O        3.26871144       2.48268677       5.71257700
O        6.51234846       7.87247829       1.46795771
O        6.43508863       9.38316782       8.82094098
N        8.95986378       8.19261953       2.20982245
O        1.89201608       2.45219954       3.92496938
O        8.14280006       1.11123716       5.42898170
O        8.52024206       6.62200438       0.52618139
Li       3.15068309       9.65906131       5.86184354
Li       3.39623491       9.84568735      10.16128224
Li       0.72157179       3.71931636      10.83736303
Li       8.93634809      10.16422690       2.58771613
Li       8.39815288       4.46003311       8.76973246
P        9.23169241       7.64037294      10.12367223
P        0.21387090       4.56622901       6.09594511
O        1.88710176       8.29318870       0.15277633
N        9.65910709       8.48933255       8.84910627
O        0.03323058       6.85413629      10.90384281
O        0.04033515       3.08078381       5.75953038
O        3.11348107       2.38739622      10.90360362
O        8.52517652       8.66198936      10.98440673
124
Lattice="10.1931 0.0 0.0 0.0 10.9684 0.0 0.0 0.0 12.7908" Properties=species:S:1:pos:R:3 material=LiPON model=NEP89 temperature_K=1500 phase="NVT production" source_frame_index=2939 relative_time_ps=293.9 pbc="T T T"
Li       4.50103086       5.21142027       9.16029279
Li       3.56200777       3.43906823       3.65525189
Li       6.90337675       1.03082186       8.92081263
Li       3.36337765       4.46834252       1.26206668
Li       2.66010979       5.66903114       9.99714192
Li       7.36200947       0.95392789       3.40102721
P        2.68592549       6.56070257       4.38666750
P        0.34615546       4.37899204       0.94864125
N        5.52725931       1.44978772       3.38419812
O        5.75730266       1.12658652       0.90800487
O        3.61185751       5.89696603       3.37069059
O        0.55948759       2.43084764       5.03167627
O        1.17991888       6.14459549       4.75647702
O        0.92071238       5.84877201       1.17249760
O        6.56397369      10.02607316       9.54045478
O        2.44621864       8.05088084       3.90680870
Li       2.82273650       0.11356600       2.58388592
Li       7.54975930       5.51791794       3.10089709
Li       9.29646157       9.44714649       5.74566926
Li       4.09764948      10.27033126       9.06509543
Li       5.39034234       8.33028108      12.78337903
Li       5.93507847       6.54266631       5.62746236
P        9.55814174       2.36195075       9.90232846
P        5.16034184       2.21219648       1.90541841
O        9.00655427       4.57993357       0.51806822
O        4.55694304       5.38387801      12.51667398
O        0.03376687       1.58655732      11.01406778
O        3.22142074       3.80182815       9.80742436
O        8.89128739       1.51047498       8.77701214
O        5.79825594       3.54621315       1.96868089
O        0.45015725      10.46346777       8.78038735
O        0.32328254       3.40194457       9.32732814
Li       0.53677772       6.22267444       3.13971789
Li       2.54758936       1.83732101      12.22856045
Li       0.46781256       7.59619987       0.67519745
Li       2.59732784       9.66058330       5.44773817
Li       1.39145426       0.48247848      10.25011345
Li       0.93842567       7.09622667       6.22443201
P        7.11179489       0.63235223      12.74529492
P        6.43079729       9.61120217       8.00046342
O        2.54107212       9.10455157       8.07720065
O        3.71726023       6.85599029       5.69555950
O        8.42950951       1.00352020       0.57829326
O        2.52608231       5.47513491       7.72563368
O        7.03911414      10.09763823      12.20553330
O        5.06203481      10.04774254       7.35209361
O        1.45352430       3.85961313      12.65666303
O        7.05420918       1.61132332      11.50700242
Li       8.69856334       1.55095889       6.40460357
Li       6.24602913       3.81722985       4.28311945
Li       2.28049314       0.80679048       7.38659290
Li       0.93576141       4.54241722       7.97574721
Li       6.55285867       3.33533124      10.22829458
Li       7.08293570       9.82207661       5.39121900
P        5.41731414       5.99536067      11.42708194
P        1.07121727       9.10395240       8.38036232
O        7.63879990      10.03118480       7.10771754
O        8.42235424       3.45020804      10.41750918
O        4.39863477       6.74645593      10.61656027
O        9.42296615       4.45169368       6.42756512
O        6.33629474       7.14278005      11.99698482
O        0.21877350       8.64709466       7.09309242
O        5.09239049       5.47615932       7.31843568
O        6.18919133       4.95141133      10.75388216
Li       9.04394915       2.85348924       2.72879942
Li       1.15546300       4.17572990      10.89262862
Li       7.81845573       3.20965908      12.47263723
Li       9.51334859      10.80922091       2.67232785
Li       8.30816403       5.41527434      10.75091503
Li       6.29233202       5.34446017       0.90180670
P        4.67062071       0.50739025       4.59412336
P        0.62974690       0.92393500       4.85924881
O        3.22633347       2.80094611       7.48603789
O        8.86928421       7.48812660       1.87118927
O        0.46428207       3.49917905       2.14026359
N        4.19604883       1.45542110       3.28762650
O        1.43033541       0.33097201       6.01096384
O        3.59811355       4.32085942       5.61124599
O        3.90269939      10.28804548       4.09497349
Li       4.35203763       8.64883108       2.99429373
Li       8.91251981      10.26701790       8.44414291
Li       5.55167035       3.49522609       6.84823384
Li       5.73219059       8.26911270      10.19825486
Li       8.63267235       9.15842556       0.31623177
Li       7.98218596       4.66370771       9.15362014
P        2.42839913       9.94055349       0.42734181
P        3.65989358       2.65752827       9.04417271
O        1.35246975       0.20824821       3.59411609
O        1.23357199       6.10918298      10.89953005
O        3.31887183       9.63382343      11.88936668
O        3.76735575       2.42571240       1.23776595
N        1.86548828       0.51309912       0.50928150
O        5.23227447       2.91123222       9.17748013
O        8.82204538       4.25365086       3.90949849
O        3.35569593       9.37037437       1.63826683
Li       1.38663216       9.35343579       3.21134925
Li       4.44959933       7.88051260       7.01039035
Li       5.84731926       0.95033018       6.95386328
Li       1.01013372       1.78593917       2.40118270
Li       0.23630248       2.12509364      12.68202728
Li       8.39402361       6.60708975       0.13823171
P        7.89298520       8.29484328       2.74282522
P        3.61024274       5.52302221       6.72361586
O        7.32810729       3.03380988       5.85091968
O        6.24111556       0.16270885       4.96845248
O        6.37392733       8.05925842       2.48122453
O        6.25848578       8.03356635       7.87064377
N        8.16527182       7.90197820       4.36171350
O        4.09689971       1.24587018       5.72512709
O        9.38088031       0.34316843       4.75600009
O        8.19651084       9.77913308       2.37757995
Li       8.53493146       7.59689451       7.56815232
Li       2.60027228       8.12353505      10.93770041
Li       2.38654254       6.13759181      12.68235591
Li       8.00691354       9.86039020      10.95628974
Li       0.58680083       4.28696908       4.99542348
P        0.20241887       7.16579835      10.43665315
P        8.28329689       4.22209378       5.40312988
O        0.91646004       9.56220108       0.49921214
N        1.00288670       8.21949451       9.63362774
O        9.53804391       7.69848061      11.63429311
O        7.08829962       5.15143406       4.96091681
O        3.20733166       1.16847801       9.43545558
O        9.43425260       6.21439609       9.49738319
124
Lattice="10.1931 0.0 0.0 0.0 10.9684 0.0 0.0 0.0 12.7908" Properties=species:S:1:pos:R:3 material=LiPON model=NEP89 temperature_K=1500 phase="NVT production" source_frame_index=2969 relative_time_ps=296.9 pbc="T T T"
Li       0.00665479       1.27142067       8.27866789
Li       0.79520029       5.51809139       3.10432736
Li       3.95702047       0.88821998       2.84779107
Li       3.42639627       6.58474016       1.05792274
Li       5.34286492       8.67240176       5.51384523
Li       7.67365226       0.08316952       8.11746856
P        3.42381391       7.62236579       3.96566820
P        1.64899764       4.58119358       1.04065428
N        5.94081424       1.02442769       3.91766005
O        6.92627687       0.90320147       1.45841640
O        3.28216342       9.14110951       4.55268257
O        0.99643478       2.19216490       5.89515693
O        4.68603525       7.34158932       3.05629109
O        1.54972825       6.07268894       0.46838289
O        5.86467339      10.02468201       9.33170853
O        1.98217039       7.49512672       3.40419982
Li       8.27035685       4.01410274       1.36348042
Li       7.25096990       7.23942079       8.37402167
Li       8.34567671       4.85785057       3.72450293
Li       2.73959206      10.36399377       9.01167992
Li       0.98339120       7.97325276       1.65079468
Li       3.44613370       9.64138888       6.57727298
P        9.29060509       2.84935181       9.26098201
P        7.01001983       1.85785183       2.83737028
O        0.20384663       4.03442921       1.53961812
O        7.03281848       5.33855556      11.91498877
O        0.08918741       2.19740977      10.25502444
O        2.77977093       3.58399709       9.25316199
O        8.20407387       1.98325861       8.81490842
O        8.46407385       2.36982453       3.27373054
O        9.43974807      10.60355290       8.19717661
O        0.01641255       3.42488294       8.15636136
Li       9.00860153       0.97985474       4.93368443
Li       7.48834200       3.27578679      11.34066438
Li      10.02709655       7.06790354       7.17609135
Li       7.73978200       7.16590850      12.19522512
Li       7.41231244       9.95254596      10.16378035
Li       0.37707698       3.91908763       6.01145067
P        8.00933577       0.88438513       0.15223522
P        4.94941310       8.80890394       8.98715575
O        1.84138328       9.85191554       7.49494798
O        3.59389598       6.66452808       5.34699562
O        8.74177645       2.18862499       0.23256611
O        1.49473871       5.51793561       5.15469180
O        8.86166694      10.52496001       0.03803113
O        4.86207056       8.52530222       7.42900850
O        2.12302060       3.32332600      12.72523352
O        7.35924838       0.86793976      11.50564399
Li       1.69491654       3.82614372       7.90769801
Li       4.92458765       5.15765939       4.65420331
Li       2.05629728       0.69138433       6.81682079
Li       2.49217219       5.25664769       9.82901618
Li       7.74340394       2.69567727       6.66034108
Li       0.74123152       8.05027605       4.38462898
P        5.43507958       5.32838056      12.10086138
P        0.28063486       9.55291019       7.77728155
O        5.94812658       7.60700213       9.43986629
O        8.36337633       3.91007759       9.79187672
O        5.17981939       6.31443900       0.51927520
O        7.31996169       7.15286714       6.57544815
O        4.59800808       5.72713307      10.87445990
O        9.86381332       8.99221118       6.39708639
O        2.40698289       5.71171273       7.61006975
O        5.23907212       3.66015184      12.50995002
Li       5.16880935       8.21838527       0.97322262
Li       2.41461491       6.66262501      11.70507753
Li       1.51885238       3.54761909      10.99284688
Li       1.73827165      10.25827529       4.12075484
Li       9.31512533       0.54107850      10.65262565
Li       6.44870131       7.36698212       3.49039846
P        6.43633935      10.79933425       5.06394065
P        1.39345606       1.74364307       4.51140000
O        3.35387646       1.22693626       8.13859172
O        8.33292851       5.78953834       2.14096478
O        2.75924713       4.67766700       1.98688872
N        7.23987141       0.58561293       3.83424399
O        2.92943621       1.36980471       4.73845378
O        3.56590880       4.11387206       6.06844347
O        6.86503525       9.37777173       4.48662228
Li       7.37917897       5.75621260      10.11305253
Li       9.84600979       9.20557190      12.00462904
Li       3.89293411       1.91835353       6.16896353
Li       1.89797154       8.84771568      10.86865173
Li       4.54008836       4.07026663       1.33111123
Li       8.47788807       8.34630635       4.93730962
P        2.44249380      10.01629554       0.62466425
P        3.71525079       2.35292490       9.21165857
O        1.26003476       2.80430983       3.44851815
O        1.38353301       6.64435781      10.09488687
O        3.05157670       8.59908816       0.46658988
O        6.17238402       3.02980171       2.85543105
N        1.82256190      10.00070141       2.11170348
O        5.02631941       3.09095978       8.71649739
O        8.96176080       5.33362683       5.70441576
O        1.32108631      10.49235226      12.43673155
Li       0.24355846       2.01956624      12.72256145
Li       0.43094957       7.06268561      12.51948659
Li       5.62153555       0.97916851      10.08762928
Li      10.07445284       2.22188983       2.34545541
Li       8.19565088       9.74273217       2.53995889
Li       8.76272206       4.60878007       7.79977624
P        8.45682496       7.26610387       2.01163840
P        2.75282118       5.45519254       6.08334840
O        6.95120430       4.57753653       7.15400817
O        7.24638117       0.52530252       6.20310645
O        9.58424978       7.48823390       0.93926524
O        3.62727088       8.79701113       9.70559343
N        7.25933961       8.11143406       1.59500139
O        4.93936926      10.75126887       5.50325327
O        0.62233324       0.48321883       4.05835073
O        9.03627583       7.91559077       3.30404242
Li       5.00082800       4.34033515       7.18824049
Li       1.87897422       7.70084945       8.71513254
Li       6.75325819       3.13984595       9.07835270
Li       4.66004387       1.58889543      12.77648831
Li       2.56744866       4.19858107       3.69270222
P       10.11018230       7.10379165       9.71403993
P        7.43923787       5.65558112       6.08435862
O        3.65595706       0.13578871       0.77996607
N        0.19203839       8.28363151       8.68608683
O        9.59222012       7.92786054      10.88165819
O        6.63645054       5.79119590       4.83072295
O        4.16433348       1.80910935      10.72030885
O        8.96465260       6.35159729       9.02291953
124
Lattice="10.1931 0.0 0.0 0.0 10.9684 0.0 0.0 0.0 12.7908" Properties=species:S:1:pos:R:3 material=LiPON model=NEP89 temperature_K=1500 phase="NVT production" source_frame_index=2999 relative_time_ps=299.9 pbc="T T T"
Li       9.57488984       8.77707739      11.31046511
Li       4.17946194       0.17174118      10.68350786
Li       0.26001037       5.08602486       8.01833988
Li       0.95445558       3.73044975       4.67783763
Li       6.99418491       5.13516357       4.96788083
Li       5.61903595       2.01820885       8.19810358
P        3.94619894       5.94892931       4.21537613
P        0.16887229       3.87502892       0.73956630
N        5.24604305       1.57076169       4.09484480
O        5.76334361       0.75516280       1.29729074
O        5.40207695       5.58586883       3.91903990
O        1.40632119       2.14929553       3.52350753
O        2.94334863       4.93800097       4.25286195
O        9.31928827       4.26830366      12.42924142
O        8.67033723       9.09279103       7.53265931
O        3.69613497       7.20138666       3.33637738
Li       0.30686651       8.69143661       3.11966409
Li       9.95924525       1.19662211      11.86686428
Li       7.77979005       2.69484001       3.14204177
Li      10.09622058       0.78024295       9.44954226
Li       6.24560181       5.64695539       2.24468405
Li       5.40972016      10.53440387       7.69592838
P        8.28648780       3.04745084       9.15621257
P        5.19216652       1.82854013       2.39181710
O        1.14502981       5.04706126       1.16953041
O        5.27573591       5.08642875      10.60771885
O        8.96001247       2.10033638      10.36952114
O        1.37985365       1.58444791       9.93582702
O        6.80192611       2.90636207       9.14816565
O        6.21578550       2.91490474       2.53080297
O        1.12933324       0.06014622       7.66510833
O        9.12540363       2.45123455       7.88707499
Li       2.81038686       0.59485213       6.79801577
Li       8.08689639       5.90967038      11.45132670
Li       0.23487761       8.05252112       6.95476640
Li       1.84475230       6.91075843       2.10540402
Li       8.67106416       2.75411986       6.00012665
Li       7.99513047       6.64546950       8.69449328
P        6.79901428       0.75944013      12.77476877
P        7.74706242       9.35019370       8.88044525
O        3.22619796      10.20238073       8.93226069
O        3.99545439       6.45453878       5.78521798
O        6.11916052       2.07576230      11.93805309
O        5.20539445       7.67686295       7.67791057
O        8.29465618       0.87894902       0.08504990
O        6.80485379      10.54213575       8.71146662
O        9.25503658       3.79732357       1.94341032
O        6.48344472      10.46636536      11.98507518
Li       2.71245077       4.79345073       7.39905752
Li       5.16572235       3.36044390       0.41454519
Li       5.33098786       3.90244335       4.19003938
Li       5.16621387       8.19085309       3.86329384
Li       9.36757787       0.21624587       6.61104146
Li       2.17081122       9.54394144       4.74432532
P        5.40168682       5.76219321      11.95939920
P        1.91191244       9.70244075       8.05464757
O        6.90179685       7.99564746       9.47147558
O        8.37243811       4.67141398       9.25869419
O        5.11979658       7.21866410      11.72133437
O        0.55050089       4.79813985       6.22372485
O        4.30329721       5.11546760       0.08296210
O        2.13131587       8.72313101       6.79756739
O        6.32035420       7.28919767       5.59597911
O        6.83606171       5.46408414      12.69700239
Li       2.46492262       0.41128844       2.97200512
Li       0.65782763       6.53090754      12.08995413
Li       3.05090093       1.93291884      12.76221867
Li       1.89556331       6.51151941       6.23108804
Li       5.36738218       2.97683931      10.39423340
Li       9.60069364       5.46638644       2.85282447
P        5.37808281       0.12657299       4.93992880
P        0.36810366       1.27366722       4.21656020
O        2.96963004       2.53103890       8.00613009
O        8.90429506       7.35887212       2.23874749
O        1.15256615       2.69281708       0.46404241
N        4.58594807       0.59503420       3.53490775
O        9.25924030       1.59549042       3.43236428
O        5.68476606       5.10282873       7.13918228
O        3.96176081      10.29422141       5.35324962
Li       2.88074601       4.40783201      11.46534709
Li       6.57234177       8.73553658      11.60877202
Li       6.33378844       4.71249470       9.01827469
Li       3.27123931       7.97636913      11.19219719
Li       4.17138972      10.58842970       1.56856006
Li       8.10891707       8.45038848       5.93081172
P        1.94951209       9.41274557       0.68774894
P        2.34560335       2.72285471       9.38064430
O        0.26162515       1.89714700       5.62874533
O        0.97405354       6.71264697       8.23152122
O        2.49788262       9.92401565       2.08603701
O        3.88643266       2.18269342       1.47337191
N        0.46786045       9.71106203       0.95407309
O        1.52492021       4.03223917       9.23359756
O        8.77987377       5.66653986       4.39190506
O        2.36032333       7.94496090       0.48671291
Li       3.99465062       7.48293502       1.32060132
Li       2.46610109       3.47516971       1.96262698
Li       5.30205422       7.30900618       9.41109861
Li       7.77492299       3.47528577      12.34073585
Li       8.09678421      10.66577358       3.32115116
Li      10.12315670       3.55735439      10.76150651
P        8.46549588       8.26993818       1.12695584
P        5.47883995       6.59738492       6.54568826
O        8.96905996       6.33046561       6.72261650
O        6.62405729      10.30746901       4.61475964
O        7.45680739       9.26872214       1.87007387
O        8.85489072       9.70275036      10.03148416
N        9.68149982       9.17916510       0.58821995
O        5.80935453       0.67230440       6.36343582
O        0.55550796      10.75803556       4.13672740
O        7.78357673       8.02945960      12.57301025
Li       3.74808731       8.75863585       6.69972035
Li       1.88677916      10.35977789      10.59234037
Li       0.69496976       1.96264353       7.48191689
Li       9.69632689       1.76886893       1.75369888
Li       7.54320220       0.83874171      10.27343619
P        1.26394113       7.22007634       9.58247724
P        9.77419088       5.93705065       5.52766575
O        2.63134777      10.43620713      12.48739774
N        1.27101505       8.86275835       9.15270704
O        2.52041758       6.63962379      10.10389430
O        0.67611654       6.94896932       5.07154673
O        3.42146298       2.81128217      10.54027351
O       10.18371229       6.90597321      10.39819739
