124
Lattice="9.92562 0.0 0.0 0.0 10.6806 0.0 0.0 0.0 12.4552" Properties=species:S:1:pos:R:3 material=LiPON model=NEP89 temperature_K=1200 phase="NVT production" display_name="LiPON｜NEP89｜1200 K｜NVT production計算" report_figures="23_LiPON_lithium_MSD; 24_LiPON_transport_comparison; 25_LiPON_temperature_RDF" source_frame_index=0 relative_time_ps=0.0 pbc="T T T"
Li       3.38556448       3.49952832      12.14042654
Li       4.18259839       7.94524111      10.61674501
Li       5.20032802       2.95298832       9.88551716
Li       8.08214428       9.79909704       9.16649942
Li       9.85344455       2.07897568      11.82588435
Li       7.53604324       1.35116780       7.72084926
P        6.00539313       5.46255835      11.55533457
P        2.13680886       2.11957945       2.04240797
N        2.24887034       4.89708132       3.93519163
O        4.65281816       8.34555139       3.49256944
O        7.55205729       5.64717967      11.74296535
O        6.96048416       0.39093856       9.68583365
O        5.36712337       5.05332910      10.24567560
O        2.50052757       1.30117955       0.80775416
O        0.21807411       3.76351621      11.92957375
O        5.18027276       6.88195495      11.88326954
Li       8.36160218       4.22440579      11.53342171
Li       5.21057820       4.71358241       8.17579183
Li       7.09576164       2.61060232       5.87903170
Li       2.90550040       2.80016532       5.52870510
Li       7.78000433       1.34596001      11.39598766
Li       6.66160916       5.65899932       5.94052417
P        2.18144984       2.66099249       8.80683665
P        0.80759281       4.28298804       4.67125228
O        3.24077473       1.96828440       3.03962951
O        9.20176265       8.59161685      11.13402293
O        1.09589071       3.62980384       8.43119557
O        5.55795464       0.64430726       4.20093502
O        1.72494623       1.54453157       9.87655925
O        0.98762731       2.91741403       5.16381857
O        9.43851371       0.66512158       7.09364128
O        3.51906570       3.42973453       8.99914492
Li       4.80342531       0.30528667       2.47696175
Li       2.31296178      10.31654843       9.37929185
Li       1.64916111       8.03280933       7.92970226
Li       7.38254404      10.26683838       5.61082414
Li       7.70368079       9.40603817      12.13381979
Li       0.73014794       9.04743815       4.28670673
P        3.52371258       8.32327551       2.54716741
P        0.90781055       5.24156594      11.75517476
O        1.52725005       9.82200296       7.56511881
O        5.64171487       4.43730082       0.46531386
O        2.16320065       8.65794280       3.23932747
O        5.77694306       1.98174523       1.60206647
O        3.95427157       9.39660445       1.44747177
O        2.44354909       4.99613046      11.33471806
O        1.82292798       3.62177694       1.82327197
O        3.31115286       6.91608734       1.88290965
Li       4.56454164       1.02854968       0.30868439
Li       3.35084995       9.33284656       5.19430473
Li       9.54860117       5.71167587       2.29898320
Li       3.17426635       6.18682052       5.15757211
Li       2.11332374      10.07838459       1.48745305
Li       9.65944980       1.04374097       9.19428284
P        0.12504096       9.85521737      11.62365848
P        0.48785074      10.32863939       6.58562343
O        0.28803398       5.86384721      10.57127624
O        2.59960111       1.95754988       7.53966156
O        0.34277117       9.74762926       0.66322822
O        2.94372212       6.47787106       7.82546322
O        1.53323176       9.67895775      10.94195017
O        1.10194539      10.50644772       5.01680117
O        3.50731005       4.81029932       3.81983896
O        9.47022681       0.51294979      10.99044559
Li       8.86137997       7.14123248      12.19121056
Li       2.54095216       0.53612828       4.35118758
Li       4.73266470       3.22890666       2.86541136
Li       2.01174586       5.89507378       2.56370566
Li       6.32572837       5.86856284       2.69899920
Li       0.64782537       8.23032870       1.69108040
P        8.07735549       3.56358548       3.72715826
P        5.52364609       0.03903725      10.36120116
O        4.93322288       2.73476082       5.96323635
O        6.88467328       7.36079339       3.56898516
O        0.87428898       1.40114681       2.66481710
N        9.52801984       4.27192584       3.50616844
O        5.79568519       9.49562372      11.32640225
O        7.22465420       3.73922387       2.40511754
O        8.13290071       2.10575285       4.13015559
Li       4.45174105       1.34251496       7.99938077
Li       1.60225725       5.22883666       7.50391103
Li       3.20118691       6.24573666       0.15632468
Li       9.41054748       7.36758446       9.85603687
Li       5.55296802       8.51446761       0.24856954
Li       7.11238483       0.49699227       2.86017233
P        7.58156581       3.60424752       8.35266472
P        4.99542596       1.17302987       5.60951064
O        4.36825749      10.38360826       9.30047369
O        8.48635824       7.97080017       8.39992123
O        7.46204777       5.17528261       8.42309403
O        0.63465819       5.26960180       5.93922190
N        8.53251278       3.43068752       7.08054425
O        3.59102678       0.62272276       5.68966996
O        4.87168386       7.65076551       8.50110495
O        6.14892645       3.06614372       8.05149844
Li       0.32641489       2.71303635       7.12683305
Li       5.70108634       9.88746974       7.74137859
Li       0.04189496       1.32106674       4.45427410
Li       9.58390134      10.42486508       2.22367034
Li       5.89947193       8.38809152       4.63999520
Li       8.78037912       6.11943761       4.60844972
P        7.73626494       8.41001501       2.78529461
P        6.52266663       3.15090190       1.03320114
O        5.08614266       5.90334276       6.68962133
O        7.54254590       4.47594022       4.76471443
O        7.04350849       8.85072264       1.46197362
O        0.90070411       6.10227711       0.71633582
N        7.98006249       9.60644636       3.79669110
O        7.60979079       2.54806937       0.15171792
O        4.82499260       1.33597173      10.79113853
O        9.04838208       7.45298238       2.71618163
Li       9.78772414       3.35751081       1.36988109
Li       6.65990884       6.73440047       9.44393401
Li       9.22412116       5.26035322       7.08828663
Li       2.76299230       5.80191400       9.87591508
Li       2.75360118       0.89826750      11.26988184
P        8.22460919       8.07118732       6.90033875
P        4.18300270       6.95380493       7.20083713
O        8.04820364       2.82822783       9.68808478
N        9.37644081       9.09482438       6.47831143
O        6.85460887       8.71101043       6.60135699
O        3.96787781       7.90956827       5.99993298
O        6.04329329       0.55547203       6.65531373
O        8.28970199       6.66754527       6.09292829
124
Lattice="9.92562 0.0 0.0 0.0 10.6806 0.0 0.0 0.0 12.4552" Properties=species:S:1:pos:R:3 material=LiPON model=NEP89 temperature_K=1200 phase="NVT production" display_name="LiPON｜NEP89｜1200 K｜NVT production計算" report_figures="23_LiPON_lithium_MSD; 24_LiPON_transport_comparison; 25_LiPON_temperature_RDF" source_frame_index=30 relative_time_ps=3.0 pbc="T T T"
Li       4.10223004       5.21771817       1.24319777
Li       8.61776678       6.79533080       0.07122541
Li       5.26307241       2.67631187      10.37316421
Li       9.04259595       6.69593499       9.54479531
Li       9.92394400      10.51484092       3.16760286
Li       7.82032414       0.66501304       6.51502472
P        5.81078692       5.52161588      11.34622829
P        2.04017955       1.66661472       1.54289765
N        1.89748718       4.50639555       5.11495548
O        3.44069889       8.00589488       4.06847584
O        5.19576667       4.49678978      10.45079702
O        5.91866413       9.34234865      10.21810851
O        4.95300972       6.76436677      11.45058485
O        3.05399008       0.44381548       1.71685210
O        2.40303428       4.87781512      12.35859382
O        7.22019348       5.98241510      11.14450658
Li       9.72701924       0.55792111       0.81587588
Li       1.06274264       7.78009554       6.93281032
Li       6.29028829       3.73146038       5.16626577
Li       4.67764337       4.42531450       3.48652540
Li       8.77265095       2.33640536      11.24752856
Li       6.74753451       6.41379947       8.30299468
P        2.39602188       2.64190576       8.60201233
P        0.42475515       5.32796453       4.89566135
O        0.81707064       1.41003705       2.45702216
O        0.98672850       9.74639003       9.89764295
O        0.84442560       2.92521683       8.49868413
O        6.67459297       0.22429349       5.10560745
O        2.71814684       3.25465395       9.93588662
O        9.70114337       4.61910356       5.99422392
O        0.77353619       9.47768734       4.47345001
O        3.16542695       3.60785949       7.71430001
Li       4.70585254       9.82640392       2.18915516
Li       1.87225767       9.95133124       8.39076264
Li       2.12089131       8.13409485       9.82450531
Li       5.48679988      10.31328272       8.19629567
Li       5.45062146       7.75116845       0.77740450
Li       1.45649781       7.92760615       3.90004209
P        3.45257001       7.49267984       2.70439805
P        1.14204995       5.46815147      11.56746130
O        9.48584607       0.77471556       5.69069954
O        5.92008386       4.85640548       0.62368695
O        2.09138305       6.78051064       2.38179186
O        5.93379058       2.47874010       1.67971375
O        3.82464076       8.36335050       1.39946770
O        1.80425668       6.43979244      10.59171868
O        2.88505644       2.90984050       1.99708878
O        4.52703854       6.34254265       2.70957016
Li       4.99654495       1.19028986       0.47286285
Li       4.94024548       8.40829444       5.51931528
Li       6.29448955       6.51234494       2.72120994
Li       3.60908598      10.15493136       6.42089647
Li       7.56599374      10.49798986       0.07117233
Li       9.74951155       1.13579228       8.95633429
P        9.92341784       9.75832215      11.09968064
P        0.44937932      10.19305698       5.75032185
O        0.30553633       4.26003071      10.92275570
O        3.04046736       1.27408908       8.75739529
O        8.83147406       0.29581893      11.15512926
O        3.93350113       8.76994478       7.83170127
O        9.06242596       8.40897893      10.86122097
O        1.70714161      10.27856458       6.59670158
O        2.94501754       4.16861369       4.44217937
O        0.59061577       9.45072543       0.15981149
Li       0.49973137       7.89891411       1.13033735
Li       2.87577501       9.82180120       4.00479767
Li       3.75690273       2.19657617       3.85677623
Li       9.33612757       6.38303803       2.32582396
Li       3.07441575       6.14153696       5.04794328
Li       3.20372078       7.56793321      12.24135412
P        8.08225915       4.22556614       3.26769827
P        5.08617064      10.15635889      11.28357664
O        5.04622399       0.74495620       6.75404491
O        7.42818544       7.80770638       0.94040854
O        1.51238955       1.51958163       0.14408653
N        9.48618119       5.05527609       3.49946033
O        5.74078883      10.11061669       0.34971098
O        8.25759367       3.67952069       1.82311691
O        8.18546066       2.84082912       4.01628682
Li       4.44160005       2.36799686       7.18000433
Li       1.71492300       3.12313761      11.37136922
Li       1.60484868       4.64546016       2.31387934
Li       5.31764739       7.72811145       9.87892505
Li       6.23961337       6.37340494       5.06679516
Li       7.59054309       0.69347909       3.29069804
P        7.35008433       3.50145268       7.96626416
P        5.32779316       0.97348450       5.27440654
O        3.55589457       9.83285176      11.45442211
O        8.66794884       7.86588455       8.29261847
O        5.99366720       3.73980183       7.33676282
O        0.92214013       6.74575591       5.05131788
N        7.16070960       2.38653249       8.97639983
O        5.43365636       2.37219490       4.60122278
O        4.21728281       6.72108174       6.28300276
O        8.05471906       4.66737462       8.41935592
Li       9.86635960       2.76493069       6.18435369
Li       7.48399803       0.76384432       9.99254831
Li       0.40888671       2.77810459       3.54186357
Li       2.82425405       9.83253759       0.65694527
Li       8.52889926       8.21746965       4.63258225
Li       7.43967275       8.19202409      11.23100509
P        7.93042091       8.79621076       2.11570815
P        6.76762626       3.44275884       0.83236585
O        4.64931584       6.78751992       8.67710802
O        6.72175128       4.88231259       3.70673611
O        9.37626220       8.26212548       2.62811801
O        0.17034378       6.06313727       0.12601397
N        7.93147123      10.26690069       1.78710742
O        7.05525228       2.81309186      11.92126478
O        5.23507930       0.89038902      10.74385662
O        6.82058079       8.43431800       3.21124189
Li       8.53903275       4.76685499      11.59652148
Li       4.62493464       4.60042576       8.44558065
Li       0.00809757       4.48487243       8.82617650
Li       3.39079577       4.85398792      10.68909569
Li       2.63152241       0.34352437      10.51986407
P        8.14422887       8.74925945       7.10740263
P        3.69765527       7.31084945       7.62050289
O        8.10670194       2.61426684       6.98339082
N        9.56266490       8.89078393       6.18449910
O        7.66194697      10.02950212       7.70586246
O        2.27403922       6.92930379       7.98606626
O        4.16959101      10.64647554       4.71447104
O        7.19918509       8.02963013       6.14895663
124
Lattice="9.92562 0.0 0.0 0.0 10.6806 0.0 0.0 0.0 12.4552" Properties=species:S:1:pos:R:3 material=LiPON model=NEP89 temperature_K=1200 phase="NVT production" display_name="LiPON｜NEP89｜1200 K｜NVT production計算" report_figures="23_LiPON_lithium_MSD; 24_LiPON_transport_comparison; 25_LiPON_temperature_RDF" source_frame_index=60 relative_time_ps=6.0 pbc="T T T"
Li       3.65922062       2.35187973       3.50717725
Li       9.34751578       6.82488717       1.38499448
Li       6.24005014       1.57319163       2.79249064
Li       8.90751674       4.67701658      10.53360680
Li       6.91911370       3.64229099       3.55230102
Li       5.16747512       9.70782684       7.27768339
P        5.78611751       5.53857512      12.07437140
P        2.67698319       1.37995421       1.12980698
N        2.90282332       4.26248183       4.61988129
O        4.58026709       7.84040822       3.57093874
O        4.51480966       4.81289194      11.76666184
O        5.84110830      10.63732617       9.12053548
O        5.68155021       6.47728058       0.89857819
O        2.32168247       0.23578352       0.28656576
O        1.28967180       5.48833356       0.04036359
O        6.43521948       6.46001569      10.97870961
Li       0.19957906       0.42766152       0.45622887
Li       2.35668456       4.94714878       7.12120030
Li       7.35770162       1.09488701       7.58906641
Li       1.87896165       0.86796620       4.00113159
Li       0.04590802       1.46906428       7.34100778
Li       7.85458156       8.43062623      11.71538356
P        1.65163966       3.02926023       8.95767812
P        1.30214443       4.05989275       4.67563198
O        2.89931111       2.76940728       0.43939432
O        1.02766061       9.74359140       9.89312251
O        0.67156809       3.77870537       8.15347528
O        5.84232840      10.32044653       5.58268968
O        1.40661058       2.96566012      10.39176245
O        1.21916353       2.67839941       5.37016616
O        0.03187845       8.39997874       4.87594008
O        3.11009600       3.69837120       8.55841783
Li       3.11428323       9.09916002       5.01900161
Li       2.81098305       9.11709498      10.24262307
Li       0.84787070       8.20483172       8.94893023
Li       4.53276583       1.96223128       8.44662009
Li       7.33768613       0.91684116      12.00705861
Li       0.58396061       9.32708633       2.99674073
P        3.43461531       7.93620869       2.54191422
P        1.04723973       6.68240307      11.53326491
O        0.08148678       0.20925484       5.09287810
O        7.13578662       4.51462803      12.33871158
O        2.23306730       8.61743749       3.16496464
O        6.07252117       4.01040538       2.06742207
O        3.86279607       8.62683988       1.29794259
O        2.40483963       7.06441058      10.91823911
O        1.51577291       1.37830455       2.30350826
O        3.09905251       6.44782489       2.18913006
Li       4.55397576      10.31857844       0.76754250
Li       5.25734474       7.71840723       5.27759602
Li       5.44703384       8.23609203       0.19382444
Li       4.53190969       3.06018671       1.07746934
Li       4.43842261       2.84517339      11.03252465
Li       7.27110377       9.69985035       8.91248349
P        9.52237348      10.23695124      10.05402636
P        9.72540112       9.48349144       5.89935819
O        0.01301348       6.45948959      10.32946030
O        1.60218636       1.56211538       8.26222241
O        8.93361752       0.21847458       8.79768432
O        3.43053617       8.57936075       6.78681693
O        8.57096151       8.81771769      10.01542330
O        0.68521525       9.56613421       7.16541400
O        4.10029248       4.04539068       3.90697803
O        9.01972441       0.25266218      11.36312505
Li       1.73276081       9.32178883       1.06384797
Li       2.00340300      10.45601535       7.97449120
Li       2.66965729       2.18737605       6.17067967
Li       0.64345583       7.13302885       6.52497054
Li       8.09635574       6.72518370       9.57439131
Li       3.46220291       6.57411748       0.35465740
P        9.16487524       3.77565522       2.99581412
P        4.81155650      10.60482944      10.37471593
O        4.51895349       1.50966363       6.59420007
O        7.04894462       9.29697367       0.47299505
O        4.13243160       1.19900945       1.90059195
N        0.81889786       4.00942258       3.15589147
O        5.25982895       1.12276829      11.27474174
O        8.80315501       3.71142711       1.36788965
O        8.53156298       2.46072950       3.43703590
Li       5.03478659       3.86037141       5.73577046
Li       1.87830179       4.60924744       1.53694082
Li       6.27420270       7.50178506       2.71365551
Li       5.26937202       7.84589523       9.95762173
Li       1.59838896       6.58296480       3.56514054
Li       7.25914499       0.05479877       4.89976260
P        7.41402506       3.41827443       8.00847229
P        4.98313499       0.85756016       5.33795672
O        4.57943214       9.14044120      11.03840642
O        8.87444181       6.98724321       7.33282272
O        6.35399878       3.97598835       6.93808778
O        0.72624817       5.27245649       5.58998156
N        6.56270459       2.47650048       8.99046094
O        5.75817386       1.96908371       4.61693918
O        3.78862915       6.15234233       6.42623697
O        8.24423262       4.48845663       8.91357926
Li       9.18777634       2.14345121       5.31933903
Li       8.99019084       6.73377214       4.19855078
Li       9.26537722       0.99457516       2.76145283
Li       5.27124847       9.54211943       3.60934988
Li       7.68194944       4.97915224       5.68310851
Li       9.82823986       5.26641914       8.41161409
P        7.80829736       9.47869251       1.85821415
P        7.22423028       3.57253035       1.20320216
O        4.15607832       6.58070851       8.84991028
O        8.50937813       5.08358091       3.51653904
O        9.39060278       9.76564207       1.61899078
O        0.62834491       7.81330776       0.10606529
N        7.35615812      10.57460550       2.93537048
O        7.18345441       2.19617133       0.83066787
O        3.44370052       0.09570783       9.75255466
O        7.91940292       8.19020864       2.62678583
Li       5.05296654       5.56923600       3.00492141
Li       4.75934840       4.76330758       8.21694595
Li       2.92314937       5.79349488       9.58211288
Li       1.47044601       3.38496907      12.02219372
Li       2.17217329       0.44465009      11.03536134
P        7.68921398       7.69532925       6.60876463
P        3.28346123       7.07615672       7.55803984
O        8.37665870       2.60949724       7.14889841
N        8.26109894       9.17349258       6.24763969
O        6.76411791       8.18225416       7.80306056
O        1.82549131       6.94430037       7.82397727
O        3.62140353       0.57702751       4.54905767
O        7.07071360       6.81934020       5.45583619
124
Lattice="9.92562 0.0 0.0 0.0 10.6806 0.0 0.0 0.0 12.4552" Properties=species:S:1:pos:R:3 material=LiPON model=NEP89 temperature_K=1200 phase="NVT production" display_name="LiPON｜NEP89｜1200 K｜NVT production計算" report_figures="23_LiPON_lithium_MSD; 24_LiPON_transport_comparison; 25_LiPON_temperature_RDF" source_frame_index=90 relative_time_ps=9.0 pbc="T T T"
Li       6.52908286       3.84628786       5.51497389
Li       9.35317853       7.53587772      12.42271925
Li       0.45960561       6.59624068       4.58355255
Li       0.24418821       4.09680755      10.81003950
Li       9.47463114       4.97081624       7.82140592
Li       5.58019645       9.64080574       6.68472918
P        6.62940135       6.48816020      11.59542764
P        2.49556562       0.86097743       1.31207746
N        2.26240451       4.11865244       4.20868049
O        4.96903415       7.44929907       3.76879877
O        5.04132084       6.50624233      11.63383032
O        4.78420832       9.05614739      10.59273095
O        7.20724120       7.21694734       0.37714359
O        2.25979984      10.11757262       0.83928085
O        1.20900364       7.36250942       0.25425439
O        7.08038034       6.99955623      10.22978519
Li       5.22806723       1.71736824       0.22427196
Li       0.32058208       1.57855221       7.16545224
Li       5.02064140       1.54772423       8.22937858
Li       1.22720588       3.66727690       0.79528503
Li       8.01111547       0.28770580       7.68321190
Li       6.34418149       8.64127820       9.57416165
P        2.24224785       3.33409692       8.59194737
P        0.68263745       4.01499246       4.50949714
O        1.43626156       1.72422330       0.77427287
O        9.74513546      10.64925870       9.58056342
O        1.39458551       4.60308217       8.33695185
O        6.75630821       0.35042121       6.12389027
O        1.66716858       2.74993319       9.96932884
O        9.89137506       2.64991829       4.21212567
O        0.95362797       8.15926415       4.88502062
O        3.66718130       3.71268632       9.15971811
Li       2.35279165       9.60468776       3.42926566
Li       0.16563278       0.19454153       0.56851150
Li       8.57557104       7.84947713       9.48833425
Li       3.21450437       8.47317467       5.74958909
Li       7.05087753       9.05205223      12.24271440
Li       0.38516460       0.72832804       3.87673197
P        4.08143066       7.18053534       2.50124557
P        1.49222261       6.55896393      11.39225719
O        9.83910501      10.52157366       5.32662641
O        6.95516355       4.78252121      11.64119434
O        2.60558208       7.92541596       2.83407778
O        6.89217659       2.84308494       0.79518618
O        4.61557050       8.06972830       1.25698190
O        2.49503460       5.23773277      11.72869404
O        2.29240988       0.79151753       3.03807199
O        4.10401481       5.70196365       2.05882671
Li       3.62823578       8.16063652      11.94609971
Li       8.71079107       8.19429088       4.41139192
Li       1.69585663       9.26749082      11.57649016
Li       4.35675886       2.56813649       3.01931137
Li       0.71427518       1.39813479      10.52557684
Li       7.00965163       1.43428881      10.77429665
P        9.03532679      10.24903386      10.86925451
P        0.56975424       9.27264056       5.96855658
O        0.14103497       6.11282478      10.75753485
O        2.13187168       2.31645728       7.51790121
O        7.74196729       9.52538282      10.53111295
O        4.57214695       6.42373601       8.63768292
O        9.75108503       9.28162985      11.75268696
O        1.70565992       9.76407480       6.79378145
O        3.53745059       3.82646926       4.29975918
O        8.53955133       0.86161662      11.60950385
Li       6.59513744       7.67363724       2.12210921
Li       1.36979742       8.31945941       8.74950163
Li       2.93701162       0.42183896       7.36096302
Li       1.72518424       5.97904417       7.31838306
Li       8.41531309       5.31496752       9.89764744
Li       4.22194023       4.92361455      12.40274610
P        8.34743849       5.32897141       2.99888192
P        4.03418349      10.49145238      10.24949938
O        4.98207287       2.32290111       6.52169605
O        6.75102706      10.37049672       1.18520271
O        3.89766119       1.33849417       1.17771463
N        9.87877682       5.12392219       3.45966822
O        4.74059250       1.03156385      10.88641215
O        7.91789316       4.94292815       1.51026941
O        7.38195892       4.43936766       3.78641441
Li       4.81663789       4.02947131       7.26637114
Li       1.72616793       8.45681105       1.34123350
Li       5.61917303       3.56102967       9.90385151
Li       3.96691873       7.64025063       9.62340982
Li       6.63751330       5.93780065       4.96616459
Li       6.14931233       8.21041076       4.77028785
P        7.86213484       3.01068682       8.26537776
P        5.58600623       1.33230082       5.39231169
O        2.55856525      10.40133770      10.45478492
O        8.42002091       6.73152338       7.95853675
O        7.03437887       4.22643189       7.74029634
O        0.30579289       5.03203895       5.74666604
N        7.11931364       1.65388587       8.82425790
O        6.15799217       2.17470269       4.32977554
O        4.62343348       8.16694141       6.79668748
O        8.68906943       3.61572648       9.43853835
Li       7.92604410      10.13393739       5.15723862
Li       4.61353792       5.63341782       4.36998550
Li       5.20066452       9.98535161       0.94802228
Li       2.58634101       1.27084183       4.96801329
Li       6.68761483       2.18839523       2.68739668
Li       8.18708511       1.90967647       5.49604323
P        7.78692794      10.22457907       2.45394326
P        7.83062441       3.97993145       0.34855789
O        5.45549692       5.78586634       6.47061442
O        8.06689549       6.69779883       3.21488928
O        8.23623072       0.95572406       2.92607044
O        2.27128301       7.57793578      10.30684265
N        7.09724795       9.43421329       3.62071812
O        9.20052184       3.39832357       0.03693887
O        4.01847922      10.60327783       8.74379475
O        9.04283893       9.49204189       1.97974302
Li       1.01938433       6.63902032       2.19714915
Li       6.47922005       5.90970411       7.76893882
Li       3.34405567       5.48099439       9.88297899
Li       2.96149339       2.06193350      10.97727684
Li       8.37020853       1.82168830       0.85781407
P        8.46243249       8.00126880       7.11680306
P        4.24619422       6.69226030       7.12155778
O        8.75768574       2.45960984       7.10985715
N        9.91971812       8.63708869       7.31784140
O        7.39192076       8.88368849       8.02070844
O        2.94091241       6.51745886       6.33215649
O        4.42385378       0.42315164       4.98951592
O        7.76483485       7.57685612       5.77230556
124
Lattice="9.92562 0.0 0.0 0.0 10.6806 0.0 0.0 0.0 12.4552" Properties=species:S:1:pos:R:3 material=LiPON model=NEP89 temperature_K=1200 phase="NVT production" display_name="LiPON｜NEP89｜1200 K｜NVT production計算" report_figures="23_LiPON_lithium_MSD; 24_LiPON_transport_comparison; 25_LiPON_temperature_RDF" source_frame_index=120 relative_time_ps=12.0 pbc="T T T"
Li       5.96973140       3.38147248       5.23826892
Li       6.85482391       6.94414345       2.48579404
Li       3.00139835       4.05261979       6.93329437
Li       5.83245237       1.44307936       0.39461055
Li       1.86974869       3.80502409      12.06270297
Li       1.42842199       7.84458050       2.95587305
P        6.43154744       6.45386140      11.92226648
P        2.39796827       1.27502101       1.19888557
N        2.41279951       4.16381975       4.33004498
O        5.31475782       7.32885307       3.88959054
O        5.57314531       5.70942542      10.81882024
O        4.51237036       9.10183001      11.31572126
O        5.62298301       7.09993846       0.53745716
O        2.36728398       0.33922269      12.24033030
O        1.02112360       8.25547932       0.93285308
O        7.39271624       7.44541887      11.22885964
Li       9.89908027       5.19499318      10.66480013
Li       8.12025090       1.04378998       6.29561912
Li       4.63771723       2.33131084       8.08900316
Li       4.06908231       6.56760224       0.43534711
Li       6.46639053       0.97530694       7.98701736
Li       2.73437440       8.77679222       5.27573348
P        2.58733379       3.49229643       9.48714062
P        0.85088170       3.65154668       4.66909523
O        1.52401532       2.51610897       0.96276763
O        0.58474721       0.13351106       8.41220153
O        1.21006426       4.19326517       9.54240885
O        6.05324146      10.48493664       6.36732411
O        3.17774424       2.93107578      10.84281931
O        0.95550127       2.17231878       4.35013096
O        9.83024292       8.25767934       4.04792972
O        3.69534577       4.50254783       9.04798785
Li       7.09116039       9.84523841       4.11082358
Li       0.64224568       9.89847173       0.53903235
Li       8.80472056       7.11551145       0.19150124
Li       4.85882561       1.02739602       2.94907312
Li       8.54832170       8.86619036      11.12471725
Li       9.47170235       1.97268581       0.59661343
P        4.01956001       7.14203754       3.02395340
P        1.23345820       6.88972015      12.42075178
O        8.78297707      10.51735210       4.71514606
O        7.26742728       5.21784293       0.23750351
O        2.83620984       7.13360285       4.02657683
O        6.85628189       2.65657534      12.41321784
O        3.64257824       8.24340575       1.95593565
O        1.51059581       5.62677449       0.74095551
O        2.02945557       0.35282239       2.41133120
O        3.96454414       5.82497965       2.15308991
Li       5.63188348       4.52226991       2.71549784
Li       9.27034522       7.55020632       2.64803216
Li       4.34598696       7.11155665      10.25464804
Li       5.92087106       9.30950291      12.01550475
Li       0.32474460       1.87776370       7.12939232
Li       7.21801517       1.02770750      11.04556705
P        0.06489195       0.22618572       9.77818888
P        9.66215023       9.27731878       5.12178455
O        0.07290956       7.09032907      11.31641368
O        2.36519055       2.32627474       8.62112132
O        8.47827108       0.70518861       9.70124647
O        4.58820071       7.38266375       8.19387210
O        0.03103073       9.54342994      10.38119799
O        1.01076492       9.91114042       5.63950642
O        3.41837734       4.00297007       3.65915815
O        0.69465797       1.26644147      10.72058596
Li       9.56250692       6.31364720       4.59870520
Li       0.62750657       9.40104014       7.44099687
Li       2.76144130       0.17341323       7.76677039
Li       2.21978553       5.79968386       5.27665881
Li       7.93519196       6.30624273       9.64490182
Li       0.45906680       4.29728446       1.58585927
P        8.31418624       4.59840078       3.09463765
P        4.89365567      10.31123941      10.31152773
O        4.17007006       1.44908427       6.57675532
O        7.53756390      10.19239222       0.02904478
O        3.76301401       1.78515527       1.62698269
N        9.57690301       4.49319957       3.96825155
O        5.35655438       0.97768331      11.08747337
O        8.25596404       3.61185878       1.71699709
O        7.07602902       4.51136129       3.97630241
Li       6.21804097       8.02017341       9.38776943
Li       0.24969336       0.98406475       2.93140489
Li       5.52728136       3.62294195      11.44825112
Li       2.51248230       9.04557136      10.60021059
Li       0.70835572       5.41453749       8.07579749
Li       6.27369846       5.87784525       5.04576066
P        7.40622413       3.59598746       8.07667152
P        4.96502861       0.59883169       5.65447939
O        3.70066917      10.55257132       9.32545937
O        9.59467211       6.91638661       7.88902559
O        6.42338459       4.49304802       7.22797639
O        0.74089917       3.90637498       6.17964127
N        6.36414856       2.67486571       8.88073154
O        5.72651962       1.45782035       4.64887762
O        2.95357109       8.88478719       7.10679605
O        8.27807042       4.43433202       9.06156778
Li       4.70408265       9.43573702       2.71770554
Li       0.36740669       7.73542128       9.42694257
Li       3.00684012       8.85316722       0.38939851
Li       2.48572064       0.55394524       4.33465222
Li       7.30435605       1.25280258       3.42307423
Li       8.39877134       4.16326816       5.66971913
P        7.82843442      10.11176817       1.55832049
P        7.97764666       3.75925036       0.10697693
O        2.62129312       6.29612520       7.20994816
O        8.70655548       6.08864821       2.85225720
O        9.15956539       0.19346886       1.60058032
O        2.60394890       7.19010378      11.69009962
N        6.68517336      10.52646245       2.56436273
O        9.20141732       3.70204635      11.73739246
O        5.90043690       9.85800101       9.15420496
O        8.01833224       8.56665373       1.79244574
Li       2.65508909       4.77765490       2.04909305
Li       5.47756661       8.95263255       7.09235408
Li       5.29547262       5.42813504       8.27524224
Li       2.70373733       1.09171495      10.60978736
Li       9.68136823       3.01528635      10.01550171
P        8.47959443       7.18466428       6.93758190
P        3.07894634       7.59186754       7.93970679
O        8.24303563       2.68587878       7.16010235
N        8.93008634       8.50823609       6.27616051
O        7.19454301       7.33952900       7.75351848
O        2.13342074       7.87389360       9.16323242
O        4.02508276      10.28166017       4.74990561
O        8.18569472       6.05343793       5.94345662
124
Lattice="9.92562 0.0 0.0 0.0 10.6806 0.0 0.0 0.0 12.4552" Properties=species:S:1:pos:R:3 material=LiPON model=NEP89 temperature_K=1200 phase="NVT production" display_name="LiPON｜NEP89｜1200 K｜NVT production計算" report_figures="23_LiPON_lithium_MSD; 24_LiPON_transport_comparison; 25_LiPON_temperature_RDF" source_frame_index=150 relative_time_ps=15.0 pbc="T T T"
Li       5.94401844       8.33352777       0.39274133
Li       4.99042270       6.05148761       5.17429852
Li       2.90657726      10.14407192       6.26271687
Li       3.87839358       2.54623782       3.40521030
Li       4.02269807       5.84731640       1.19057215
Li       0.06084537       0.55704737       3.15248416
P        6.25915555       5.55131548      11.26116037
P        2.39808067       0.97170456       1.77775929
N        2.91330723       4.65809184       4.41835176
O        4.70044172       7.75462767       4.42062697
O        7.09514227       6.33815798      10.16554176
O        4.67036848       9.41613101      11.78543358
O        5.41068560       4.39681072      10.78212501
O        2.70667830      10.20573857       1.26761983
O        0.59378990       6.54718578       0.80967402
O        5.27139727       6.49453855      12.04831932
Li       8.44061004       4.75683973      10.46137742
Li       8.07009970       1.52518275       5.26588137
Li       3.51822649       3.73620477      11.57919418
Li       3.40150247       8.84892129       0.81042606
Li       7.81325545      10.66947500      11.04208348
Li       5.22150701       8.25813859       6.07914094
P        1.87768669       3.15342139       9.17888469
P        1.42523855       4.03471641       4.78818574
O        1.67341122       1.74913804       0.58444422
O        9.49140864       0.58019204       8.84090171
O        0.50420716       3.49455997       8.74648347
O        6.11163454      10.42929380       5.45417796
O        1.93028985       2.81671356      10.63534717
O        1.51455010       2.66677687       5.53127213
O        0.49389150       8.49717283       4.02395364
O        2.78074598       4.34921979       8.91042474
Li       6.55821993       9.43479214       8.89539005
Li       0.83604040       9.55668153       0.11606998
Li       8.85327909       7.80207671      11.61216293
Li       2.41925627       9.33494435       2.96018287
Li       4.34562678       1.03557366       8.53855075
Li       9.71324633       1.29292221       0.51123542
P        4.48472805       7.68770165       2.96037960
P        1.40062382       6.07136933      12.14903990
O        9.10934122      10.65398041       4.71679287
O        7.41516487       5.10080625       0.01677179
O        2.87791595       7.62648720       2.60493255
O        6.95795219       2.70813249       1.10628569
O        4.93072752       9.08082872       2.56434230
O        2.46504422       4.96812393       0.21734166
O        1.74104945       0.75888580       3.09921540
O        5.12601306       6.53261165       2.29449100
Li       6.85533027       6.04064287       3.45954049
Li       8.76321985       6.00314539       1.60287375
Li       4.59534134       7.84285200      11.18848698
Li       5.24360325       0.21176967       2.26961956
Li       0.45589288       1.52426381       7.32541818
Li       5.25335349       2.60302836      11.97664414
P        9.84869642      10.27863106       9.92836757
P        0.03880824       9.50116578       5.02000048
O        0.46360089       5.67476987      10.89718746
O        2.35380380       1.92672490       8.28210824
O        8.65572129       9.19896280       9.63969530
O        3.99918404       6.39098394       7.19488617
O        1.22981538       9.67238282       9.61332706
O        1.06330080       9.88445745       6.06980802
O        4.11607977       4.59349999       4.59449353
O        9.81842384       0.27920303      11.39284525
Li       8.67771459       7.85886505       3.44804242
Li       2.15639288       0.12230821       8.69372863
Li       3.62189094       3.22959523       6.54106066
Li       0.74525803       8.50139497       7.53849689
Li       6.17991632       6.49728574       8.37225956
Li       1.83382206       3.60467744       1.41254168
P        9.26985072       3.86340050       3.04767678
P        4.65622089      10.64793395      10.83647719
O        4.49652626       1.47984244       6.72456092
O        9.74953504       9.91307070       1.69292060
O        3.81784310       1.57282757       1.89778929
N        0.85663928       4.04716294       3.35168667
O        6.03716638       0.19125701      10.22382108
O        9.21632727       3.78628446       1.28441778
O        8.52332810       2.59149696       3.62703567
Li       4.38883415       4.00118750       8.80062436
Li       6.96794883       1.79756993       2.80242638
Li       2.88855877       5.84099454       9.88990356
Li       2.49739939       8.54490357      10.09610899
Li       2.37908017       5.53770847       7.12258886
Li       8.80502721       5.45569711       5.36443150
P        7.24023731       3.52818272       7.48876446
P        5.13326897       1.00376732       5.33431321
O        4.24552653       1.18211867      11.50041542
O        9.19035320       6.63135735       7.50599029
O        5.78232931       4.25006654       7.31984674
O        0.93098578       5.20921717       5.63388065
N        7.33375417       2.27479940       8.53625492
O        5.87269903       2.04842865       4.48889296
O        3.62656224       8.71503157       6.86367875
O        8.07149929       4.14556276       8.58775300
Li       6.25971568       9.49421484       3.82247624
Li       8.83419434       7.13989157       9.23022835
Li       0.72917097       3.61744322      11.70369294
Li       1.91430222       1.08374495       4.90561911
Li       6.45894610       3.98720776       4.91417765
Li       9.55327125       4.87268566       7.67035213
P        8.22693807       9.59279006       1.41431549
P        7.95970483       3.50182948       0.30084720
O        2.08787389       7.54067321       8.73436824
O        8.44608408       5.13403376       3.32898894
O        8.10364636       7.92706326       1.76343440
O        2.43619978       7.14562687      11.55945743
N        7.33887452      10.64791850       2.25521012
O        8.41828572       3.15156397      11.35584621
O        3.80566953      10.00279675       9.46879375
O        7.65853308       9.35527381      12.43006046
Li       1.14037883       8.22342900       1.95726492
Li       7.97937813      10.42565103       7.12714232
Li       2.20500257       7.57278708       5.31630021
Li       2.49094001       1.22821066      11.57357500
Li       8.75972357       2.30564743       9.56977275
P        8.12099693       7.48224436       6.66798107
P        3.45595876       7.61495631       7.95381466
O        8.21944422       3.48993544       6.37564746
N        8.95068537       8.40166793       5.62421668
O        7.02305347       8.04449455       7.61499884
O        4.37493207       7.68828806       9.23806106
O        3.99724292       0.36713064       4.48755653
O        7.27480848       6.33245805       5.72367770
124
Lattice="9.92562 0.0 0.0 0.0 10.6806 0.0 0.0 0.0 12.4552" Properties=species:S:1:pos:R:3 material=LiPON model=NEP89 temperature_K=1200 phase="NVT production" display_name="LiPON｜NEP89｜1200 K｜NVT production計算" report_figures="23_LiPON_lithium_MSD; 24_LiPON_transport_comparison; 25_LiPON_temperature_RDF" source_frame_index=180 relative_time_ps=18.0 pbc="T T T"
Li       7.97532154       8.62783174      11.30967510
Li       5.59722018       8.68177835       1.15214193
Li       5.47453316       9.51521400       5.44312653
Li       4.90205027       5.04123240       9.46440369
Li       4.00702812       3.84187630       1.86556031
Li       9.56205787       1.39795176       2.26581289
P        5.30933732       5.99237809      12.32850505
P        1.77109562       1.54396090       1.19465812
N        2.51524395       5.01271396       3.14581601
O        5.20121120       7.58426677       3.25318389
O        6.63253567       6.56052497      11.86536330
O        6.31524405       9.90654711      12.14491229
O        4.50430775       5.04087826      11.46895395
O        2.03354771       0.06119438       0.75505117
O        0.40198768       7.29669967      12.27530122
O        4.50410604       7.29465904       0.30498259
Li       8.05176880       5.11992116      10.85692506
Li       9.81753398       1.62223890       4.53819636
Li       3.03993128       3.66333982      11.53504691
Li       3.63664019       9.37944436       0.60831129
Li       6.65047594       0.39573023       1.07742657
Li       8.77908541       4.78682872       5.70532653
P        2.48798010       2.35336479       9.28306445
P        1.24199610       5.11295097       4.42093437
O        0.46811492       2.11207886       0.41857281
O        9.20862594      10.09995600       8.55178467
O        2.29520883       0.78464953       8.94761774
O        4.57435468       0.62364559       6.86512674
O        4.13507798       2.62776248       9.36452252
O        1.73776139       3.85209932       5.22529286
O        0.31860293       9.85559129       4.27644097
O        1.81605596       2.86596512      10.50377741
Li       6.07927595       6.53185386       5.09364057
Li       0.77023038       9.14726548      12.34352130
Li       8.20683825       6.60041679       0.55756465
Li       4.84856150       1.03092553       2.41578204
Li       2.78457513      10.65364721       6.50579815
Li       9.48920528       0.62267801      11.82778035
P        4.16493385       8.60840280       3.00088981
P        1.04915958       6.01952857      11.76819186
O        0.07654923       0.98218931       6.18386046
O        5.69841576       5.02387210       1.11113914
O        3.74347055       9.23169159       4.38043255
O        6.18843099       2.74262541       1.77535930
O        4.57708903       9.80441493       2.11307435
O        1.82534922       5.11508863       0.33136368
O        1.49240528       1.45430293       2.76351187
O        2.91538344       8.21192252       2.31468458
Li       6.90381381       7.30115089       3.10198370
Li       0.58459127       7.98285129       3.76996054
Li       1.61625532       5.12371289       9.22504872
Li       2.99818470       9.39681145       8.94767519
Li       1.26104843       7.91716062       7.45919499
Li       5.60233193       3.23200567      10.94985809
P        0.18144329       9.20261714       9.57168938
P        0.05220798      10.12182063       5.79995413
O        9.78595353       5.04853276      11.46871137
O        2.03677312       3.17143398       7.96812877
O        9.03349135       8.11056438       9.61970264
O        4.55766768       7.01365173       8.98877967
O        1.34685525       8.52163770       8.92025076
O        1.34082452       9.42401280       6.50331177
O        3.73993253       4.72906325       3.29389231
O        0.76357755       9.97397392      10.76419077
Li       2.44368496       8.32588367       5.28839316
Li       5.11389412       8.45581987       7.95295628
Li       3.47464433       3.02775434       4.84298977
Li       1.11454568       5.71358737       7.11924038
Li       6.42698361       6.85399356       9.59066005
Li       1.12235806       4.30275577       2.02381733
P        8.49480422       4.19922087       3.43280826
P        5.62296807       9.97797685      10.78156061
O        4.03501181       1.11894904       4.28915551
O        0.09715217       8.73993972       2.18743838
O        2.99798159       2.55084199       0.99835313
N        9.77871257       5.00510891       3.65377030
O        6.20610063       9.17519734       9.59862293
O        8.12836947       4.41651432       1.77016438
O        8.58410664       2.75141832       3.86283647
Li       3.79790783       3.77675404       7.42244900
Li       7.39365385       1.62105089       2.93076783
Li       8.76319545       6.36688797       8.65002626
Li       3.77327770       7.43836505      10.52797199
Li       2.46257326       0.26955646       3.81532968
Li       7.98080507       1.78455240       6.26437019
P        8.21490152       3.67313473       8.71461445
P        5.12739962       1.18892528       5.50764922
O        5.95999285       0.78268694      10.31221994
O        8.72524383       6.67396664       6.95600792
O        7.16692312       4.33775832       9.46400151
O        1.28274793       6.38687367       5.24736211
N        7.78782318       3.37224457       7.25802897
O        5.05773081       2.79695798       5.77055575
O        4.80292243       5.41350544       6.93863916
O        8.48671664       2.23323407       9.25250545
Li       7.87818093       9.33825260       4.17198056
Li       7.60923438       9.44249344       7.64777191
Li       0.47695030       3.31709410      11.31492962
Li       5.75709937       3.82052785       4.40596412
Li       1.18891771       2.40538953       6.55380310
Li       0.02818808       1.22011512       8.73653951
P        8.76990412       9.20818015       1.52095718
P        6.83055814       3.91628596       1.04640630
O        2.51237990       6.11548370       7.85857289
O        7.36745048       4.81386487       4.45411622
O        7.63651230       8.15864774       1.38238085
O        2.13957873       6.25544401      10.67552115
N        8.10249272      10.33965491       2.47108861
O        6.94737879       3.41200837      12.04258032
O        4.10459637       9.56501826      10.72506313
O        9.06795172       9.81189856       0.11544350
Li       1.60148068       9.62331225       2.17389201
Li       4.41585378       1.04165913       8.77449694
Li       2.95820787       6.40749445       1.26682049
Li       2.65758873      10.61475793      10.90063084
Li       7.41958194       0.55912281       9.32493027
P        7.92023603       7.81822910       6.24966591
P        3.92470453       6.54308564       7.49895913
O        9.58539446       4.66392828       8.72355523
N        8.70392226       9.25995825       6.12937714
O        6.40595320       8.14931399       6.63438539
O        3.78844368       7.88351983       6.71618872
O        6.46538021       0.55411801       5.25830350
O        7.67173723       7.58707673       4.72674845
124
Lattice="9.92562 0.0 0.0 0.0 10.6806 0.0 0.0 0.0 12.4552" Properties=species:S:1:pos:R:3 material=LiPON model=NEP89 temperature_K=1200 phase="NVT production" display_name="LiPON｜NEP89｜1200 K｜NVT production計算" report_figures="23_LiPON_lithium_MSD; 24_LiPON_transport_comparison; 25_LiPON_temperature_RDF" source_frame_index=210 relative_time_ps=21.0 pbc="T T T"
Li       8.04098533       9.95114399       9.47384306
Li       9.20100286       7.28514469       9.19439525
Li       4.30005738       4.43083694       7.11706519
Li       1.51809390       4.96289523       7.89813922
Li       3.67967323       2.76263591       3.58999324
Li       0.98827906       9.23486195       0.52752644
P        5.50251869       4.50450559      12.42376364
P        2.79873313       0.92521266       1.56712049
N        1.62131346       4.92874982       3.73187263
O        4.83141850       6.83868317       3.96084321
O        5.26870843       5.98155671      12.22372163
O        4.85940488      10.10071927      11.92421285
O        4.84687353       3.80506481      11.08942012
O        2.31070845      10.02916717       1.53008998
O        0.39182591       6.69961194       0.30388502
O        4.77764964       4.01962506       1.18278960
Li       9.64879751       4.03479230      10.59927699
Li       8.33517385       1.50093877       2.74627697
Li       4.42531407       4.64928331       9.81419666
Li       5.38835607       9.55419853       1.05392620
Li       5.94277038       1.19062713       2.36947971
Li       9.17905490       6.98165933       2.19268251
P        2.06164651       2.45370914       8.80690184
P        0.42013506       5.03832316       4.98831224
O        2.27999232       1.92042607       0.40113927
O        1.41564446      10.21979311      11.37970423
O        1.44646041       1.31157577       8.02146758
O        5.89631822       2.02791555       6.74007813
O        0.86072629       3.42881771       8.89441663
O        1.01212138       4.41318602       6.21931872
O        9.30811813       0.87935011       3.99072378
O        3.11069830       3.08929729       8.02264471
Li       3.34134938       5.69064943       4.84486667
Li       4.22307380       7.41905489      11.09755154
Li       3.96421724       5.92481846       1.10785576
Li       3.77908311       0.38826166       3.86556277
Li       5.01101442       7.80399827       5.80148691
Li       3.50945052       8.85629758       0.39838645
P        4.14550182       8.05678524       3.14477225
P        1.32237813       5.94791042      11.77513128
O        9.10214640       1.05648289       6.46809976
O        7.19442769       4.40240797      12.45341618
O        2.64200477       7.94035127       3.50817522
O        7.38949348       1.80450191       0.50697283
O        4.63372068       9.45120252       3.59340719
O        2.50161244       6.96432492      11.65720422
O        2.31492333       1.35241971       3.02363263
O        4.47652784       7.68078134       1.67126189
Li       6.60076627       7.35432034       1.89199648
Li       9.27806825       8.32450341       4.99405391
Li       2.83933764       3.34910689      11.50916530
Li       9.69664431      10.51298982       7.84437925
Li       1.19792455       7.89181355       7.27421124
Li       3.04790160      10.28708741       7.53929211
P        0.70493088       9.78839868      10.00985741
P        9.38618826       0.03377885       5.28353524
O        1.64457729       4.59511795      12.20983198
O        2.54329451       1.89341914      10.16647430
O        9.55805674       8.57448555      10.37635567
O        4.60848217       7.37726536       8.93630959
O        9.51155779       0.27500008       9.58283027
O        0.81526090       9.96913358       5.44137198
O        2.62083994       4.87787430       2.96866704
O        1.33543747       9.27555397       8.73225422
Li       1.93355658       6.88653444       2.02590521
Li       6.12841928       6.00225326       6.70417038
Li       2.50246882       9.20355939       5.31738729
Li       1.92358011       7.44024571       9.72005798
Li       7.17554465       1.14621160       7.90894171
Li       0.95772554       3.26572396       2.89683070
P        7.98670124       4.50297492       3.25695366
P        5.67392701      10.26718491      10.61300417
O        4.00917122       0.34898236       5.88205612
O        9.36779172      10.56884155       1.21217268
O        4.31262225       0.97117515       1.61770154
N        9.06249508       4.50634903       4.23616460
O        4.87845445      10.10339303       9.33060218
O        8.59800330       3.55830105       1.96370620
O        6.66163319       3.95538621       3.96734168
Li       1.73025928       2.22637898       5.98796541
Li       5.25111255       2.01567220      11.97112734
Li       8.79721059       6.32701099       6.53638140
Li       8.76611902       7.87099600      11.76430975
Li       5.42234352       9.48197665       7.93376726
Li       5.43065211       4.91870152       2.97579589
P        7.47560651       4.47408767       8.39469013
P        4.94844635       1.61275063       5.52891777
O        6.81690506       9.23899329      10.68299546
O        8.99547722       8.11581174       7.35956138
O        8.15962573       3.22862560       9.00457218
O        0.29175034       6.65906633       5.36534966
N        5.95789460       4.10771519       8.28562616
O        4.12480381       2.83603453       5.26015606
O        4.30772329       6.26387055       6.53632134
O        8.02541038       4.73183291       6.87544236
Li       6.35972997      10.06841942       4.29685290
Li       6.40154981       7.46040916       9.61024226
Li       1.09378348       1.54052486      11.59351647
Li       9.70286899       3.14455000       7.45841265
Li       7.83652797       2.81743938       5.83205856
Li       8.59727915       1.84082726       9.77730120
P        8.65033170       9.57569307       2.02040599
P        8.10318420       3.10882126       0.48179337
O        2.26431523       6.75258351       8.20203807
O        7.60166342       5.73275876       2.39322032
O        9.75403360       8.77979920       2.91522282
O        0.58916136       5.86553905      10.38488837
N        7.37550525      10.18114921       2.68810532
O        9.29968629       2.91374277      12.02172628
O        6.23226905       1.10661957      10.70934495
O        8.05772042       8.49927581       1.10255361
Li       1.15744358      10.20520439       3.14585156
Li       6.09473800       2.73433501       9.80663631
Li       2.90012211       3.81852985       1.32339076
Li       3.22844461       0.07653054      10.79338597
Li       7.88687728       0.43638097      11.81022177
P        7.80187328       8.88431333       6.84559419
P        3.67106263       7.25550865       7.70877146
O        7.71134034       5.76399972       9.27725721
N        8.02136726       9.71494973       5.39568858
O        7.24160523      10.04215072       7.77150105
O        3.66189795       8.60619658       6.83385753
O        5.77641450       1.14392780       4.34317566
O        6.85143580       7.65957017       6.50369277
124
Lattice="9.92562 0.0 0.0 0.0 10.6806 0.0 0.0 0.0 12.4552" Properties=species:S:1:pos:R:3 material=LiPON model=NEP89 temperature_K=1200 phase="NVT production" display_name="LiPON｜NEP89｜1200 K｜NVT production計算" report_figures="23_LiPON_lithium_MSD; 24_LiPON_transport_comparison; 25_LiPON_temperature_RDF" source_frame_index=240 relative_time_ps=24.0 pbc="T T T"
Li       3.47320043      10.14364401       8.74523234
Li       0.09175516       7.03877665       9.00755048
Li       2.26902362       1.72773074       7.05513638
Li       2.92057015       5.37038107       9.73769327
Li       3.76487049       6.49773537       0.98994054
Li       0.54934067       8.82583344       0.85459493
P        6.07223201       5.32263745      12.00088809
P        2.01855844       0.82058241       2.06008460
N        1.96414304       4.34844709       3.57810098
O        4.92507462       6.97705925       3.67840087
O        6.92798751       6.37433938       0.15250620
O        5.75031536      10.63540369      11.72821952
O        5.48754495       5.50286680      10.48138884
O        1.95293784       1.23728549       3.43565206
O        0.63796524       6.49423100       0.70419479
O        4.92859744       4.85573872       0.38199764
Li       1.12627962       4.64033975       7.40869850
Li       7.11239543       4.42903989       5.38065148
Li       9.78053094       0.78243384       8.96578080
Li       6.08734124       2.08008204      11.74729599
Li       2.98011801       3.39440244       4.61109919
Li       1.24011781       7.01949431       2.19190699
P        2.68299773       2.39910656       9.49605743
P        0.71661511       4.89924076       4.46890073
O        1.67254220      10.05822968       1.67074376
O        0.43495441       9.99105199      11.60894661
O        2.77075711       1.10808971       8.60778550
O        4.69390794       2.19245260       4.00048792
O        1.83100754       1.95046734      10.75132481
O        1.38328908       4.28817611       5.72973928
O        9.30293573       0.96235402       4.87025613
O        2.28279330       3.55165955       8.51853435
Li       4.83660485       5.42735979       4.60840143
Li       4.84160696       1.44238301       8.26171534
Li       2.95837010       8.83853052       0.09455632
Li       0.55044147       2.49341166       3.67666119
Li       6.20169440       6.70816518       2.66550294
Li       3.51602265       0.67295917       4.21054103
P        4.08908958       8.21277753       3.01633988
P        1.52426056       5.89663457      11.93647080
O        0.87893543       0.50301848       6.93087387
O        7.11860621       4.01771190      11.87045852
O        4.43866422       8.52808682       1.49378834
O        6.65132970       2.27089404       1.17823406
O        2.55262979       7.80271369       3.31633811
O        2.35188344       4.60728191      12.33626148
O        0.75758256       1.58621050       1.43877760
O        4.64895282       9.40377540       3.95609818
Li       7.16779161       8.16505425       9.84326870
Li       2.34053520       7.20305854       5.17118128
Li       3.80783842       3.70017856      11.84080092
Li       3.43924131      10.66253697       6.63220398
Li       0.92956328       8.58678658       7.16076703
Li       2.14689843       0.27759995      11.33707646
P        9.81612621       9.15524413      10.41529555
P        9.71744703      10.48296955       6.06893763
O        0.83355657       5.38467808      10.69713073
O        4.09957853       2.57918789      10.07328368
O        9.03607633       7.77038936      10.57082685
O        3.87584941       7.02212140       8.92878698
O        8.83210994      10.08673352       9.76092963
O        0.62922928       9.35793789       5.33604113
O        3.09396708       4.71038524       3.15205632
O        1.03897714       8.89175506       9.34046022
Li       1.20190782       9.25948674       3.77256042
Li       5.40814592       7.82492014       5.28977332
Li       6.15253404      10.28639120       4.29562116
Li       2.46761728       8.36477789      10.15926181
Li       5.64870826       6.37776810       8.88276323
Li       5.49098754       3.37866213       2.41838477
P        8.16637237       4.50337955       3.11663383
P        5.07089550       9.87088221      10.62753254
O        6.31367740       1.19706618       5.78611829
O        8.29240081       9.87786012       0.77456819
O        3.34967140       1.25875871       1.36447774
N        9.46431611       4.06216421       3.99773104
O        3.52916751       9.86367779      10.78971054
O        8.73311487       3.74157634       1.70674124
O        6.91930002       3.72902020       3.62985099
Li       0.43619184       2.54505121       6.05572331
Li       7.85999658       0.02519539      11.61996828
Li       8.67572162       7.13659438       3.99789088
Li       8.97540715       5.80726295      10.81674304
Li       6.29970236      10.08718861       6.67080629
Li       6.27580153       8.27864363       0.38802156
P        7.93883247       3.40614204       7.98737887
P        5.13395259       2.33111078       5.49693731
O        5.58460531       8.47413353      10.98456185
O        9.19741170       7.12382788       7.44696496
O        9.16832886       2.45314731       8.32341061
O        0.70303223       6.47304153       4.25295379
N        6.86030689       2.21019371       8.41339395
O        5.36045688       3.85071097       6.01673020
O        4.65124810       6.51563389       6.48740707
O        8.20371157       3.52502581       6.52327782
Li       5.06928184       0.33783226       1.78720043
Li       4.41437094       7.05211132      10.64219553
Li       0.17433937       3.20395915      10.30354328
Li       7.92463558       5.72252916       7.23186974
Li       7.48362737       1.56427460       4.42088459
Li       7.38435154       0.25638511       8.61347924
P        8.04417424       9.36355616       2.24725923
P        7.93766879       2.78649235       0.50261470
O        2.15053212       6.99532524       7.09818576
O        7.89749132       6.00339707       2.95645642
O        9.28172556       8.63689814       2.62352274
O        2.63103965       7.00869912      11.62204388
N        7.46887312       0.07183892       3.05483470
O        8.73324105       1.89075520      12.02330480
O        5.42511636      10.63237312       9.18740338
O        6.86638823       8.35303804       2.35530996
Li       3.76327433       3.87773712       7.11347432
Li       6.07464300       3.66913412       9.46599095
Li       1.75425991       3.34630300       1.19534495
Li       8.54045963       6.38984819       1.11937285
Li       9.60165999       0.55243091       0.50514062
P        8.06533851       8.00557001       6.97586806
P        3.58592432       7.40067052       7.48239998
O        7.70761862       4.71834582       8.79126395
N        8.51373756       9.63558255       6.90718966
O        6.99323438       7.68500404       8.15430008
O        3.84741654       8.88386423       7.04140206
O        3.82675935       1.79650807       6.14467188
O        7.51622026       7.58507917       5.63784938
124
Lattice="9.92562 0.0 0.0 0.0 10.6806 0.0 0.0 0.0 12.4552" Properties=species:S:1:pos:R:3 material=LiPON model=NEP89 temperature_K=1200 phase="NVT production" display_name="LiPON｜NEP89｜1200 K｜NVT production計算" report_figures="23_LiPON_lithium_MSD; 24_LiPON_transport_comparison; 25_LiPON_temperature_RDF" source_frame_index=270 relative_time_ps=27.0 pbc="T T T"
Li       1.75783156       8.79099908       8.21273393
Li       1.20207736       7.97163213       5.78031159
Li       7.54648451       9.85069648       4.31272034
Li       2.43197950       5.92630247       9.97144797
Li       3.80996126       3.66407093       5.49528557
Li       9.08207101       8.32225736       0.38402806
P        5.64407883       4.69179416       0.12382473
P        2.79479302       0.87203525       1.75211377
N        2.37203136       5.06939888       3.87326475
O        4.82013911       7.13139324       4.19714212
O        6.60203112       5.53091007      11.84298125
O        5.81083828       0.56681278      11.27456188
O        4.34055171       4.09425415      11.80979810
O        2.43298539       0.32323338       3.16248957
O        0.27967263       7.16139610       0.64414705
O        4.99481348       5.34544397       1.41503465
Li       0.44346180       6.27118561       7.29279401
Li       5.48551769       2.41874687       8.33204561
Li       0.03209592       1.07254776       8.31360072
Li       4.78145519       4.33731140       9.82805383
Li       0.56385833       2.41493202       6.74293997
Li       4.63249984       2.20335680      11.80191790
P        2.37543123       2.75490549       9.53175525
P        0.99160855       4.68511509       4.79537577
O        2.73950618      10.35453869       0.66753737
O        9.76108328       9.98808093      11.70679337
O        1.95311226       1.91688973       8.38482471
O        4.42395493       1.92577019       4.39033988
O        1.86651979       4.09600495       8.96588033
O        1.71485654       3.67660768       5.72648789
O        0.06718865       0.11923133       3.96957843
O        4.06734983       2.73993691       9.61576983
Li       6.17996375       4.65440919       6.06566925
Li       7.99198866       1.61728230       6.08728466
Li       5.17494698      10.67166924       0.57305919
Li       1.18821136       3.62423742       2.37334943
Li       7.38348394       8.15352247      11.15855366
Li       5.05487058       3.48611350       3.31497397
P        4.10178030       8.24873919       3.62692484
P        1.40794137       6.43887000      12.26189534
O        9.41349184       0.86533198       6.31944509
O        6.43769745       3.33166621       0.68511570
O        4.31449941       8.54739462       2.13324620
O        8.15283913       1.40722366       0.97794292
O        2.62168601       8.08459852       4.20987269
O        1.75780087       5.02092288       0.66491095
O        1.73067192       1.91474474       1.30828039
O        4.77245544       9.38969879       4.33257014
Li       7.49479572      10.59993244       8.08619842
Li       2.94344437       6.52610239       4.94951199
Li       2.31550167       3.38993433      12.32852900
Li       2.83033752       0.28189619       5.03980167
Li       9.64283466       7.88174163       3.61648847
Li       2.33343517       0.47267829      11.17398825
P        9.74577277       9.91699830      10.08629534
P        0.00241443      10.32148469       5.41386959
O        0.46876639       5.86106230      11.10432457
O        1.70964843       2.56331111      10.98408185
O        9.62298361       8.45653279       9.69799756
O        4.52524766       6.18097802       9.06504068
O        8.70894051       0.22421253       9.50372168
O        1.37447443      10.28722817       6.17584820
O        3.60149632       4.69906825       3.61648934
O        1.35858904      10.28016829       9.42374679
Li       2.14215390       8.94018249       1.90083156
Li       5.57875352       8.41981814       5.78779737
Li       6.69685693       6.54768911       4.04876496
Li       2.93091308       8.95367844      12.01132014
Li       6.46136139       7.13373174       8.55582734
Li       6.68844434       1.34462491       2.39497929
P        8.39164265       3.73690302       3.33887033
P        5.20158218      10.19247348      10.23597730
O        6.58561683       1.00036601       5.65084916
O        7.33433181       8.68268132       0.58841789
O        4.29777529       1.25813895       1.61191370
N        0.03880914       3.71299922       3.94730079
O        3.74373940       9.75562412      10.60533497
O        8.66069758       4.20934319       1.77920443
O        7.88430363       2.38292350       3.59205546
Li       8.45587472       5.60104833       5.96158337
Li       1.02460338       1.49270089       3.55421890
Li       3.25596097       5.06941238       2.01155859
Li       0.04497614       3.78321914      10.51399432
Li       3.03975332       0.33696376       8.11683914
Li       8.51126970       5.32981681      11.72381293
P        7.87204457       4.08824468       8.65693125
P        5.17572700       1.61926412       5.77727407
O        6.01507598       8.86917555      10.11036099
O        8.95029177       7.44170616       7.21627238
O        8.27463045       5.46119920       9.38695602
O        0.50801572       5.84722583       5.64239784
N        9.14625806       3.18223905       8.46840541
O        5.20018347       3.07956127       6.49250849
O        4.48049242       5.82072754       6.63251472
O        7.44138704       4.28609531       7.25914011
Li       7.85111568      10.55789258      12.10084775
Li       4.79254398       7.24317983      10.67082274
Li       9.05314220       0.38642997       2.27863423
Li       5.61509427       7.60606371       1.22389909
Li       4.87726989       0.25846341       3.36154368
Li       5.16858586       9.72036195       7.50642596
P        7.67750797       8.91761696       2.13951374
P        8.07233757       2.95024558       0.68532311
O        2.20130980       6.41659317       8.21343032
O        7.58619861       4.93007863       3.91689665
O        9.24409681       9.05365877       2.13552344
O        2.75074127       7.11224057      11.85544186
N        6.94446424      10.20834853       2.70508701
O        8.66782775       3.32601393      11.87474230
O        5.38302300       0.26678526       8.81676283
O        7.34878228       7.48884017       2.70706439
Li       2.40220509       4.54637670       7.36851427
Li       7.09206832       2.02985451      10.91894866
Li       9.53204107       6.71277788       9.94481948
Li       8.12851660       6.20774840       1.89880274
Li       0.29554419       1.30395393      12.10183642
P        8.02500151       8.13073978       6.34756454
P        3.83254674       6.53646319       7.82942974
O        6.75382363       3.49229424       9.41870305
N        8.96494210       9.09254659       5.69929619
O        6.89999419       8.74035781       7.18534322
O        4.14038335       8.04724265       7.53598438
O        4.20174922       0.80574843       6.62728517
O        7.57963596       7.15749664       5.36162285
124
Lattice="9.92562 0.0 0.0 0.0 10.6806 0.0 0.0 0.0 12.4552" Properties=species:S:1:pos:R:3 material=LiPON model=NEP89 temperature_K=1200 phase="NVT production" display_name="LiPON｜NEP89｜1200 K｜NVT production計算" report_figures="23_LiPON_lithium_MSD; 24_LiPON_transport_comparison; 25_LiPON_temperature_RDF" source_frame_index=300 relative_time_ps=30.0 pbc="T T T"
Li       4.93914952       4.97086349       9.32145631
Li       0.80964080       0.64048583       8.80613738
Li       4.96415804       8.62582490       6.24702121
Li       2.07649048       2.91465355      11.52043957
Li       6.92520019       2.91706685       5.54596773
Li       4.26041415      10.36091469       3.08068423
P        6.34957177       5.23383709      12.25911553
P        2.78948201       1.45533355       1.80555568
N        1.51147114       5.05300650       3.71781645
O        4.85288128       6.84024972       3.84075212
O        6.87477987       6.70187686      12.19051894
O        6.12430580      10.03619513      12.17427138
O        5.58875200       4.75026674      11.10994819
O        1.83607270       0.97359447       3.09045345
O        0.76095100       6.11248772       0.77816751
O        5.42665371       5.01994538       1.10459256
Li       0.98560395       4.16164382       9.02056549
Li       2.88595395       8.19469278      10.19157858
Li       0.39139692       2.08203960       6.26387628
Li       4.80267505       6.88322244      10.87837577
Li       7.12894160       1.37737947       8.34329550
Li       5.53097664       2.15663760      10.45671805
P        2.99005323       2.14909541       9.18280130
P        0.68899014       4.71996206       5.03247353
O        3.70192223       0.21650849       1.44189769
O        1.04157525       9.66542347      11.67564121
O        1.54452321       2.42139509       9.44631416
O        3.92993875       2.39286747       5.68928564
O        3.84923098       3.34074654       8.65322709
O        1.08756370       3.80040386       6.22019705
O        9.77807882       0.76143047       5.05179143
O        2.92886300       1.09865359       8.02150807
Li       5.62353815       5.45255723       2.82261184
Li       5.29453468      10.63724379       8.05745154
Li       0.30167441       7.98551385      12.13503900
Li       2.00589475       4.05863678       1.65430820
Li       0.19240230       0.37911320       0.57636273
Li       3.25485327       9.18798740       0.42166702
P        4.24294496       7.85234251       2.95888044
P        1.50739992       5.70134519      11.95241150
O        9.25114133       0.73782610       7.53076001
O        7.60296694       4.13638461      12.25924686
O        4.10059115       7.47984419       1.37485850
O        6.40782624       2.06617794       0.99740359
O        2.95627021       8.50378570       3.28140991
O        2.88555273       4.88576812      12.19249865
O        1.86972853       1.74271211       0.56694123
O        5.33957049       9.02069521       2.83727416
Li       7.78172962       9.32035545       9.39635224
Li       0.80680187       7.29825788       2.75782202
Li       4.35493210       2.73243260       0.38842769
Li       2.24854013       9.72353291       7.56215431
Li       2.61444431       8.85272936       4.99432918
Li       2.92669254       0.12789581      11.20151173
P        0.21768827       9.40963460      10.36854132
P        9.59297241      10.45825293       6.33147017
O        0.61380463       4.50493827      11.29674073
O        3.47822483       1.71493478      10.60023977
O        9.30342988       8.08328224      10.46644339
O        4.00304284       6.73991858       9.25921924
O        9.13412134      10.66433538      10.23156435
O        0.84945369       9.46989287       6.28129311
O        2.56385399       5.44546358       3.07137971
O        1.00657371       9.52391941       9.06692052
Li       0.95259779      10.19972109       3.32114791
Li       3.25343143       6.41891804       4.69846317
Li       7.47816004       7.19384430       3.82954433
Li       5.72135679       8.35490026       0.76584004
Li       5.91021999       7.24717085       8.61599921
Li       6.60147586       0.33082247       1.65732330
P        8.23430698       4.41056880       3.36141336
P        5.52797062       9.72733838      10.70161768
O        5.71310953       1.46072939       4.20331405
O        8.24632605       0.10202429       2.59269216
O        3.57903454       2.67215118       2.03812255
N        9.36847077       3.91728471       4.57840897
O        3.98442637       9.40267590      10.95695351
O        8.44262327       3.34143999       2.20071628
O        6.79927146       4.16091339       3.93513898
Li       8.46714525       5.81826957       5.77127785
Li       9.76716476       1.86782824       3.52586624
Li       7.70417963       0.89218216       4.22294150
Li       8.63393733       5.32052543      10.91591992
Li       2.48465892       0.95586563       5.05835794
Li       9.80993754       6.86214764       9.21274030
P        7.60866623       4.50084313       8.36338897
P        4.97811974       1.30152106       5.57302730
O        5.97190591       8.42819717      10.19842437
O        8.82643549       7.95829419       7.58546854
O        9.16749931       4.83911554       8.63984997
O        0.75362467       6.14163920       5.52900521
N        7.28625324       4.58531405       6.76362830
O        5.88920980       1.20469615       6.83113802
O        3.66895844       5.80731048       6.96110242
O        6.94708188       5.67866248       9.20717152
Li       7.28796225       0.54240079      11.47901945
Li       5.40893148       2.81377592       7.55729043
Li       5.48053990       2.85468708       2.99756544
Li       7.29291512       8.26893243      11.35727339
Li       3.10136947       4.08839475       6.67369455
Li       6.12150866       5.79228812       6.13700123
P        8.79156942       9.27110774       2.37710155
P        7.66450666       2.78815221       0.71226266
O        1.68517423       6.36931211       8.30041853
O        8.79191606       5.83254776       3.06128599
O        9.49566241       8.60419361       3.61874509
O        1.72900699       6.86504315      11.04395916
N        7.42880580       8.58947209       2.41835026
O        8.61381844       1.91079285      12.30451462
O        5.82487959       0.32746277       9.84242325
O        9.10146799       9.05194147       0.98554449
Li       3.95435045       5.78670205       0.95509333
Li       9.23507426       1.74353421      10.64108761
Li       0.53033262       7.61387196       6.67425204
Li       8.34163944       6.59339657       1.26409168
Li       0.27635870       3.35664637       0.19706950
P        7.76318147       8.60323707       6.61937484
P        3.13951815       6.83474828       7.92168298
O        7.12537449       3.16976852       8.84992497
N        8.12077354       9.99277391       5.93533434
O        6.55856637       8.95408667       7.55499834
O        3.23437510       8.26401283       7.22586620
O        4.26790688      10.56508248       5.45415500
O        7.36669790       7.29975076       5.75191010
124
Lattice="9.92562 0.0 0.0 0.0 10.6806 0.0 0.0 0.0 12.4552" Properties=species:S:1:pos:R:3 material=LiPON model=NEP89 temperature_K=1200 phase="NVT production" display_name="LiPON｜NEP89｜1200 K｜NVT production計算" report_figures="23_LiPON_lithium_MSD; 24_LiPON_transport_comparison; 25_LiPON_temperature_RDF" source_frame_index=330 relative_time_ps=33.0 pbc="T T T"
Li       1.74951049       9.24474251       0.62398020
Li       9.12602984       2.10926020       9.52395680
Li       1.07231218      10.50207810       7.93993057
Li       0.26119783       4.19283372      10.57954098
Li       8.49239271       5.58076542       5.18995020
Li       5.39472411       9.36683249       6.48978186
P        6.23079430       4.71408159      11.73124129
P        3.11762414       0.93988857       1.24380213
N        2.61756047       4.42624584       3.50632280
O        5.11639893       6.60314553       3.44834665
O        6.98839613       6.09107273      11.98113465
O        6.02250792       9.45189198      12.06604156
O        5.44590147       4.48123375      10.36121164
O        3.01697571       0.69938912       2.88839445
O        0.73325180       6.28263575       0.91199706
O        5.22175322       4.42948583       0.44802129
Li       1.34986189       5.06008178       8.98335298
Li       4.13975650       3.96497236       9.02765367
Li       8.03726473       0.06547745      11.85559757
Li       2.27401178       7.52996104      10.22590070
Li       7.64500160       9.68327701       9.34043787
Li       3.61027689       3.56537117       0.21642912
P        2.34140769       2.22816742       9.34554700
P        1.07661303       4.39311908       4.42924898
O        3.14817698      10.35655910       0.44450961
O        1.13597017       9.85774527      11.48178187
O        0.97993328       2.83316055       9.84086747
O        4.04007368       2.61784401       5.60692149
O        2.70187248       3.24424792       8.29257759
O        1.59510963       4.01129841       5.89790281
O        0.03197035       0.77171118       4.12502854
O        2.26065044       0.87247974       8.71386830
Li       4.01753495       5.94568907       0.97608986
Li       5.70439710       2.39749515      10.86787069
Li       0.98751051       2.14241934       2.93647050
Li       9.86328329       1.16399400       1.03156897
Li       1.43633000      10.04243073       3.34219151
Li       1.51201602       9.06917196       5.81025458
P        4.50504725       8.14631525       3.22783522
P        1.77268725       6.08853395      12.25856415
O        9.60627848       1.64371125       6.32408794
O        7.38718569       3.71408430      11.49027938
O        3.13366972       7.79146094       2.62727545
O        6.99698611       1.53031745       0.39501856
O        4.22751780       8.55290445       4.72789097
O        2.47551117       4.85588797       0.02516733
O        1.84413970       1.74511709       0.87774951
O        5.46548369       8.97633688       2.41314678
Li       7.54144821       7.11385254      10.69075972
Li       1.45729380       7.09780215       2.74987929
Li       1.42937282       1.94363456      11.54242112
Li       3.74345639       9.62496553       8.88277821
Li       1.02558202       6.19232909       6.36777851
Li       2.88940354       0.27431251      11.02465243
P        0.10460035       9.52133225      10.30185620
P        0.41604215       0.50902837       5.50581772
O        1.10638918       6.07475343      10.82794134
O        3.39507856       2.17158419      10.40124628
O        8.85778724       8.71709746      10.74147230
O        4.87430686       7.70868213       7.43710129
O        9.40240913       0.10203863       9.58176634
O        1.90012860       0.20262712       5.72378224
O        3.57509245       4.37099474       2.70496680
O        1.08895006       8.65043265       9.17391361
Li       5.85586957       4.92082123       2.80221307
Li       3.50148168       6.34739396       4.38828584
Li       6.40034222       9.39207801       4.52466616
Li       4.11370116       8.92995867       0.26777054
Li       1.52229897       4.35827994       2.01653207
Li       3.54284783      10.65832602       4.91291962
P        8.59374047       3.65568251       2.99073076
P        5.44377830       9.30294590      10.68223624
O        5.04658884       0.86632715       4.17622955
O        7.98565080      10.14984908       3.34479390
O        4.25969451       2.07476847       1.31610480
N        0.02504967       3.36625082       3.72404049
O        3.93825258       9.31719401      10.62063916
O        8.46407897       3.67562166       1.22112502
O        7.86690651       2.34272325       3.31351151
Li       6.87057834       7.32445384       7.76607567
Li       7.58687659       0.84875780       4.48512719
Li       6.58171524       0.97551929       7.74131285
Li       6.58341339       7.76766930       0.57960765
Li       2.82954262       1.86688286       6.85340324
Li       4.94377177       6.38245235      10.15001251
P        8.45753726       5.25290641       7.99285381
P        5.19474791       1.58837673       5.60261432
O        6.17213218       8.03495994       9.95857468
O        8.42833261       8.36626045       7.60680512
O        7.53881372       5.42028781       6.75533681
O        0.38368052       5.83779090       4.20063320
N        7.92041441       6.11275834       9.12425276
O        6.53202256       2.25915534       5.92548380
O        4.35064991       5.52209759       6.34398746
O        0.07362455       5.68313622       7.75997740
Li       6.18806965       0.38699289       2.39834684
Li       3.57335915       4.30700917       5.72987470
Li       5.78369895       2.67267238       1.09186289
Li       8.86492568       7.49877778       0.15285783
Li       0.78557742       3.17478272       7.28843321
Li       8.20475040       2.90466833       6.37162569
P        8.72681007       9.36570911       2.25382425
P        7.98211232       2.62695511       0.13601583
O        3.30982583       6.06236954       8.59523500
O        7.74762288       4.94403731       3.38762690
O        0.31848751       8.94360834       2.43247986
O        2.94239294       7.21351660      12.25143785
N        7.99940483       8.05343948       1.77696683
O        9.33187567       2.07567576      12.01932227
O        6.00877643      10.50793975       9.85584478
O        8.66621923      10.20742749       0.94105780
Li       6.21131798       6.44994961       5.18598944
Li       5.91955774       4.26485747       6.29708621
Li       0.08850936       7.15110308       9.22453683
Li       8.85151690       6.35615312       2.12429746
Li       4.05113905       2.00755897       3.44618060
P        8.35729344       8.85680190       6.19270504
P        3.74136611       6.72094426       7.22540376
O        8.58021329       3.78770893       8.39287595
N        9.74750625       9.70475344       5.96886392
O        7.23036069       9.83392572       6.10568776
O        2.40283372       7.26809062       6.68975246
O        4.55593444       0.66818267       6.75800539
O        8.24207146       7.65524565       5.20959470
124
Lattice="9.92562 0.0 0.0 0.0 10.6806 0.0 0.0 0.0 12.4552" Properties=species:S:1:pos:R:3 material=LiPON model=NEP89 temperature_K=1200 phase="NVT production" display_name="LiPON｜NEP89｜1200 K｜NVT production計算" report_figures="23_LiPON_lithium_MSD; 24_LiPON_transport_comparison; 25_LiPON_temperature_RDF" source_frame_index=360 relative_time_ps=36.0 pbc="T T T"
Li       2.87057683       9.43699529       1.83810203
Li       7.21581507       2.23753688       9.87913469
Li       3.44112146       9.79914515       8.50013513
Li       0.53771596       3.29067803      11.57998665
Li       0.74495390       6.21775705       6.59214002
Li       5.72089568       4.14410044       6.91005444
P        5.78353919       5.20166127      11.95305319
P        2.68967182       0.84733953       1.03828630
N        1.84593541       3.90168725       3.37742915
O        4.54963860       6.48622930       3.46260451
O        6.10023260       6.57106358      12.38384982
O        5.77599574       0.13486613       9.27383050
O        5.30714231       5.33478422      10.39927100
O        2.03529953       0.21067662       2.28571957
O        2.68105232       6.93873409       0.86644080
O        4.65016249       4.56326572       0.17655057
Li       3.21436939       5.04271643       9.93530354
Li       6.28508223       5.04071353       9.09075636
Li       7.62342159       0.03823455      11.56054448
Li       0.23052636       6.56713623      10.10835061
Li       4.73168776       7.22349223      10.44911887
Li       5.18138169      10.59413115       0.63476537
P        3.15936017       2.20260687       9.34313774
P        0.52405513       4.88875300       3.98193749
O        2.98981077      10.29982935       0.14294742
O        0.05860984       9.64645519      12.02944089
O        2.20725633       3.30917252       9.79787769
O        4.87223098       3.37745462       5.10021864
O        3.65890129       2.30649075       7.91018151
O        0.16301271       4.76532323       5.50551033
O        0.15197513       0.41807583       7.29495611
O        2.49619578       0.86638585       9.24223946
Li       4.05489231       8.48043604      12.23166045
Li       1.12033362       4.01584999       6.93528426
Li       0.86392643       1.95061702       4.28282148
Li       0.19156554       0.54765330       0.62040260
Li       1.26292352       9.35759867       3.32517321
Li       2.82983304       0.75408927       3.95815535
P        4.34375168       8.03893353       3.30424653
P        1.74182973       6.07461961      12.33904111
O        2.11130545       9.46200687       6.81687329
O        7.27265997       4.33508916      12.02134733
O        2.89276564       8.31246568       3.69723368
O        6.84073233       1.89738935       0.15696149
O        5.38488224       8.66602272       4.44099867
O        1.73927346       4.57192758      12.43065245
O        1.65398752       1.92865740       0.35113716
O        4.69356790       8.53561563       1.91286399
Li       6.17531839       8.26405145       7.23735912
Li       2.73792994       6.25658939       2.88529547
Li       2.99853355       3.38323171      12.09529946
Li       5.20037024       1.74832746       8.00035771
Li       3.57048930       4.48059351       5.29539829
Li       3.49703867       0.33459533      10.82847042
P        9.72031676       9.46986565      10.56723199
P        1.06079770      10.29911674       6.14453442
O        0.37114875       6.58584667       0.08882903
O        4.19210924       2.10927896      10.59252779
O        9.09084691       8.09214970      10.39815792
O        3.53679107       6.70890056       8.71037379
O        8.92292222      10.57008716      10.04565840
O        1.33108028       0.45626000       5.03924838
O        3.12585746       3.89611722       3.17852933
O        1.03244302       9.30730663       9.66141029
Li       7.44967454       7.12821893       3.43436901
Li       3.80985865       9.45371496       5.85018562
Li       6.36050519      10.10196541       5.06842756
Li       0.99042570       8.65203725       0.64815072
Li       0.84001024       3.68635060       1.57781115
Li       5.51351712      10.03174736       3.19517076
P        8.21234658       3.58253342       3.51368072
P        5.68139717       9.65837129      10.19556421
O        5.69720007       1.27266971       3.82669861
O        7.48472375       9.76629347       3.68653453
O        4.17457633       1.39297131       1.32236205
N        9.20412602       4.70963974       2.98557777
O        6.20912452       9.85784164      11.76000379
O        7.27863851       3.48906495       2.03387546
O        8.93783133       2.37162242       4.12108841
Li       8.35970526       5.30042128       5.77892267
Li       8.69264332       0.49893365       3.60789114
Li       0.83219106       0.77486898       9.19385663
Li       8.40193410       8.31975916      12.24572633
Li       5.30250119       2.32044403      12.22567503
Li       0.97229000       8.47897651       8.13914134
P        8.79205175       4.43636832       8.70797851
P        5.36967436       1.88133133       5.22093306
O        6.50407526       8.42267223       9.71971564
O        9.42876146       7.39299719       7.39450017
O        7.75449583       4.23039937       7.54560470
O        1.04233005       6.29913606       3.79686778
N        8.47177192       5.67536132       9.75674444
O        6.40973185       1.57192278       6.52779985
O        4.49814880       7.78406761       6.56483020
O        0.22842043       4.78791273       8.19899765
Li       6.08305420       8.34842361       0.33473776
Li       5.49752500       6.96619565       5.25560898
Li       6.64181739       1.50269133       2.05523526
Li       7.87675975       7.31898137       9.00528844
Li       8.24168737       0.42917008       7.53974209
Li       8.04465582       3.15346999       6.05480772
P        8.22554003       9.39715479       2.25734094
P        7.64134836       3.14649100       0.43299547
O        5.48623536       5.83336702       7.44381744
O        7.42140657       4.40109162       4.55779257
O        9.79784951       9.50210840       2.11648956
O        2.02498412       6.52844944      10.88389570
N        7.85460285       8.10744575       1.66344145
O        9.10230696       2.92359714       0.35469217
O        4.25756663       9.05013485      10.17724945
O        7.64167179      10.58124637       1.29840973
Li       5.73718097       4.12183904       3.55547042
Li       1.45708213       7.74472199       5.19851040
Li       2.51069406       8.18176456       9.84697749
Li       9.37890025       6.09298119       1.76260394
Li       4.45940781       6.18942922       1.33778410
P        8.71888355       8.28585245       6.24661274
P        4.07691544       6.51063564       7.33187234
O        8.88502800       3.04149255       9.38977818
N        9.90405718       9.02351017       5.54118103
O        7.84541182       9.23560970       7.09195128
O        2.92270049       5.80111049       6.63679048
O        4.04398791       0.89410051       5.61655332
O        7.60307621       7.21192604       5.56098256
124
Lattice="9.92562 0.0 0.0 0.0 10.6806 0.0 0.0 0.0 12.4552" Properties=species:S:1:pos:R:3 material=LiPON model=NEP89 temperature_K=1200 phase="NVT production" display_name="LiPON｜NEP89｜1200 K｜NVT production計算" report_figures="23_LiPON_lithium_MSD; 24_LiPON_transport_comparison; 25_LiPON_temperature_RDF" source_frame_index=390 relative_time_ps=39.0 pbc="T T T"
Li       9.67342473       7.92287640       0.87523701
Li       6.09576009       2.60770276      10.87262512
Li       4.46143110       9.94521626       7.29366722
Li       1.53208970       2.68192500      11.93235525
Li       9.70094917       3.99842355       7.00800440
Li       2.84369983       3.88160629       6.39558880
P        6.62235458       5.85683481      12.19033611
P        3.42790494       1.64353036       1.10843701
N        2.48590213       4.50656243       3.37991402
O        5.68277097       7.50931496       3.24466241
O        6.91598675       7.17183585       0.24878822
O        5.97895463       9.58220806       8.69029557
O        6.06637923       5.98461528      10.59858986
O        2.40480956       1.31850859       2.42943016
O        0.40193650       6.76734781      11.93768502
O        5.56024287       5.13418973       0.67835672
Li       8.08728938       8.03869464      11.15710940
Li       2.58322642       0.82642822       7.11587025
Li       7.94911759       0.40356167      11.29313736
Li       4.41973205       6.87588476      10.40586722
Li       2.87645073       8.63876256       9.93801468
Li       6.09873435       0.43121066       0.51420028
P        2.64823895       2.80425480       8.92940622
P        1.03078510       4.44575211       4.13728664
O        3.28801952       0.60565923       0.07785610
O        1.05968039       9.25416611       0.29779934
O        1.63365608       2.66427083      10.05284343
O        5.21280484       2.02584394       6.63602653
O        1.93995194       3.54383913       7.85648656
O        1.07090033       3.32667103       5.16390105
O        2.29274619       9.46650883       7.09324249
O        3.12782633       1.32130799       8.62099390
Li       2.89226223       8.92512444       0.34946471
Li       5.23468496       1.82106598       8.71493748
Li       0.37820562       0.00005643       4.48991252
Li       0.00473455       2.29896573       2.72110730
Li       1.28776148      10.47904487       1.64548122
Li       0.38269658       0.89282591       9.03736948
P        4.26053004       8.11314058       2.84481073
P        1.54194791       6.29346203      11.12863023
O        1.05293558       8.90291412       4.79092056
O        7.97087331       4.88049091      11.78228511
O        3.66703677       7.27338484       1.62636240
O        7.35769267       2.30512641      11.93510274
O        3.11748302       8.20265279       3.80143264
O        2.10580073       5.00985738      12.04976551
O        3.17790536       3.10473934       0.63201550
O        4.34823111       9.49643324       2.12236086
Li       3.09448255       9.03139794       5.29287461
Li       1.57841608       6.91188145       6.06738581
Li       3.55018363       5.32684633       0.92714071
Li       5.46027951       5.85630174       2.67744556
Li       6.74771800       6.34887655       5.04664267
Li       3.10151333       0.99283080      10.72556231
P        0.48969524       9.92409411      11.40374279
P        0.84505408       9.23122971       6.37090979
O        1.45798938       6.08576692       9.63148874
O        3.96241237       3.48970984       9.38788353
O        9.50148105       8.91919394      10.68785063
O        5.69035320       4.90444860       6.68728788
O        9.67102356       0.52490872      11.73866979
O        9.79022438      10.37289098       6.66882463
O        3.72284108       4.83131328       2.86769129
O        1.73722600      10.20144743      10.43501769
Li       8.83813796       1.06606722       0.97656717
Li       5.65450656       0.38630986       2.79084303
Li       5.91778581       9.10504481       4.58991764
Li       0.95566242       4.85508202       1.10701169
Li       2.45586575       6.47730692       3.68099771
Li       2.90845480       2.73433280       3.82735189
P        8.19095819       4.20267632       3.05637976
P        5.69889014       9.89239270      10.20970723
O        5.27943573       1.77381310       4.22572391
O        9.03313237       8.45540458       2.85543635
O        4.87266346       1.62511044       1.65590489
N        9.76362249       4.32645584       2.97644995
O        6.81768974       9.73267212      11.34387372
O        7.45180772       3.61959359       1.65626798
O        8.05370068       3.13844241       4.10911634
Li       6.21827763       7.98259465       7.90121364
Li       7.33120901       1.55396824       4.77416436
Li       9.68237928       2.34440154      11.18264034
Li       2.42563999       5.31750573       8.16194763
Li       3.41202883       4.22439212      11.11991376
Li       0.28125352       7.68612520       9.47105844
P        8.01855713       2.45816348       8.78838183
P        4.63368839       1.19838456       5.50633716
O        4.74749304       8.70484068      10.64841854
O        8.11399324       7.77163853       8.38388307
O        8.02179832       0.95517445       9.28854659
O        0.79434359       5.87408024       4.66386677
N        8.72714234       2.45085513       7.30622917
O        4.76236812      10.34382796       5.45880055
O        4.20212920       6.07703940       8.68793887
O        8.92489049       3.41027512       9.61059255
Li       0.61029219       4.46777192       9.28615977
Li       6.67410441       3.27413792       6.76202676
Li       5.56989078       3.31505430       2.28627976
Li       5.33453460       4.60540800       9.41060047
Li       8.49939523       9.64062252       8.63309080
Li       9.54222103       1.78224761       5.73472786
P        8.46389669       9.92981653       2.94799862
P        8.18612592       3.42623108       0.13464268
O        5.22309361       7.27153618       6.58773365
O        7.49033710       5.55405992       3.40272629
O        9.62763855       0.34331949       2.71023265
O        2.64053443       7.28855327      11.46977711
N        7.35526085       9.98372956       1.64588839
O        9.65584115       3.09442188       0.39031370
O        5.23820696       0.70110284      10.47222227
O        7.56055651      10.45023874       4.29014104
Li       7.42554910       7.26595491       2.37485695
Li       1.29915187       8.59049529       3.13748823
Li       8.19365286       5.30932623       9.22652864
Li       9.26081349       7.56975178       4.35322445
Li       6.01657858       8.92746464       0.39517717
P        8.72277168       7.14061997       7.08781718
P        4.67516963       5.92346167       7.10172153
O        6.53353231       3.09509733       8.85756518
N        0.15764965       7.80170548       6.87871037
O        7.92199557       7.60813353       5.88074648
O        3.28055965       5.98442291       6.45225834
O        3.13868148       1.43545596       5.40850136
O        8.96962048       5.59932623       7.46974068
124
Lattice="9.92562 0.0 0.0 0.0 10.6806 0.0 0.0 0.0 12.4552" Properties=species:S:1:pos:R:3 material=LiPON model=NEP89 temperature_K=1200 phase="NVT production" display_name="LiPON｜NEP89｜1200 K｜NVT production計算" report_figures="23_LiPON_lithium_MSD; 24_LiPON_transport_comparison; 25_LiPON_temperature_RDF" source_frame_index=420 relative_time_ps=42.0 pbc="T T T"
Li       9.30394269       8.23946318       0.68923763
Li       6.38607537       1.29669944       8.50240266
Li       3.70836757       9.28856763       5.88256371
Li       3.33286170       4.55864732       1.77160306
Li       6.84853125       6.64484735       6.96393153
Li       3.32471274       3.28552081       6.30756364
P        6.36929917       5.22271857      12.08103322
P        3.28311544       1.23890061       1.59126448
N        2.65115834       4.50468969       3.43875926
O        4.51467248       6.79726492       3.53933301
O        7.24700322       5.97792803       0.51621532
O        6.79320026       9.98728549       9.21335586
O        6.09447246       6.06827875      10.83542042
O        2.31895444       1.10079109       2.75472139
O        0.38229901       6.48304264       0.38806442
O        5.22181390       4.42530093       0.42722895
Li       7.05018168       7.56881697      10.15269661
Li       3.51454880       0.50785240       7.91147388
Li       0.14932283       2.08034727       9.66964299
Li       4.79692817       7.15128526      11.35649930
Li       1.84531275      10.35604714       8.69562548
Li       2.35151857      10.15796290       3.57855045
P        2.29762870       2.97892755       9.04875698
P        1.23837305       4.52434660       4.16580457
O        3.24812760       0.01502279       0.54184085
O        0.56365334       0.30430383      12.10429033
O        1.11699270       3.51370544       9.89648036
O        5.17870864       2.94119673       5.94674030
O        2.17472515       3.83199049       7.60559074
O        1.41234001       3.39642145       5.23614350
O        2.22804539      10.16703553       6.72699145
O        2.08951813       1.46082076       8.83427328
Li       2.85225263       8.70942546       0.74828012
Li       9.65215384       6.98349927       9.64714687
Li       0.26552083       0.94322353       3.77231703
Li       1.14824256       3.20623126       1.90007528
Li       1.23704129       0.07706725       1.37516522
Li       0.06239300       4.28015881      11.13739826
P        3.92662587       8.15620014       2.89978290
P        1.58962185       6.13822944      11.85557206
O        0.97544309       9.28482921       4.77786609
O        7.36882842       4.00349754      11.57878838
O        2.35199524       8.07802409       2.71786364
O        8.00762005       1.56139342      12.24385002
O        4.42967297       9.18392942       3.94525619
O        2.29333425       4.81310276      12.33752129
O        2.79311995       2.45143953       0.80882166
O        4.60111479       8.62896917       1.56975372
Li       1.83411143       7.51897333       4.43609205
Li       8.94536619       7.73608063       4.24051840
Li       5.67515008       3.04043247       1.84796603
Li       8.30386394      10.48895127      12.41596457
Li       8.22533883      10.60285649       5.74926508
Li       1.00955525       2.15306359      11.91230182
P        0.24608518       9.98800765      10.89250917
P        0.83556183       9.92156859       6.16782117
O        1.12767222       6.04402534      10.32378908
O        3.51084225       3.32517163       9.82897334
O        9.70768443       0.15306412       9.76171769
O        3.38220237       7.41835940       6.16204078
O        1.42284090       9.22020299      10.23315351
O        0.03174411       0.65288214       5.99906994
O        3.93983946       4.32101545       3.54244546
O        9.02363534       9.01378162      11.42355916
Li       6.16876208       8.30489843       0.75530645
Li       7.62101924       0.91472870       3.39457794
Li       6.16848159       8.42730133       4.98264864
Li       3.23117700       3.54357111      11.69572314
Li       4.75016597       5.73799095       4.81486155
Li       3.32167601       2.39972115       4.07666445
P        8.53771626       3.73086660       3.40016177
P        5.59471695       9.86155499      10.17184102
O        6.45345552       1.05146758       4.93702999
O        8.49538878       7.68322077       2.33399266
O        4.69296586       1.33450712       2.39430534
N        9.86751663       4.53756119       2.99309929
O        5.83645870       8.62788209      11.00250310
O        7.72939540       3.55491798       1.99699673
O        9.06135112       2.34209945       3.77743629
Li       5.99964812       9.96360256       7.37801462
Li       5.19077946       4.19938103       7.62101077
Li       3.00765886      10.62889950      11.18132736
Li       2.37178757       6.09285411       7.10914003
Li       7.25576952       3.51220314       5.60625897
Li       0.53063070       4.83573767       8.94091893
P        7.84157953       3.74380569       8.40368567
P        5.27202543       1.46528198       5.80796038
O        4.16234070       9.99102462       9.61652944
O        7.96710349       7.50245879       8.20384774
O        7.88687673       4.66448910       7.00728939
O        1.25041183       5.88995200       4.77056152
N        8.70195829       2.49123590       7.87659126
O        5.46368317       0.88193524       7.19522894
O        5.18999387       5.78119242       6.56773302
O        6.47141188       3.42790141       8.68297931
Li       4.86033201       2.01577283      11.19948005
Li       5.94033359       6.30642440       2.38751164
Li       5.19843635      10.57808548       0.63433582
Li       2.55899593       7.83996279       9.50808079
Li       8.47455749       9.88693901       8.69708326
Li       9.83573598       2.54185002       6.03389854
P        8.23546570       9.30236927       2.67246574
P        8.12085880       3.03106995       0.16706070
O        5.52803687       8.24021495       6.65179980
O        7.60254824       4.63796107       4.23881653
O        9.50852521       9.97546315       2.57354866
O        2.81190785       7.12426892      11.80859663
N        7.36404750       9.70854682       1.50903747
O        9.64403955       3.31709959       0.20325432
O        5.83870611       0.24119966      11.25157986
O        7.58256622       9.39707957       4.01950245
Li       9.00624104       5.97540222       1.61182386
Li       1.74447635       6.58733444       1.60169852
Li       4.59991905       5.62646676       9.40403869
Li       9.02498394       5.25870093       5.80839217
Li       5.28464458      10.58024932       3.32786229
P        9.19201182       7.57766842       7.21933889
P        4.52317402       7.11779837       6.98125338
O        8.64200614       4.39064154       9.53281699
N        0.05567799       8.93748821       7.16951509
O        8.30484198       7.34845451       5.90522219
O        4.20625843       7.15795957       8.48490970
O        3.84619046       1.18035435       5.40438494
O        0.54384482       6.72500287       7.58804315
124
Lattice="9.92562 0.0 0.0 0.0 10.6806 0.0 0.0 0.0 12.4552" Properties=species:S:1:pos:R:3 material=LiPON model=NEP89 temperature_K=1200 phase="NVT production" display_name="LiPON｜NEP89｜1200 K｜NVT production計算" report_figures="23_LiPON_lithium_MSD; 24_LiPON_transport_comparison; 25_LiPON_temperature_RDF" source_frame_index=450 relative_time_ps=45.0 pbc="T T T"
Li       9.33851844       7.43125816      12.45458106
Li       7.22105628       0.29419100       7.55363775
Li       3.35139375       0.22101465       8.76247752
Li       0.36553079       7.15995231       2.52328133
Li       6.58826926       5.96317183       7.62406923
Li       2.99124463       1.01401487       6.68980967
P        6.88962179       5.16769857      11.20019802
P        3.08318786       0.87013388       1.70401311
N        2.09928449       3.98535395       4.53426417
O        5.73655294       7.77385168       4.32302598
O        7.13248619       6.41805953      12.17989388
O        6.33874390       0.27205106       9.45413603
O        6.44424056       5.73574463       9.86569716
O        1.99833449       1.73739893       2.68952947
O        1.44596149       7.51088573       0.93185790
O        5.75738674       4.43865370      11.65848483
Li       1.67018126       8.16403242       8.15849716
Li       0.69938288       1.12256128       8.36739843
Li       8.10379372       1.53228568       9.71739581
Li       5.09078866       7.22427158      10.68189267
Li       0.73301662       1.48532363       0.02292221
Li       5.01014303      10.08204556       3.58249398
P        3.04471082       3.00638688       8.74683615
P        0.42824291       4.60288108       4.34197027
O        4.53670290       0.87143881       2.09604164
O        0.82202365      10.44192265      11.85929357
O        2.75636400       1.83103227       9.81414103
O        4.83853594       1.15725281       7.34423480
O        2.28661013       4.24847967       9.46588679
O        0.02324098       4.30587975       5.85748344
O        1.63526372      10.62726024       7.39021668
O        2.54907460       2.80127136       7.30972028
Li       3.29173320       8.40856815       1.00310247
Li       7.61949097       7.50600736      10.45370016
Li       0.76000512       2.07301173       3.79771864
Li       1.95908806       3.55478096       1.33649739
Li       3.09551498       8.31780974      10.29405401
Li       2.29893185       3.48611708      11.53067320
P        4.89722196       7.52847418       3.13648816
P        2.18365044       6.42679951      12.43657052
O        1.67580678       9.27213646       5.32266643
O        8.37619356       4.46177002      11.31266192
O        5.14786672       6.16444115       2.50168242
O        8.71950920       1.78121952      11.72723091
O        3.36530308       7.69546733       3.31314418
O        2.67142946       5.01899363       0.58669498
O        2.52902689      10.22201451       1.44664910
O        5.31131751       8.50974175       1.91205349
Li       2.08904323       9.84727537       3.40053695
Li       5.75025742       5.00494031       4.59449342
Li       5.67259533      10.36817116       1.26993963
Li       8.56962987      10.48239009      12.00211224
Li       7.81315043       0.76379564       4.54083569
Li       2.44413133       0.82874695      11.29727268
P        0.20082913       9.68911461      10.51485043
P        0.76397668       9.97480847       6.24813476
O        1.23095493       6.20543090      11.23534429
O        4.43470608       3.43788869       8.87998749
O        9.48941979      10.67994990       9.46569417
O        2.28535336       6.53484923       7.59873802
O        1.39781890       8.89800103       9.99199725
O        0.00966896       0.58913306       5.76998566
O        3.42250368       3.90658452       4.43043892
O        9.02017811       8.62713141      10.99202284
Li       6.43589445       8.41424223       0.39103359
Li       7.34211070       6.04723086       1.43100416
Li       6.56556150       8.70648894       5.73124073
Li       4.47290126       5.47975293       0.75504832
Li       3.93014834       8.54694131       5.33295788
Li       3.45370483       2.14837770       4.36610599
P        8.39151295       3.40122400       2.82306801
P        5.54390998      10.28068779      10.64374341
O        5.58869658       2.55953555       5.37955410
O        8.44980043       7.70515614       2.02655926
O        2.77170434       1.78708469       0.43989926
N        9.90045007       3.79700908       3.16366015
O        6.42172096       8.85517249      10.75420461
O        7.99384435       3.54843058       1.25981237
O        8.45921737       2.02141529       3.22528040
Li       5.76861230       9.16160024       8.29431017
Li       5.02745898       3.54589828       6.94901122
Li       5.58123069       2.03531799       9.37461182
Li       0.88533698       5.07819538       7.64703402
Li       1.27824918       7.44537817       4.82489257
Li       0.51285845       4.79272750      10.50643181
P        8.15798015       3.81878299       8.23326778
P        5.24572140       1.20480610       5.86580027
O        3.98528018       9.96968826      10.35983158
O        7.42463589       9.25028987       7.50961657
O        7.36381858       4.53433636       7.05169734
O        0.72265254       6.13820422       3.95151276
N        8.79452221       2.55144012       7.36372502
O        6.34271379       0.09472718       5.58099565
O        4.72382953       5.63885706       6.91432375
O        7.13247666       3.02114761       9.07136680
Li       4.79607082       2.05131538       0.06871249
Li       7.95965586       7.54969482       4.18088985
Li       5.95958122       2.90018917       3.15979111
Li       2.28097457       6.24910117       9.86544115
Li       7.75079281       9.70990465       9.44755914
Li       0.53497604       2.53474223       6.47662685
P        8.56345109       9.14701378       2.46470078
P        8.80857961       3.23133125      12.30351983
O        4.44578350       8.14912876       7.30427181
O        7.16272607       4.28591608       3.47470088
O        0.19178949       9.36042071       2.37000830
O        3.60104493       7.11813903      11.91838004
N        7.93554625      10.16975443       1.47928665
O        0.45890343       3.35800630      12.15158860
O        5.71873995       0.51568890      11.95296563
O        7.61938171       9.51551350       3.68211121
Li       9.92111223       7.06726915       9.88121333
Li       2.98497064       5.65977080       3.36331029
Li       4.32041607       4.98233263       9.78902840
Li       8.29306584       5.41868846       5.46586484
Li       1.13776010       9.53236402       1.00764699
P        8.39051750       8.10524039       7.25037127
P        3.77853775       6.82990916       7.61970555
O        9.41962917       4.50028212       8.93420637
N        9.64157001       8.89068513       6.64005182
O        7.97107222       7.20506326       6.09236644
O        3.94309568       6.64551331       9.31362534
O        3.97864024       0.64740976       5.13371353
O        8.96411477       7.23662140       8.33368345
124
Lattice="9.92562 0.0 0.0 0.0 10.6806 0.0 0.0 0.0 12.4552" Properties=species:S:1:pos:R:3 material=LiPON model=NEP89 temperature_K=1200 phase="NVT production" display_name="LiPON｜NEP89｜1200 K｜NVT production計算" report_figures="23_LiPON_lithium_MSD; 24_LiPON_transport_comparison; 25_LiPON_temperature_RDF" source_frame_index=480 relative_time_ps=48.0 pbc="T T T"
Li       5.64213072      10.03923693       0.95072980
Li       7.50073754       9.94752964       4.75960780
Li       6.21767424       2.46898727       9.71567770
Li       9.37072371       6.00917743       1.36011269
Li       4.76227671       4.99397047       1.99552329
Li       5.34948252       3.76828192       8.19470984
P        7.15135740       5.97945919      11.76614956
P        3.65753425       1.20158806       1.40492471
N        2.36965232       4.64749505       4.66243897
O        6.08008128       6.51366775       3.67829314
O        7.88913023       6.63408748       0.47138424
O        6.12771428       9.81421422       8.98992907
O        7.14573957       6.79596948      10.34135415
O        2.82184480       2.00187415       2.45464769
O        1.44395073       6.30693553       1.96717309
O        5.74506328       5.43575366      12.09730220
Li       3.86656847       9.65123637       7.80320005
Li       1.37756618       0.88837856       6.41965282
Li       0.21534389       1.95056866       1.90473353
Li       3.28606339       9.44641643      12.18474826
Li       1.09388807       9.92339656       0.58964246
Li       3.51573302       8.46308098       5.51901354
P        2.59740369       3.43449180       9.43778125
P        1.22607293       3.51505317       4.71808599
O        5.14755018       1.33227468       1.63719400
O        1.52788219      10.31487260      11.30685574
O        2.30424258       3.25179009       7.98008593
O        6.73544816       0.64690186       6.00184685
O        1.43999179       2.73620210      10.36600263
O        1.76439211       2.34113224       5.54878706
O        1.83686580       9.14201352       6.54648923
O        2.36164933       4.89640548       9.93823450
Li       3.06019578       1.20244210      10.55700282
Li       5.44578305       2.54843083      12.13127438
Li       8.71066939       1.68229273       4.23582681
Li       0.60272262       4.40254534      10.84286210
Li       5.51967285       7.82032639       9.83791641
Li       0.76286072       1.54608642      11.54320053
P        5.26725986       7.81091087       3.57351976
P        1.98985664       6.30008687       0.57617546
O        1.58018865       9.35199459       4.12432857
O        8.09402066       4.50440385      11.46954895
O        5.27143355       8.22667285       2.13496175
O        6.96224646       3.02763152       0.68700989
O        3.79782516       7.29620593       3.93826368
O        3.06092499       5.08430961       0.59434572
O        3.23911099      10.25630206       1.38027238
O        5.72159350       8.94079238       4.57354375
Li       2.11473433       0.12930700       2.76193579
Li       1.73611673       8.24062522       8.09838625
Li       8.39099537       8.47788685      11.92677506
Li       5.10653046      10.50269674       3.78129086
Li       6.35455446       2.02487779       2.61546562
Li       7.74014672       0.29224969       7.79707639
P        0.63925117       9.78097396      10.11949340
P        0.73451211       9.31146851       5.48005140
O        0.83005363       6.07171368      11.95886199
O        4.07284297       3.29379479       9.80413561
O        1.04138889       0.07860803       8.97581458
O        2.38793616       6.57432912       7.52208436
O        0.70585834       8.23646270       9.56154666
O        9.86037407      10.53902145       5.40245464
O        3.58366616       4.73122875       4.78627499
O        9.15097290       9.92244977      10.80769306
Li       7.58996108       7.09218677       2.64052222
Li       4.90060797       7.09718210       0.43177982
Li       2.60891493       6.14242605       3.37763733
Li       2.07677712       3.63369019       1.95636192
Li       5.08928678       6.06976649       5.51998175
Li       3.39659839       2.08220427       4.68588510
P        9.07770988       4.06096855       2.81580649
P        5.27787246      10.42266418      10.18590806
O        4.82917924       2.36822653       7.00183297
O        8.82573129       8.57924635       2.65698463
O        3.26481138       1.64691823      12.39616375
N        0.62260000       3.37186292       3.26338113
O        5.24131940       9.37600233      11.37530135
O        9.30235603       4.04467309       1.19194374
O        7.94271839       3.19313734       3.20331250
Li       6.06126957       8.89602786       6.32783716
Li       1.29498057       6.73306543       5.94290081
Li       3.81897376       1.20550895       8.20285788
Li       1.20133948       4.85575092       7.48605078
Li       9.35582970       6.57589060       9.51633585
Li       0.26377764       2.25674179       9.13458115
P        8.29574991       3.84768681       8.12478626
P        5.24253563       1.07070458       5.96691594
O        3.79422986      10.52355769       9.60560028
O        9.35527285       7.29111185       7.68238340
O        7.71411914       3.97377584       6.68157270
O        0.16576117       4.32019024       5.58688078
N        8.44289248       2.15070518       8.27581733
O        4.96867378       1.76774637       4.49367357
O        4.68164280       5.52874262       7.64099173
O        7.06610238       4.10756683       9.07159261
Li       7.54046785       0.73798728      12.02397041
Li       0.27262217       7.37170281       3.56011390
Li       3.36333976       3.50416435       6.56228179
Li       1.83654065       6.49547982      10.41559966
Li       6.47249304       5.86312302       8.54647307
Li       8.62066396       5.16737388       4.87045164
P        8.55778288      10.02230606       2.17115544
P        8.24677985       3.35857825       0.07412825
O        4.57552744       8.07572769       7.31021470
O        8.71603542       5.53648495       3.04360730
O        9.88295604       0.23003516       2.18795507
O        2.83155679       7.58432707       0.27149056
N        7.92721592       9.83733770       0.76524155
O        9.18075944       2.29552199      11.80338472
O        5.75874801       1.05900581      10.81305589
O        7.34635253      10.62728956       3.07823720
Li       7.71980003       9.29630042       9.67993908
Li       3.28678516       8.39866447       2.34914533
Li       4.28306973       4.97384980      10.57722964
Li       7.14025491       2.55750830       5.41281823
Li       3.26675781       3.43598981      11.58148663
P        8.51191506       7.73624125       6.41919404
P        3.91450044       6.77785504       7.90647129
O        9.72403777       4.24915159       8.44493373
N        9.75901392       7.87822864       5.56621433
O        7.92981992       9.14456212       6.70670924
O        3.88399971       7.17068132       9.41168861
O        4.32202151      10.66908396       6.50335285
O        7.39915996       6.77087976       5.97385685
124
Lattice="9.92562 0.0 0.0 0.0 10.6806 0.0 0.0 0.0 12.4552" Properties=species:S:1:pos:R:3 material=LiPON model=NEP89 temperature_K=1200 phase="NVT production" display_name="LiPON｜NEP89｜1200 K｜NVT production計算" report_figures="23_LiPON_lithium_MSD; 24_LiPON_transport_comparison; 25_LiPON_temperature_RDF" source_frame_index=510 relative_time_ps=51.0 pbc="T T T"
Li       5.49258434      10.50232040       2.42205792
Li       7.82083633       9.50032161       4.32885307
Li       0.97153573       2.12904679       9.94609910
Li       9.71542789       6.20066815       0.69761088
Li       8.45045804       0.92052889       3.74258828
Li       1.53008751       8.39604365      12.30765450
P        6.83057325       5.52972891      11.56688785
P        2.86495934       1.23555661       1.71687672
N        2.43944502       4.85986361       3.76686993
O        5.31345540       6.37483864       2.82115254
O        6.04712886       6.73199837      12.09997377
O        4.95032573       0.13498256       9.21635622
O        7.56448016       5.94899118      10.36733975
O        1.83433742       1.47453689       2.78311286
O        1.47556786       5.07577982      12.44859020
O        5.85559699       4.26432292      11.47823320
Li       2.28610633       9.47345553       3.16895880
Li       0.94508635       3.42454416       6.28121297
Li       0.89151275       1.93081070       4.19065304
Li       4.26846159       9.25584970       0.51537310
Li       2.89040345       0.48985383      11.66499780
Li       2.11140007       7.07792721       1.81861156
P        3.47697841       2.78484549       8.23985166
P        1.19874421       5.93401027       4.12134531
O        4.24965179       1.18133671       2.35757936
O        0.25304265       0.60323798       9.08254130
O        3.67143269       1.43295164       7.56160684
O        6.59236226       0.40188757       4.16734376
O        2.71972883       2.42889423       9.66839967
O        1.64655735       7.02081062       5.15296475
O        1.15569664       1.18296639       6.21098883
O        2.58269523       3.48095474       7.11905179
Li       2.07841814       0.45353920       8.52113453
Li       5.50741719       2.05171253       0.91434267
Li       7.13293364       2.88531795       6.31252429
Li       9.69396056       3.42377944      11.48164638
Li       4.46439919       7.41223466      10.82270956
Li       8.09526426       0.37709593       8.43399800
P        4.90757326       7.90600240       2.93024404
P        2.34340650       6.06391426      11.63696416
O        1.94503019       9.81021527       7.28345811
O        7.90209890       5.01197792       0.34331487
O        5.48424155       8.86970739       1.87325215
O        6.74584827       3.32677134       2.08634650
O        3.29850835       7.93764904       3.00007484
O        3.37693597       5.28016366      10.79479542
O        2.75547764      10.48848210       1.22495386
O        5.56785676       8.36063190       4.30249210
Li       8.40555802       7.89772966      11.28600576
Li       1.79098244       4.54060766       8.63097055
Li       6.94805315       9.41836314       0.67866765
Li       5.71039050       3.01209996       3.47225769
Li       6.45553781       6.89291584       5.37182221
Li       6.41177206       2.32058447      10.56218879
P        0.43155458      10.65901599      10.55515274
P        1.08514475      10.27905642       6.11931986
O        1.45816002       6.94438194      10.61570183
O        4.75741249       3.67580061       8.37635310
O        1.75110448       9.87241998      10.38301661
O        4.75134473       5.91991505       6.26736696
O        0.66582993       0.85159627      11.71164159
O        1.70332309      10.00718292       4.79453340
O        3.39678474       4.05920641       3.48073897
O        9.08030258       9.97822163      10.80464389
Li       4.10588194       5.85901551       4.46057175
Li       5.20690083       5.92670849       0.98128149
Li       5.75013058       4.90071172       7.49273756
Li       1.60897027       4.09884634       1.65203355
Li       6.74366507       9.52026334       6.63593308
Li       3.33890256       1.87487952       5.80774062
P        9.08418474       3.99780081       4.14058969
P        5.44274439      10.44487986      10.64714901
O        6.63660941       0.85166928       6.52421215
O        8.51356949       8.34521191       3.11849481
O        2.63304951       2.14818888       0.50370418
N        0.39979900       4.75008657       4.93197453
O        6.47375594       9.37709911      10.70052534
O        9.12806653       3.86002959       2.43467217
O        8.89821711       2.55210916       4.82657106
Li       5.98510189       8.67864973       8.86201598
Li       3.96608039       8.80485382       5.34744213
Li       3.95698643      10.20174455       7.88375167
Li       9.68336791       1.20275736       7.45922838
Li       1.50927117       8.45633919       8.77862861
Li       5.73031665       1.54194399       8.19721159
P        8.37027808       3.58326856       8.46526398
P        5.62920269       0.74728428       5.34457269
O        4.20037881       9.87353613      11.29330268
O        0.10581677       7.45428349       7.68160344
O        7.78819567       4.79086157       7.73151782
O        0.88526613       6.06692734       2.68991037
N        8.92334815       2.93768213       7.20899998
O        5.30803091       2.30708468       5.15586737
O        5.25470282       6.40006198       8.70747271
O        7.37367297       2.55895515       9.03505336
Li       7.92445083       0.38429345      11.73007709
Li       7.51357710       6.29333633       3.06321964
Li       3.19906882       4.90861801       6.24944644
Li       9.27869713       6.18572945       5.82986951
Li       9.74599672       6.01247770       9.50581530
Li       0.61751186       8.33199423       4.60181725
P        9.09198415       9.00414323       1.94420999
P        7.99453752       3.62002590       1.22043857
O        4.71871292       8.21302335       7.17759428
O        8.01758863       5.12997108       4.37740550
O        0.71765562       8.81521482       1.88231508
O        3.16494273       6.88476494       0.25418251
N        8.54084235       8.22038172       0.60638809
O        8.33381046       2.45172619       0.33209713
O        5.82555501       0.93791065      11.55485756
O        8.69933776      10.50397442       1.68346597
Li       7.23239390       6.51457112       8.02058599
Li       1.66929911       7.44239574       6.84409645
Li       3.02144196       3.38696222      11.59035700
Li       4.75074200       4.55700425      10.01926510
Li       9.68168161       1.52515094       0.97659085
P        9.07262548       8.42614603       6.97473932
P        4.30670031       6.82695976       7.58944205
O        9.61707144       3.92804212       9.33275716
N        9.60184100       9.70603365       6.09019342
O        7.96462262       8.98224139       8.05281815
O        2.78143501       6.56628029       7.77662378
O        4.25734331       0.10607699       5.55742238
O        8.22919581       7.59922936       5.82196956
124
Lattice="9.92562 0.0 0.0 0.0 10.6806 0.0 0.0 0.0 12.4552" Properties=species:S:1:pos:R:3 material=LiPON model=NEP89 temperature_K=1200 phase="NVT production" display_name="LiPON｜NEP89｜1200 K｜NVT production計算" report_figures="23_LiPON_lithium_MSD; 24_LiPON_transport_comparison; 25_LiPON_temperature_RDF" source_frame_index=540 relative_time_ps=54.0 pbc="T T T"
Li       7.97751368       0.02969958      12.44275711
Li       7.25957265       9.75995469       4.44547536
Li       1.83474018       3.15187937      10.78834723
Li       0.70956212       8.64456817       0.19927765
Li       7.98622402       0.91617277       3.43077218
Li       3.51960311       7.88085366      10.32758574
P        5.84370999       5.24362199      12.11632026
P        2.64572350       1.54213499       1.54503578
N        1.84621306       4.24606692       4.70285804
O        5.30892570       7.59075051       3.43276479
O        5.90865423       6.17869587       0.87356219
O        5.37313653      10.27139891       9.49658045
O        7.06739134       5.74826766      11.19943326
O        1.32360316       2.05724239       2.20336915
O        2.04438258       7.29582941      12.39601597
O        4.57379276       5.39679899      11.49357345
Li       1.99558389       9.47907049       2.48246675
Li       7.02865773       7.66738131      10.50465749
Li       0.08702922       2.18258519       3.95844919
Li       3.27486713       9.60267617      12.21872843
Li       3.09349634       1.00441880      11.37099342
Li       3.85338033       6.78626330       0.40419006
P        3.26866440       2.89289929       8.61835981
P        1.87912417       5.36554617       3.37285270
O        2.45765912       0.03880382       0.94846081
O        0.56030880       9.64448518       9.13104454
O        3.42752642       1.20398574       8.71726844
O        6.36229098       0.74598348       4.52549517
O        3.44406117       3.35611770      10.15132696
O        1.93184028       6.53394042       4.24694006
O        9.37498452       0.54238886       5.07168828
O        2.04793197       3.15975832       7.71444914
Li       3.32450985       9.82459624       9.04282357
Li       5.19853727       2.18650814       0.74569905
Li       6.83345332       6.30614244       5.95839754
Li       4.45629096       5.84888036       3.30886453
Li       1.84729863       4.90413613       9.00091248
Li       5.59967058       2.19049385       8.28478707
P        4.55622618       8.81906790       2.72770562
P        1.25274168       6.35964242      11.33149289
O        1.22788806       0.24082311       6.54611811
O        6.33542573       3.76957368       0.06590668
O        5.48035839       9.98353841       2.39300870
O        6.84524322       2.48646950       2.13041435
O        3.89922894       8.28056561       1.42283679
O        1.38437924       4.87195114      11.86051305
O        2.96147508       2.31393617       0.18359720
O        3.38908917       9.17601880       3.73580343
Li       7.96799492       0.28790846       7.70672213
Li       3.32314820       4.02216843       0.27657002
Li       0.69093124       3.98996647       1.28987392
Li       6.64472190       4.15109106       3.82794812
Li       8.29743955       6.47722321       0.00174136
Li       9.40901527       2.09585204      10.59380811
P        1.05979502      10.39312498      10.40094541
P        0.10728879      10.10923854       5.94811979
O        9.72163758       6.88134106      11.37730783
O        4.57304714       3.46352429       7.99278412
O        2.41835997       9.56459086      10.64148462
O        4.69035445       6.17692465       6.28565071
O        1.16372218       1.21393855      10.38759193
O        0.68946655       8.82327912       5.18450451
O        1.35795025       3.26616595       5.21606169
O        9.88619581      10.19731636      11.59324481
Li       4.87816884       8.15379401       5.21121593
Li       6.88981058       6.95269953       2.93573362
Li       6.34273010       4.18888870       7.07055846
Li       5.76686011       1.14412928       2.54954664
Li       0.77442858       1.53766181       8.44057319
Li       3.97543472       0.05580392       4.11934318
P        8.95245972       4.74579323       2.99687368
P        5.70030467       9.93371449      10.92749131
O        4.16116871       1.08562153       5.80897680
O        7.63852216       8.83845057       3.14579913
O        3.86424675       1.77889624       2.44198099
N        0.48033290       5.23524801       2.65261091
O        7.36266085      10.14956413      10.83950166
O        8.34767054       4.51627839       1.47542704
O        8.92606464       3.38049092       3.66559253
Li       2.19564479       1.72617464       5.95445348
Li       2.29872080       8.24648398       5.11068552
Li       5.97260734       9.09377690       7.93164207
Li       8.38371404       2.69316367       5.58372315
Li       1.45503087       7.86137865       8.70352460
Li       8.77593496       9.82401179       9.88527314
P        8.31545304       3.26883059       8.48970707
P        5.74263644       1.51596582       5.73096490
O        5.43573220       8.38689783      11.22464166
O        8.50101778       7.02850553       6.52306876
O        6.91611468       3.60946848       9.01096731
O        3.03918959       5.42017504       2.33815163
N        8.42345593       3.89673949       7.00213494
O        6.43575726       1.14685182       7.03067016
O        4.47157885       6.63581243       8.74701186
O        8.95328351       1.78964796       8.63430792
Li       5.90235766       8.18534822       0.66242382
Li       8.69938510       7.58176729       4.41759208
Li       3.40641553       4.19996142       6.13192140
Li       8.91676175       4.35129313      11.34954731
Li       0.64589238       6.13397832       5.88202865
Li       1.07462953       6.91108667       1.63090584
P        8.67558554       9.30258392       2.08979223
P        7.60054796       3.12166793       0.99368371
O        4.05636262       8.51742276       7.33895050
O        8.00684600       5.76861112       3.58397029
O        0.30497299       9.12885422       2.38242074
O        1.91711003       6.41943944       9.98407876
N        8.30038805       8.24711641       0.93610538
O        8.40110464       2.38222163       0.02868594
O        5.12494551       0.06701084      12.07786306
O        8.66014504      10.67545430       1.84577413
Li       4.86716933       5.00777471       9.60121916
Li       4.29402937      10.56584299       7.36164253
Li       6.96240228       1.09858636       9.56658436
Li       8.51990936       6.50843317       9.20868321
Li       0.31935663       1.09432233       0.67595337
P        8.17809569       8.59455706       6.97635749
P        3.83415934       6.82754537       7.44491824
O        9.23971607       4.22018127       9.29198333
N        9.20919757       9.79505666       7.24929417
O        7.65226462       8.33878034       8.51434185
O        2.26724205       6.45444317       7.35371945
O        5.88382000       3.15001481       5.47703101
O        6.93988255       9.12845703       6.21691457
124
Lattice="9.92562 0.0 0.0 0.0 10.6806 0.0 0.0 0.0 12.4552" Properties=species:S:1:pos:R:3 material=LiPON model=NEP89 temperature_K=1200 phase="NVT production" display_name="LiPON｜NEP89｜1200 K｜NVT production計算" report_figures="23_LiPON_lithium_MSD; 24_LiPON_transport_comparison; 25_LiPON_temperature_RDF" source_frame_index=570 relative_time_ps=57.0 pbc="T T T"
Li       7.17796707       3.03635181       9.46408901
Li       8.05795688       9.86237218       5.14891880
Li       4.18747484       3.36125753       0.40782581
Li       2.49883240       9.21588238       0.78220197
Li       1.76766573      10.12130312       3.55870686
Li       3.56169069       5.87067063       9.43832978
P        6.30747530       5.50262546      12.01880856
P        2.31610087       1.66499178       1.90175445
N        1.69798223       3.74958385       5.12440213
O        5.36296605       7.59218322       3.28108947
O        4.88885971       5.47790939       0.14434692
O        5.54520812      10.11903766       8.87267726
O        6.83058556       6.78564695       0.27019981
O        0.87505983       1.64043557       2.36436163
O        1.77341940       7.78373093      12.06808764
O        6.36560701       5.80068394      10.62163217
Li       2.01519747       7.28282765       5.52067014
Li       6.77171993       6.19838087       6.31322672
Li       2.01508292       7.18778222       2.85749471
Li       2.19893771       9.03934584      10.38055291
Li       1.12341410       0.52976659       8.70482728
Li       9.38435496       6.70830641       1.02485107
P        3.73793444       2.94733646       9.72829540
P        1.41331131       4.90344275       3.98021585
O        2.93895802       0.48839317       1.01640560
O        8.93785954       0.60061725       9.69200927
O        3.25571531       2.03567280       8.49129822
O        6.92122980       0.44986718       4.31569507
O        3.65301414       2.28893927      11.12742362
O        0.89884350       6.20861442       4.64620836
O        9.86188478       0.62874165       4.96221704
O        2.88331616       4.18559284       9.68376104
Li       3.55837418       0.09598065       7.39160281
Li       4.80122430       0.47221460       0.39088691
Li       7.11173509       7.56939385       4.30012947
Li       4.45105366       6.29497004       4.02219620
Li       2.06535916       3.56834789       8.07725355
Li       5.54388016       1.34579945       8.42704786
P        4.43691911       8.42264798       2.41305162
P        1.37225634       6.43172682      11.61097170
O        1.61146644       0.16982385       6.97874929
O        7.23199982       4.23497076      12.34999538
O        3.62694880       9.16070462       3.60521288
O        5.87943372       2.68277356       1.41049093
O        5.40676848       9.37934246       1.42599005
O        1.95470745       5.25562685      12.40266532
O        2.35453881       3.00535459       1.03149419
O        3.44371570       7.67493196       1.45684034
Li       6.99905922       2.99615302       6.24637918
Li       5.04559796       2.77021594       3.06920728
Li       1.31959805       4.56675714       1.20892829
Li       2.50268977       0.84535300      11.19568545
Li       7.27300951      10.58633403      10.25981783
Li       9.41580122       4.14279588      11.68713758
P        9.83490782       0.73833190      10.96373848
P        0.62727522      10.25503718       6.02282225
O        9.71811859       6.35417113      11.54478008
O        5.15561840       3.22073982       9.31675037
O        1.02042673      10.40692756      10.90531806
O        4.80961847       5.81523842       5.75813058
O        0.68396413       2.05551717      11.23544595
O        1.35729158       9.22390108       5.08917900
O        2.29790936       3.46993196       6.21777307
O        8.66436578       0.02590316      11.82360758
Li       3.44946641       9.25732192       5.26526403
Li       6.88522889       6.85935671       2.26772074
Li       3.37726017       5.70885880       1.30030996
Li       6.53259879      10.61054982       2.46759240
Li       0.54213052       2.34948454       6.23682324
Li       8.98586902       0.99816301       3.41753954
P        8.50473558       4.42355218       3.78944997
P        4.97990589       9.62973242      10.35196607
O        4.70681118      10.57620895       5.06746667
O        8.40261739       8.56408266       3.55808581
O        3.25765795       1.81067270       3.13049295
N        0.07333472       4.63172805       3.06035276
O        4.87724859       8.00910058      10.50669512
O        7.58147508       4.70592715       2.48700803
O        8.36618529       2.87906694       4.16492955
Li       3.19018899       1.80058669       5.14371230
Li       4.24040300       0.20036748       3.39744563
Li       6.20769724       7.50746293       9.42308593
Li       4.71357664       3.76694407       5.96846508
Li       1.46800359       7.05371260       8.49301350
Li       7.21705368       9.46428920       0.30557937
P        8.91059377       4.05150300       8.38878571
P        5.82098115       0.96740537       5.31355847
O        3.56740069      10.29838325      10.60224189
O        9.74764181       7.38227577       7.46880792
O        0.19548179       4.73492142       7.65048454
O        2.82867269       5.15025316       3.37004700
N        9.17131412       3.79460604       9.84781363
O        6.45213569       0.84455695       6.76315752
O        5.24594354       6.45305559       8.05835989
O        8.65222290       2.58953722       7.57154402
Li       5.04521943       8.02998254      12.44015613
Li       0.17026500       8.05870698       4.45336760
Li       0.85572340       2.15869724       4.07140478
Li       8.13421922       6.41283465       9.54687593
Li       0.37870437       6.00821535       6.65475026
Li       9.53836957       8.61130193      10.82526991
P        9.14608500       9.23399400       2.34806466
P        7.26562023       3.39344355       1.25149700
O        4.08406171       8.22162736       6.55947843
O        8.03140882       5.51663819       4.83224074
O        0.81538133       9.28051500       2.19866410
O        1.96567986       6.38165695      10.11754490
N        8.54635796       8.24048520       1.35898099
O        8.42577033       2.52020309       1.32131492
O        6.10110300       9.88285629      11.38227187
O        8.70550442      10.56025635       1.98602827
Li       5.93163570       4.79297638       8.89927181
Li       5.75796204       9.62341419       6.89810480
Li       8.23191822       0.80695580       7.67470701
Li       1.96461302       3.48235056      11.69686650
Li       9.71245446       0.92574246       1.03503832
P        8.62885504       8.46863196       7.39081217
P        4.18293714       6.74603107       6.82268779
O        7.71717829       4.99961882       8.05631559
N        9.41116910       9.63448281       6.95629577
O        7.84289384       8.43762597       8.79781229
O        2.70900021       6.22678174       7.12453034
O        5.35353238       2.43994346       4.92237669
O        7.50191001       8.36129964       6.35897329
124
Lattice="9.92562 0.0 0.0 0.0 10.6806 0.0 0.0 0.0 12.4552" Properties=species:S:1:pos:R:3 material=LiPON model=NEP89 temperature_K=1200 phase="NVT production" display_name="LiPON｜NEP89｜1200 K｜NVT production計算" report_figures="23_LiPON_lithium_MSD; 24_LiPON_transport_comparison; 25_LiPON_temperature_RDF" source_frame_index=600 relative_time_ps=60.0 pbc="T T T"
Li       8.87731006       6.09978217      10.07100889
Li       9.84564032       1.70245953       2.49365346
Li       6.35548271       2.34075027      10.96148234
Li       3.10601730       1.11618155      11.96587903
Li       9.75843316       7.78588677       4.88778217
Li       2.79652407       4.51249953      11.23182651
P        6.27481893       5.27459457      11.98704150
P        2.54446056       2.45491043       1.71100071
N        1.38674607       3.68342250       5.45258858
O        5.90510850       8.03933481       3.38291934
O        4.65743249       5.31153170      12.16616785
O        5.12513572       9.81618790       9.20186491
O        6.67664518       6.16301686       0.76659077
O        1.85475512       1.53857770       2.74382790
O        1.10866028       5.33803958      11.79546899
O        6.67344137       5.90696061      10.53724054
Li       1.16230663       7.17625254       7.02792974
Li       3.50266223       6.80229986       4.33327057
Li       1.72768085       7.67209798       2.40542289
Li       9.49063606       8.49502572       9.92178016
Li       0.64197387       3.31760744       9.91895231
Li       8.34063062       7.00497628       1.21083366
P        3.81780504       3.01640096       9.48517263
P        0.74442538       5.17789930       4.55086460
O        3.69069736       1.44200877       1.28701085
O        9.13377309       9.93050224      11.10099818
O        4.07633642       1.84241647       8.38225074
O        5.87277489       0.73605097       3.99392818
O        4.44307266       2.28842845      10.72552003
O        0.40561197       6.03698172       5.79376785
O        0.20488221       0.81976578       6.04086003
O        2.40782402       3.19875359       9.64284905
Li       5.04112374       6.17236154      10.11939432
Li       1.94479817       9.18945127       0.43560422
Li       6.63731964      10.26646217       2.54088892
Li       3.83685329       4.08630444       4.15492986
Li       6.76631867       7.46764753       9.54666300
Li       6.43806897       0.63395881       8.94987157
P        4.58031077       8.53605731       2.63157068
P        1.22124764       6.84792602      11.75653507
O        1.89574933      10.34348382       7.23555496
O        7.01434745       3.77312531      12.03105086
O        3.41324051       8.99804170       3.52144854
O        6.95712988       1.75461761       1.44374098
O        4.96203896       9.90597562       1.92151883
O        2.39882446       7.35925486      10.97332767
O        1.85170217       2.95294683       0.45567456
O        4.14377224       7.44010603       1.65822728
Li       7.66998561       0.49268856       6.36743234
Li       1.60485615       1.96389651       4.45058119
Li       0.08937883       3.94474975       0.32973408
Li       3.02539552      10.60325871       9.18573088
Li       7.56565502       8.88744236      11.71036704
Li       1.47593489       4.85839292       7.98207764
P        0.68052184      10.61851488      10.83365573
P        0.70763784      10.05900223       6.28413030
O        9.61322338       7.12739517      11.32067466
O        4.58879956       4.26290156       9.01552462
O        0.31203318       1.30235437      10.16470678
O        4.38861568       5.94985168       5.98384959
O        1.39490765       0.00773888      12.18917860
O        1.09179902       9.21892522       5.11024403
O        1.84746957       3.49967551       6.55374069
O        1.54565658       9.78445491       9.83285306
Li       2.94741305       9.33936005       5.38127382
Li       7.76864592       1.39270103       3.95655278
Li       6.03374733       6.55185003       2.31060602
Li       7.90823779      10.64333585      12.28403938
Li       9.28623655       2.47763343       5.76640008
Li       5.19908015       0.50901546       0.30645266
P        8.43949425       4.14684277       3.18263693
P        5.18638868       9.71311072      10.68818846
O        3.72849896       0.85487499       5.48208748
O        8.46824014      10.31581498       3.69751277
O        3.23023297       3.72887015       2.30720726
N        9.56818227       5.14184010       3.42220714
O        3.83258833       9.85210707      11.41205686
O        8.60699802       3.94501431       1.61980779
O        8.91063899       2.76612802       3.68088191
Li       3.23329607      10.57469852       2.58990570
Li       5.86846566       4.81220827       5.27648024
Li       5.86993404       8.27193258       7.06082852
Li       6.39300735       5.04091389       8.71584939
Li       2.34555735       7.98115270       9.16757951
Li       4.21012766       7.66617932      12.37184145
P        7.99723400       3.28354895       8.21443345
P        5.19000889       1.36938616       5.21409383
O        6.36532557       0.15004195      11.23472193
O        8.75496630       7.26976287       8.53790469
O        9.25059963       4.30563757       8.60913441
O        1.83169669       5.95822007       3.82944514
N        7.19945395       2.69915284       9.35328075
O        6.04732811       0.96241140       6.52746970
O        5.35130775       6.75304579       8.15341076
O        8.51966236       1.97547935       7.54289280
Li       2.53659737       1.75236420       6.95625325
Li       7.58456073       7.06381893       4.56412555
Li       3.55105634       5.50524119       1.46513500
Li       8.57821004       5.52169557       6.94780609
Li       5.54756772       2.55705791       7.37402900
Li       0.97537631       5.53203744       2.11289694
P        8.82033814       9.25659473       2.59976225
P        7.69206888       2.84020563       0.81976393
O        3.94748217       8.35837360       6.67189327
O        7.18838556       4.70384144       3.64597279
O        8.72250038       7.60897676       2.93832025
O        1.54640799       7.26038439       0.73852413
N        7.99338598       9.23406476       1.25351456
O        8.96661050       2.18970065       0.08586736
O        5.93090719       8.46813370      11.11553181
O        0.31286204       9.83410068       2.28485652
Li       8.58753506       2.10125662      10.76377121
Li       4.48741837      10.36448307       7.23331823
Li       0.20447059       1.42889119       8.21419067
Li       5.69420202       2.23891616       2.80759988
Li       0.80642204       1.87487262      12.19982686
P        8.50258488       8.19375549       7.30015365
P        4.05451975       6.92752880       7.10298464
O        7.20858938       4.35037075       7.33552120
N        9.54470405       9.12237052       6.67325872
O        7.73114956       9.44527539       7.85429367
O        2.70806188       6.66086522       7.71821989
O        5.37970372       2.93505677       5.01205011
O        7.79614957       7.45153797       6.27873545
124
Lattice="9.92562 0.0 0.0 0.0 10.6806 0.0 0.0 0.0 12.4552" Properties=species:S:1:pos:R:3 material=LiPON model=NEP89 temperature_K=1200 phase="NVT production" display_name="LiPON｜NEP89｜1200 K｜NVT production計算" report_figures="23_LiPON_lithium_MSD; 24_LiPON_transport_comparison; 25_LiPON_temperature_RDF" source_frame_index=630 relative_time_ps=63.0 pbc="T T T"
Li       8.84622238       6.12484509       9.63024434
Li       1.90155802       8.93961540       0.99559907
Li       6.32589714       0.58111407       1.61456636
Li       4.11479471       2.16398171      11.90207407
Li       1.14049821      10.51714165       3.49613156
Li       2.47074087       3.74789002      11.04374760
P        6.87706493       6.06576728      11.55763897
P        1.68676999       1.40682574       1.39075630
N        1.22948813       3.87092380       4.93580404
O        4.59228294       7.04755210       4.05163906
O        5.76678824       6.56023829      12.43729876
O        5.39868134       0.85308304      12.29077323
O        7.87241274       7.24657056      11.44805437
O        1.06758389       1.90486725       2.70920782
O        0.79942347       4.65050183      11.75911910
O        6.42698812       5.65074656      10.17208038
Li       4.10205844      10.28828662       9.28043368
Li       4.19957694       3.61390725       5.88356586
Li       0.06608436       2.47567798       5.19573948
Li       0.38121629       8.99848237       8.66471409
Li       0.82504724       8.40213515       4.04967472
Li       8.75127047       6.31299509       2.67917915
P        3.78794967       3.07334757       8.82464187
P        0.52708494       5.13362518       3.91466890
O        2.33695006       0.10046093       1.78374549
O        0.43977517       9.57998685      11.60720099
O        2.21620510       3.28409154       8.92005908
O        4.99125774       0.42396868       2.91266179
O        4.56707583       3.08320848      10.16747247
O        1.08908634       6.45715838       4.40592461
O        0.00682016       0.27556404       4.90909872
O        4.70352809       4.03470897       7.99285850
Li       2.74630294       7.61751244      10.35060692
Li       9.48706160       8.14452687       0.05886777
Li       8.14074218       0.34762357       4.25831967
Li       5.99034545       0.70786071       7.80902994
Li       5.75371434       5.16251382       8.47130228
Li       7.74085232       8.94265183      10.32059993
P        3.92868278       7.13136808       2.71802776
P        1.33202909       6.09349995      11.49505393
O        1.45605114       0.60795981       6.99797011
O        7.39944002       4.81967243      12.35537957
O        2.64930725       8.12172849       2.58329150
O        5.42278811       3.76023821       0.98712882
O        5.07391247       7.93832633       2.02298340
O        2.89832714       5.76927873      11.23640616
O        0.47996038       1.39427612       0.46487825
O        3.69254802       5.74270921       2.04716018
Li       1.73421985       2.73397592       7.19758979
Li       8.29112419       0.90886119       6.22064360
Li       9.78631771       3.40338731       0.89560567
Li       1.27054393       0.98627414       8.79381798
Li       6.69201521       8.43905237       0.54944463
Li       1.67547059       6.48869305       6.46531769
P        1.84251533      10.07601791      10.85699594
P        0.70026775      10.18198897       6.16811249
O        0.70017687       6.66985027      10.32934552
O        4.01426154       1.57002177       8.18446892
O        1.97593581       0.86013935      11.13213745
O        5.26238241       6.79795481       7.69087329
O        3.00579121       9.45097514      11.71781192
O        1.62607541       9.07767799       5.62712634
O        2.31313293       4.01819860       5.70280803
O        1.90598866       9.96761106       9.38679418
Li       3.45253250       8.26495389       5.62474560
Li       9.37140494       2.84787533       2.76566334
Li       5.55536963       6.15008718       5.71952707
Li       9.61047658      10.40205045       0.52736177
Li       6.47669834       9.66246582       5.66654977
Li       3.89146093      10.50416805       0.58180613
P        7.42038291       4.44667440       4.00573004
P        6.16382068      10.66055071      11.31845540
O        4.11524632      10.54325197       5.16382491
O        7.84523409      10.12957326       1.67875584
O        2.77274935       2.39329127       1.19086917
N        8.92488806       5.09792468       4.32891786
O        5.84474276       9.10270311      11.49474128
O        7.26216428       4.78058908       2.42626205
O        7.82172510       2.93841455       4.43286658
Li       3.32254238       9.86295056       3.21088009
Li       6.67944255       3.03891875       6.06252673
Li       1.24761785       7.14318258       2.23571214
Li       4.39474882       5.62420149      10.49925518
Li       2.07440756       4.40679246       1.25132653
Li       6.07675066       6.37903210       1.67525582
P        8.39054424       3.33101033       7.97674687
P        5.04360548       0.87609255       4.40398694
O        7.69406175      10.67302431      11.35330017
O        8.73364321       8.09243300       8.80582232
O        8.01577217       4.81188767       7.82084671
O        0.80135433       4.81035903       2.40691484
N        8.64500185       2.99853490       9.50479137
O        6.57234537       0.77468787       4.95221088
O        4.51926144       7.80519763       9.86506183
O        9.55450515       2.96996105       7.11202953
Li       2.52610836       2.65055010       3.26615291
Li       6.14107352       8.11390352       3.65370368
Li       4.18823009       5.26034684       0.48465643
Li       8.60230676       6.41435754       5.87341134
Li       8.12460815       0.56062846       9.40922052
Li       4.52530033       8.09369265       0.09824390
P        8.52985113       8.97554474       2.31136219
P        6.93227609       3.92706518       1.12921187
O        4.12639834       8.96072685       7.66720743
O        6.43231032       5.01535417       4.97800549
O        7.98514892       8.86492701       3.78005307
O        1.19620595       6.65064975       0.52734264
N        8.02597721       7.64569358       1.66233479
O        7.81658646       2.74385551       1.24634594
O        5.76412836       0.56820192       9.92208434
O        0.06947786       8.84614365       2.29461235
Li       6.69121863       3.52795497       9.92314495
Li       3.25660279      10.60844216       6.99525204
Li       2.19167855       5.18468949       8.41969597
Li       4.58453218       3.98926251       2.62173227
Li       9.06367353       2.39253617      11.35879204
P        8.15954970       8.92681903       7.51950418
P        4.20052791       7.63859607       8.33087015
O        7.31174243       2.23828370       7.66486273
N        9.58682785       9.56264111       7.05876394
O        7.27250911      10.21479243       7.85213201
O        2.77269104       7.01257689       8.48186937
O        4.62472799       2.40188278       4.35258551
O        7.42725151       8.15255747       6.45132215
124
Lattice="9.92562 0.0 0.0 0.0 10.6806 0.0 0.0 0.0 12.4552" Properties=species:S:1:pos:R:3 material=LiPON model=NEP89 temperature_K=1200 phase="NVT production" display_name="LiPON｜NEP89｜1200 K｜NVT production計算" report_figures="23_LiPON_lithium_MSD; 24_LiPON_transport_comparison; 25_LiPON_temperature_RDF" source_frame_index=660 relative_time_ps=66.0 pbc="T T T"
Li       9.63793897       6.58404826       9.95703945
Li       0.84600813       0.52874074       0.56437435
Li       5.67134215       3.42010224      11.38859107
Li       4.40756084       5.95210412      10.31481563
Li       2.61362153       1.86270831       5.04759436
Li       4.24744563       5.38655526       6.73241706
P        7.08070457       6.24898423      11.82636696
P        2.32163387       1.96904466       2.13465442
N        0.68425390       3.72955824       5.26372014
O        3.58964722       6.29039615       2.51133885
O        6.06247376       7.12280400       0.01666738
O        4.90835074       1.27896431      11.27558702
O        7.95899446       7.22424519      11.12822868
O        1.91181965       1.12650973       3.35841601
O        0.32114383       4.57860324      11.04725126
O        6.41713536       5.18201768      10.85508228
Li       0.84531913       0.37275863       7.97011508
Li       5.38757011       1.94975842       1.27151525
Li       4.44868569      10.42276584       1.73298139
Li       2.78937485       9.71486314       5.16418585
Li       1.43465998       8.03071964       3.49319666
Li       2.25563913       4.84969675       1.84139355
P        3.75870506       3.02929014       8.35336795
P        0.23288109       4.95312094       4.20243483
O        3.42055623       1.20183378       1.23734712
O        9.67912701      10.37672006      10.24837554
O        2.23514526       3.32465513       8.39740487
O        5.27203345       0.58090026       3.12122220
O        4.28724091       3.59403153       9.73726774
O        0.97301147       6.23081079       4.66120143
O        9.41317423       0.54855184       5.40096177
O        4.64626554       3.91778126       7.41962759
Li       2.64110637       8.22731304      10.87949970
Li       8.34269621      10.51025184       9.09049832
Li       7.65911233       0.54861009       6.40430418
Li       5.52375896       9.96976156       8.80374644
Li       7.15670462       6.97281908       2.04224355
Li       8.71702536       5.31988119       6.66496727
P        4.06990071       7.28876612       3.72931887
P        1.66027977       5.26367157      11.50040880
O        1.71526468      10.55049638       6.52946943
O        7.87871192       5.39575505       0.67366710
O        4.23212457       6.31041470       4.92393551
O        5.65745467       3.66232159       0.96420727
O        5.49085953       7.92067379       3.72045507
O        2.53211853       4.10429800      12.11558153
O        1.08044075       2.19589294       1.12606055
O        3.16094234       8.51682403       3.76624938
Li       9.07492422       2.50659385       6.09866992
Li       5.74593457       9.31450625       6.29722462
Li       0.19964034       2.65028312      12.13591362
Li       8.51870867       9.92914376      11.86850948
Li       6.24951425       8.07733831      10.60663695
Li       0.25985807       7.83358539       0.25713764
P        1.18623222      10.14922111      10.62178664
P        0.43497936      10.01878064       5.99791682
O        2.42133553       6.15805203      10.36490278
O        4.01266116       1.50948119       8.22206700
O        1.85829152       0.69524068      11.35615203
O        5.22706488       6.93000267       7.68424662
O        1.03272845       8.77887459      11.35382520
O        0.93193716       9.00794594       5.09911429
O        1.77232661       3.40416577       5.73580815
O        1.94022295       9.83834073       9.32178728
Li       2.38074790       6.47973623       5.85040343
Li       8.07267271       0.70573417       4.27774633
Li       6.36732050       6.67860798       5.13026747
Li       7.95641933       1.13770535       0.82802666
Li       6.95558472       9.04603852       4.22558839
Li       3.28503647       2.00035139      11.79670371
P        7.67476467       4.38279086       4.29199083
P        5.54732756      10.55115054      11.62072499
O        3.84252751       0.48622999       5.30096870
O        9.19994192       0.30685418       2.73808034
O        2.90274903       3.31380175       2.72008141
N        8.77133815       5.52691680       4.70471877
O        4.49310981       9.68806578      12.21943693
O        6.99007340       4.84887872       2.86583179
O        8.19810947       2.86048361       4.38080871
Li       1.99876472      10.07365511       3.28691101
Li       5.86103373       3.16355768       6.19592590
Li       3.05710918       7.30491129       1.27367162
Li       5.88749501       5.25774311       8.52926483
Li       9.65512324       2.06535113       3.02758079
Li       9.74153574       4.70011542       0.90052187
P        8.09508784       2.50561512       8.65720933
P        5.16972002       0.82566407       4.63291444
O        6.71166663       0.23316840       0.11363187
O        9.10833996       6.89623425       8.04963035
O        8.67634015       3.94041504       8.51533127
O        0.22332383       4.76430341       2.65425784
N        7.48842953       2.31949131      10.08584339
O        6.43068963       0.10517154       5.24758406
O        4.38200079       8.00483679       9.73841509
O        9.28684072       1.47342576       8.45916722
Li       3.42498836       4.91478307       3.64101952
Li       6.87158971       9.63826427       1.88842129
Li       4.70132597       5.57007405       1.04838091
Li       9.14467562       7.40944473       4.59662044
Li       0.67505637       3.95041744       8.77271776
Li       3.26625257       0.39349837       9.77305862
P        9.20583090       9.47049533       2.42816509
P        7.17305860       4.14651477       1.38134867
O        4.39485152       9.31304915       7.50802352
O        6.81758838       4.59902734       5.59441997
O        8.45411790       8.56297073       3.45103879
O        1.16773012       6.18419985       0.10555884
N        8.50328683       9.18934241       1.12034438
O        8.21412868       3.00901811       1.23047351
O        6.23935765       9.89588490      10.38394179
O        0.71957076       9.06058560       2.16201821
Li       5.67870114       1.80690081       9.46934018
Li       3.49830656       0.14187732       7.09326642
Li       1.34138221       8.21161796       8.25562202
Li       5.45200331       3.20550995       3.11993573
Li       8.49150332       4.22081290      10.71547249
P        8.53704424       8.24077673       7.47503182
P        4.10103999       7.88670085       8.20499494
O        6.94380955       2.17336870       7.57530393
N        9.52733568       9.36080925       7.10719586
O        7.55162629       8.95323634       8.34523827
O        2.83056062       7.30478122       7.55859509
O        5.27040154       2.38977793       4.75212394
O        7.70613395       7.70034097       6.26823480
124
Lattice="9.92562 0.0 0.0 0.0 10.6806 0.0 0.0 0.0 12.4552" Properties=species:S:1:pos:R:3 material=LiPON model=NEP89 temperature_K=1200 phase="NVT production" display_name="LiPON｜NEP89｜1200 K｜NVT production計算" report_figures="23_LiPON_lithium_MSD; 24_LiPON_transport_comparison; 25_LiPON_temperature_RDF" source_frame_index=690 relative_time_ps=69.0 pbc="T T T"
Li       8.07105098       9.55289669      11.38775280
Li       3.14633686       4.77649136       2.26625653
Li       3.13391887       2.74187584      10.63274126
Li       4.06518354       4.88169278      10.02560408
Li       2.90922339       9.24509233       4.86693047
Li       9.40179172       4.99044384       7.21865373
P        6.47650781       6.05531216      11.40711079
P        2.62019816       2.42444356       2.79879483
N        0.65412346       5.27037864       5.92225900
O        3.50720627       6.41377123       1.82362110
O        5.19108088       6.76613502      12.09832048
O        4.79316585       1.48971971      11.63007552
O        7.31042600       7.36596623      10.94412447
O        1.69426984       2.03713774       4.03430605
O        0.37204583       4.98254680       0.25522514
O        6.32137703       5.03645628      10.19667542
Li       1.32968270       1.50408394       7.65817014
Li       4.33145974      10.11488287       2.62931558
Li       5.20118227       1.61625241       1.85133513
Li       2.53675162       6.47085609       5.62187976
Li       8.20760224       7.16687521       0.17081435
Li       9.88036890       3.23721465       1.23246820
P        3.92757128       2.62944940       7.70664557
P        0.17054507       5.70228806       4.46164190
O        3.15599753       1.10917725       2.16870977
O        9.60984482       0.35154666      11.07344355
O        2.57521586       2.69024164       6.98479723
O        5.82858777       0.11013837       3.50375761
O        3.95617243       3.29216456       9.13633569
O        8.92721156       6.67932861       4.67801306
O        9.59981609       0.15025420       4.86505387
O        4.90659257       3.34764723       6.80326687
Li       3.84564070       0.29517781       9.41631505
Li       8.40437375       0.23396914       9.46115043
Li       6.95163573       8.28142349       6.85758567
Li       6.60556037       8.05424190       9.54881645
Li       6.90854122       7.56057093       3.47746111
Li       7.29087789       6.33684337       5.57006195
P        4.15389037       7.41666780       2.90410629
P        1.54026373       5.53530060      11.62888542
O        1.65058065      10.65910005       6.42373399
O        7.52579804       5.38184709       0.00956341
O        4.52932482       6.61957553       4.11385480
O        5.65032745       3.70162068       1.13969064
O        5.51522945       7.90732245       2.35999327
O        2.62941913       4.48444571      11.34572220
O        2.04506171       3.26444514       1.71086427
O        3.12776418       8.64960640       3.35655764
Li       8.65998044       0.33450845       7.33987160
Li       3.30635301       9.91980891       7.17390518
Li       8.01988165       1.33938840      11.70203466
Li       6.16260208       8.45694400       0.32033001
Li       3.87808452       7.70157184      11.32013779
Li       0.89919365       6.38103598       1.59613736
P        1.29648712       0.35194707      11.12282218
P        0.46590520       9.90233421       5.87096733
O        0.89791264       5.70416519      10.28708114
O        4.36635953       1.16917541       7.88691825
O        1.60615035       1.82931355      11.16395074
O        5.20379486       6.78790152       7.20054946
O        1.75855476      10.39686943      12.43787747
O        0.98098716       8.62387882       4.98193479
O        1.12846441       5.41587877       7.14037974
O        2.11721918      10.49765684      10.00544835
Li       0.48883981       7.31543546       6.37886834
Li       7.66672413       0.80249112       4.03110236
Li       4.70212577       7.72015778       5.58878517
Li       7.89124235       1.25800739       1.78978748
Li       6.57250186       9.58182344       2.19211181
Li       0.84633486       3.16107141      10.24566337
P        7.98886529       3.94729425       3.77440330
P        5.39903759       0.06217774      11.92901392
O        4.25993990      10.33000481       5.40556963
O        0.78244594       8.60487698       1.96459036
O        3.61970853       3.48857985       3.48534346
N        9.69317924       4.10616760       3.96215818
O        6.27431506       0.45962141       0.89925377
O        7.74593121       4.60090725       2.41398713
O        8.08507545       2.47258478       3.63000348
Li       1.30693951       7.85509946       3.35941553
Li       6.66458084       2.49915666       6.55666945
Li       2.20660512       9.84865378       1.71460989
Li       5.91165761       4.20609939       8.17689426
Li       0.06315571       1.17561746       3.67631919
Li       3.16326650       2.29107629       0.43277348
P        8.47380066       2.68941484       8.87925168
P        5.78291784      10.15308823       4.96994582
O        6.44824792      10.51536169      10.88845934
O        0.41281093       8.04133884       8.64028314
O        9.34819698       1.36888463       8.61065364
O        1.23482120       5.88381363       3.37454135
N        9.54940251       3.76322460       9.19644999
O        6.41074068       8.60476969       5.18494428
O        3.65763566       6.95139535       9.43575963
O        7.74328321       2.39783538      10.12044979
Li       2.83225641       1.35750832       5.55037043
Li       0.82526915       8.56558760      12.39095779
Li       4.24565112       5.47804087       0.28824123
Li       8.80505591       8.42204580       4.98180903
Li       1.84796408       6.28592379       8.93404172
Li       1.02246691       3.28596827       5.49475622
P        9.25661252       9.27907481       1.91755033
P        7.13371607       4.09383788       0.81824241
O        4.80511233       8.91872377       8.37426570
O        7.10586973       4.65175531       4.74182362
O        8.30384252       8.80199089       3.07084805
O        2.23814039       6.87885981      12.01178877
N        9.42385342       0.18407967       2.28725230
O        7.93528888       2.86887844       0.50015886
O        4.59393663       9.48910933      12.22819885
O        8.42986850       9.07583719       0.53913076
Li       5.97366329       3.14518774       9.94527332
Li       6.00287040      10.40234345       8.18211591
Li       1.91044486       8.76848973       9.51449701
Li       4.93348897       4.82136088       5.44292180
Li       8.61132031       5.36813451       9.85371379
P        8.99972877       8.29832443       8.04492820
P        4.13833494       7.55238703       8.03690100
O        7.59437180       3.39939575       7.69222472
N        9.30090511       9.18875938       6.66818333
O        7.94086840       9.11444134       8.79854194
O        2.92620755       7.58028794       7.02841292
O        6.84521192       0.32279539       5.78900767
O        8.31926436       6.98491921       7.29434523
124
Lattice="9.92562 0.0 0.0 0.0 10.6806 0.0 0.0 0.0 12.4552" Properties=species:S:1:pos:R:3 material=LiPON model=NEP89 temperature_K=1200 phase="NVT production" display_name="LiPON｜NEP89｜1200 K｜NVT production計算" report_figures="23_LiPON_lithium_MSD; 24_LiPON_transport_comparison; 25_LiPON_temperature_RDF" source_frame_index=720 relative_time_ps=72.0 pbc="T T T"
Li       8.40407879       1.64010163      11.20187196
Li       2.50717354       4.38089767       2.54433272
Li       0.94985964       0.86065175       8.03638342
Li       3.74797313       3.74670474      10.72553126
Li       2.69700211       9.70351618       3.76690231
Li       8.45334124       7.22162452      11.66474234
P        6.42963446       6.14170596      11.57552904
P        2.72785987       1.76382215       2.79862083
N        0.82026998       4.93462657       6.42645021
O        4.16130307       5.83091984       2.25040936
O        6.12083527       7.59411925      11.59103813
O        5.02189081       1.69112122      11.57173870
O        7.58647045       5.88120980      10.50445819
O        2.10423951       1.80668286       4.18537135
O        1.16550865       5.29418298       1.16001825
O        5.39603634       5.09762343      11.15106021
Li       1.18686241       9.10860205       8.88808572
Li       3.29132722       9.52344158       0.53892776
Li       6.05422858       3.85287429       6.49758096
Li       1.00187496       6.64184252       9.34681569
Li       2.80029809       6.88662215       1.47410125
Li       0.71580820       0.94147173       0.24511641
P        3.22985572       3.19875777       7.73429834
P        0.70271977       4.95359684       4.83385616
O        3.24140259       0.32718673       2.57390517
O        9.73352833       0.37109220      10.14881166
O        1.95777271       2.34797515       7.40369381
O        5.54115887       0.73001427       4.41511770
O        2.96341506       4.11737020       8.95105901
O        9.92450948       6.21201595       4.47966697
O        8.74210215      10.61088843       5.19216358
O        4.04889824       3.82193690       6.59429218
Li       5.90430191       3.45247428      10.47487702
Li       7.87781509       0.10016497       9.39689601
Li       8.85818760       5.75797355       9.02225291
Li       6.09265099       9.29865453       7.78639689
Li       7.71580365       7.06866192       2.64385019
Li       5.01643217       4.55937748       2.99133406
P        4.60745660       6.99885515       3.19200833
P        1.87488179       5.40706158      12.21222042
O        0.95629186      10.35876159       6.76585950
O        7.42124711       5.85824671       0.44209468
O        4.99481964       6.37810832       4.59127456
O        5.98376012       3.91365306       1.59743336
O        5.96681813       7.55480271       2.65283316
O        2.91661140       4.19830377      12.21657439
O        1.53329927       2.28273875       1.83814543
O        3.43676193       8.11420293       3.20183679
Li       0.33782621       2.76336343       5.95828972
Li       7.59550640       8.57075877       5.31947656
Li       0.33782163       3.36375697       1.09737477
Li       4.10028004       6.74475273      10.69176416
Li       6.68158724       8.46988198       1.05499720
Li       3.99090068       9.54692052      10.22350015
P        1.48534413       0.48745827      10.38893000
P        0.05408747       9.69868903       5.63884653
O        0.90220660       5.55521796      10.99028136
O        4.33491351       2.21946061       8.27483661
O        1.76221262       1.98744741      10.85217681
O        4.65849723       6.53125194       8.95119811
O        1.82592570      10.09443508      11.46840198
O        0.97237796       9.30302574       4.55606489
O        0.80868051       5.36245416       7.72830082
O        2.26008606       0.30457210       9.05669751
Li       1.41898651       8.11803557      11.40206976
Li       7.47782111       1.08987234       4.59102426
Li       1.17681598       6.76519284       6.67758683
Li       7.28175970       1.60893915       1.65943658
Li       5.06154888       2.50456126       0.81924490
Li       8.41726749       5.95113142       5.68023870
P        8.19931923       3.49510591       3.92412226
P        5.71210214       0.25409386      11.52293582
O        3.74361443      10.57249734       5.98106520
O        0.78177370       7.94590817       2.02052299
O        3.83095303       2.87871807       2.58962070
N        9.68628067       3.64332196       4.39791088
O        7.13118035       0.28515422      12.28404849
O        8.07216757       4.63741143       2.58934094
O        8.26115581       2.18161728       3.07038596
Li       5.48448604       6.26324541       6.09402621
Li       5.98651722       1.43974377       8.76862781
Li       3.66217872       8.33100075       5.47524632
Li       6.40096178       5.84355268       8.64329191
Li       9.91500763       1.43383621       3.12813299
Li       3.10648218       1.70886120      11.90595050
P        8.09490963       2.96349861       8.56481069
P        5.35511054      10.59984578       5.69730408
O        5.99818011      10.54018345      10.05268404
O        9.37260144       7.62620900       9.06051515
O        8.45620761       2.07947158       7.19382538
O        2.24746060       4.79077133       4.48108498
N        9.28885398       3.67735689       9.14349900
O        5.71638643       9.10095338       5.41018395
O        2.51110752       7.92801474       9.48898788
O        7.56729291       1.96593704       9.64470175
Li       2.26027986       1.30195763       6.13537203
Li       8.98605490       9.85330029      11.39298669
Li       4.46812238       4.96849708       0.62721693
Li       1.15156030       7.43261176       3.52919120
Li       3.24521152       5.68990070       5.70256511
Li       4.92827827       2.45168164       4.36308941
P        9.58496443       9.02947041       1.67199888
P        7.35330582       4.41298477       1.17149803
O        4.38844150       9.06808724       8.27517074
O        6.94021628       3.59917451       4.72116647
O        8.28631784       8.79409769       2.53825304
O        2.67950113       6.68879074      12.22024950
N        9.68165174      10.62677145       1.76732110
O        8.32718119       3.57568345       0.32647467
O        4.77584685       9.96267076      12.27305553
O        9.25518827       8.70517194       0.13302034
Li       1.15502850       4.03287688      10.36432347
Li       8.11949383       0.11051733       7.04036674
Li       3.79583406       0.32078358       8.08486590
Li       5.43877737       9.88999459       3.33816712
Li       8.54877262       4.39658766      11.09574782
P        8.62474832       8.10551240       7.72735418
P        3.74936774       7.61436755       8.43600488
O        6.91378799       4.02852593       8.35421627
N        9.28190085       8.51106998       6.33183637
O        7.91418841       9.41217501       8.16246715
O        3.18934952       7.21751780       6.91784707
O        6.22226969       0.45301563       6.88666001
O        7.75576306       6.76834560       7.40663697
124
Lattice="9.92562 0.0 0.0 0.0 10.6806 0.0 0.0 0.0 12.4552" Properties=species:S:1:pos:R:3 material=LiPON model=NEP89 temperature_K=1200 phase="NVT production" display_name="LiPON｜NEP89｜1200 K｜NVT production計算" report_figures="23_LiPON_lithium_MSD; 24_LiPON_transport_comparison; 25_LiPON_temperature_RDF" source_frame_index=750 relative_time_ps=75.0 pbc="T T T"
Li       8.83524745       9.48647957      10.89574425
Li       5.47940684       6.45917480       0.98551789
Li       3.60277443       2.14887733      10.16926488
Li       1.36325620       3.94838856       9.26180254
Li       2.40935544       7.82789092       1.48081385
Li       9.82931680       3.67389858       2.12317831
P        7.03576551       5.89238443      11.69139747
P        2.43577260       2.23454951       3.46986105
N        0.88676875       5.40588676       5.19982150
O        3.77555070       5.67764028       2.26999148
O        6.33827905       7.28892479      11.71285965
O        4.49125933       1.17269417      11.69756213
O        8.66941112       6.14779258      11.66135897
O        1.53970231       1.59842507       4.57525079
O        0.98523055       4.73747419       0.30176346
O        6.66239816       5.17296213      10.49767965
Li       8.62873433       0.30087412       8.08750408
Li       2.65559119       8.83002344      11.07908884
Li       5.12464155       2.89315381       5.04335260
Li       2.22023612       6.01845147       8.33422305
Li       4.98540657       4.17347264       2.62008035
Li       8.26653290      10.64830993      12.10189013
P        4.14855622       3.45061770       8.11627393
P        9.81699213       5.92650144       4.01689607
O        2.80246598       1.11039412       2.44051149
O        9.28254253       0.66390401      10.45597680
O        4.92574757       3.49951009       9.37523796
O        5.91736967       0.96740424       4.41534566
O        2.82805026       4.11452135       8.34513001
O        8.61277988       6.65135090       4.60002498
O        9.37010110       0.06191242       5.81876355
O        3.60870254       2.00367392       7.80104987
Li       6.83601322       2.57060441      10.20446684
Li       6.15637002       0.20893943       9.73333962
Li       9.41745756       6.05988194       9.88284303
Li       5.88932521       8.29357951      10.21076701
Li       7.17882193       8.23632487       0.88029711
Li       6.35215184       2.40323901       7.29036998
P        4.29217418       6.87363789       3.30841621
P        1.95293726       5.56231658      11.68691614
O        1.62419808      10.51616737       7.17008346
O        6.62575476       5.08208391       0.53742828
O        4.06795399       6.38297512       4.75150341
O        5.44618460       3.13737539       1.04764516
O        5.67551063       7.36332522       2.92014521
O        3.32636694       4.63065372      11.74582946
O        1.49761876       3.16531541       2.62202845
O        3.34655003       8.14226915       3.10304890
Li       2.88458182       1.13209974       6.10796272
Li       7.25284329       0.50819164       2.54390086
Li       2.47197588       2.91255900       0.59943168
Li       4.94651930       5.31876344       9.97448484
Li       5.42224501       9.18723541       2.87141258
Li       0.91694620       8.25274544       3.44551317
P        0.86181872       1.09881224      10.90874057
P        0.54752628       9.74227190       6.44766512
O        1.50822924       5.58952540      10.13749173
O        4.93432936       3.96389037       6.89882506
O        0.83602469       1.88838800      12.31768742
O        4.91718157       9.05155715       8.34482994
O        1.49550943      10.43622218      11.07140013
O        1.31333464       8.97998428       5.41309530
O        1.45695961       5.54223270       6.44048278
O        1.52489931       2.22586675      10.00234209
Li       0.32935122       7.39816883      11.06153702
Li       8.34442800       1.44130407       6.05007868
Li       2.03035608       7.08646426       5.37872858
Li       9.76008437       0.66398050       4.23624024
Li       2.03217659       5.09882098       1.97900446
Li       9.19332134       6.33924535       6.75003007
P        7.85352231       3.49613456       3.60230970
P        5.18334747       0.02036588      12.30740854
O        4.13136337      10.20164380       5.59364807
O        0.85377701       9.21708373       1.81154470
O        3.60040253       3.05459342       3.92376261
N        8.91319753       4.68837148       3.56155870
O        5.79060659      10.65452725       1.38753568
O        7.82229561       3.14892615       1.91603549
O        8.34161508       2.37168394       4.45590109
Li       7.16377984       5.31832893       5.69690911
Li       3.49743939       0.19723016       8.16117701
Li       2.80620235       9.05106452       6.33126095
Li       6.82385114       5.60139122       8.26585914
Li       7.71005378       8.39999661       4.36273850
Li       9.20393986       6.47455991       1.13770765
P        8.80594030       3.44141697       7.97536613
P        5.73097044      10.56709410       5.43321980
O        6.24868473      10.24338691      11.35281929
O        9.82344220       8.27317505       9.75275949
O        7.99530781       2.19389202       8.26541343
O        0.83548244       6.34325715       2.77809963
N        0.03115416       2.75678719       7.14848813
O        6.52629373       9.26818811       5.03082426
O        4.24584728       7.06974554       9.64670802
O        9.32485360       4.27331946       9.11304734
Li       0.45319700       3.49378308       5.48265520
Li       2.44755990      10.25389447       0.74057726
Li       4.89597622       3.94451995      11.72849681
Li       0.33135344       1.43000660       1.85566076
Li       3.72557943       5.62161985       6.60882156
Li       2.74875301       4.99974024       4.09994378
P        9.23189243       9.32154746       1.78389253
P        6.92206442       3.39073580       0.60399386
O        3.15601626       7.25947220       7.42741338
O        6.44861048       4.04792968       3.95649698
O        8.05039248       9.12365672       2.87659271
O        1.91344273       7.19593553      12.24321629
N        8.99363039       0.24641392       1.53419637
O        7.41886157       2.80330786      11.71669602
O        4.12004372       9.52475030      12.40029773
O        8.74556310       8.74289021       0.25453713
Li       1.75460286       2.11745835       7.86670172
Li       6.74590928       8.34381223       6.95776218
Li       2.47008176      10.04820550       3.13718912
Li       4.96841346       1.55309842       2.03595555
Li       9.07484446       3.76124670      11.39200643
P        8.84150452       8.33551202       8.49586486
P        4.55780382       7.52225071       8.20791189
O        7.96805314       4.47949303       7.02148031
N        9.67459803       9.04235660       7.46250916
O        7.92436473       9.38012666       9.10913408
O        5.64586529       6.78713867       7.44492620
O        6.18544618       0.38345966       6.77641406
O        8.18085921       6.89004357       8.30180506
124
Lattice="9.92562 0.0 0.0 0.0 10.6806 0.0 0.0 0.0 12.4552" Properties=species:S:1:pos:R:3 material=LiPON model=NEP89 temperature_K=1200 phase="NVT production" display_name="LiPON｜NEP89｜1200 K｜NVT production計算" report_figures="23_LiPON_lithium_MSD; 24_LiPON_transport_comparison; 25_LiPON_temperature_RDF" source_frame_index=780 relative_time_ps=78.0 pbc="T T T"
Li       6.63822763      10.48015882       9.26017410
Li       3.96495080       8.74407581      11.85508596
Li       3.12575389       9.08004869       9.50077076
Li       8.69795876       2.26853318      11.66674546
Li       1.15870699       8.57291966      11.48825373
Li       1.58082914       6.17581510       2.73698322
P        6.48684543       5.95038104      11.65046740
P        1.95979969       2.12008598       2.81226887
N        0.15917129       5.06771608       6.35823675
O        3.18338547       6.26448866       2.05234765
O        5.28710648       7.04120931      11.94359137
O        5.36644674       1.63856224      11.77230493
O        7.71403322       6.58701443      10.92643982
O        0.54758967       2.38989164       2.36443222
O        0.84985240       5.06801731      10.01999087
O        6.03183789       4.61238719      10.98751677
Li       9.16730846       6.60005572       0.10563361
Li       3.89218552       3.08863709      12.10781942
Li       8.76795394       0.84184052       7.63887914
Li       1.55445284       0.99058698       7.81533201
Li       4.08124978       2.44774278       5.22179009
Li       8.70676400       1.24586324       1.83812435
P        3.88209220       3.58181437       7.73904261
P        9.22181707       5.29397309       4.90228065
O        1.88834949       0.54277655       2.96977934
O        1.07028448       1.15349558       9.69013036
O        5.04221197       2.49105009       7.54801394
O        7.85564032       0.70183571       4.13825191
O        3.99233072       4.11895014       9.16112179
O        8.47816788       6.56706159       5.00271563
O        0.05255171       0.60552937       6.38881199
O        2.48462137       2.93340319       7.44444705
Li       9.62116433       5.54179638       8.22315657
Li       5.97463955       4.82335211       9.30840468
Li       7.01264503       6.47785566       3.41969278
Li       9.17031588       0.47366226      10.11257995
Li       7.71825075       8.52303081      10.84361602
Li       4.16920400       0.66667312       8.10742437
P        3.70853394       7.52507449       2.75432522
P        1.35538979       5.19915246      11.47960502
O        2.62310906      10.48721536       6.22848815
O        6.82868907       5.60446745       0.72421660
O        5.27396623       7.71123648       2.72613654
O        5.53142181       3.56271568       1.03060482
O        3.36762252       8.58384740       1.81854504
O        0.22588106       4.59796990       0.12092011
O        2.92576576       2.63447869       1.62430729
O        3.00039514       7.62828392       4.11550469
Li       4.01693945       9.73796264       5.25991600
Li       3.71315905      10.31258131       2.73097917
Li       6.70888372       2.97160198      11.79044719
Li       4.06979576       5.05358935      10.50559478
Li       1.58804383       9.85506146       1.52820928
Li       1.50300278       8.84581483       3.38765220
P        1.95350149       0.59300852      11.00700742
P        1.06753534      10.08746514       6.15546880
O        2.66513195       4.35547580      11.53422979
O        3.97949742       4.62173514       6.47565786
O        1.23142940       1.10359614      12.36179736
O        4.86515332       9.56167661       8.34784888
O        2.44290641       9.70659501      10.95970169
O        0.62120275       9.24909328       4.99805645
O        1.16531061       5.53219920       6.81959475
O        3.23516153       1.23801341      10.40266187
Li       7.38143464       7.02885692       9.10317623
Li       8.81943344       2.05965679       4.98950374
Li       5.41998731       5.53972339       7.24490865
Li       9.40596013      10.55472447       4.57451201
Li       3.64190109       4.47673465       1.89635995
Li       8.75797897       7.98040245       4.06024713
P        6.55957632       4.19688891       4.63233871
P        6.13300906       0.34152295      12.12116680
O        5.48492437       0.14757855       4.36982781
O        0.28332844       7.62631302       2.19543036
O        2.17705747       2.75503314       4.21374262
N        8.18755718       3.93343958       4.80614981
O        5.86392477      10.39458015       1.26182534
O        6.61848688       4.53693723       3.15110770
O        5.77854697       2.81815514       4.72213370
Li       6.09474556       8.29928138       0.60775259
Li       1.04209580       3.26037434       9.48246619
Li       2.29409640       7.90952327       5.84510116
Li       8.60941282       5.16610752      10.84275789
Li       5.19565427       7.89665897       4.73112682
Li       2.42888142       6.22847789       9.09366217
P        8.27779839       2.93278175       8.80659263
P        6.93487887      10.58282130       4.85507736
O        7.75321999       0.55102675      12.17449788
O        0.72159627       7.95367263       9.35584860
O        7.56895978       1.53388015       9.07605473
O        0.46571804       5.22447465       3.84834486
N        9.60454653       2.95484211       7.97793781
O        7.45374876       9.06430976       4.80701080
O        3.66709910       7.46923915       8.90864538
O        8.63587438       3.47605080      10.32942098
Li       0.60869329       2.88833493       6.19381046
Li       1.08837883       2.97798038       0.55984657
Li       3.75137524       6.34130353       0.02656059
Li       9.70696457       4.08648154       1.96876326
Li       2.19733417       4.86699931       5.45376874
Li       5.85285167       1.69610887       6.20141978
P        9.26392580       8.67571676       1.49335454
P        6.83952149       4.22395080       1.53571448
O        4.23521025       8.20273187       6.26050617
O        6.38598722       5.23029886       5.69382648
O        7.85206424       8.09840964       1.88731008
O        1.75408699       6.69952912      11.89695913
N        9.82740748      10.07467080       2.06789565
O        8.01717155       3.22788340       1.11849898
O        5.78232590       9.87255289      11.03507761
O        9.53410037       8.66698487      12.24615865
Li       9.59597668       0.27362935       0.28854300
Li       7.64326687       7.85376750       6.39949948
Li       5.16719247       1.82015107       1.70059307
Li       6.52002223       8.93137265       2.65211756
Li       5.08785070       2.24983255       9.48874513
P        9.61054196       8.53269772       8.31002926
P        4.69889636       8.15860631       7.82696422
O        7.33322972       4.08270689       8.38903174
N        0.63444659       9.22880516       7.39678454
O        8.72683136       9.54301824       9.11985680
O        6.11372161       7.27502346       7.70803404
O        6.83995130       0.18451533       6.35300347
O        8.62541829       7.36609568       7.80590472
124
Lattice="9.92562 0.0 0.0 0.0 10.6806 0.0 0.0 0.0 12.4552" Properties=species:S:1:pos:R:3 material=LiPON model=NEP89 temperature_K=1200 phase="NVT production" display_name="LiPON｜NEP89｜1200 K｜NVT production計算" report_figures="23_LiPON_lithium_MSD; 24_LiPON_transport_comparison; 25_LiPON_temperature_RDF" source_frame_index=810 relative_time_ps=81.0 pbc="T T T"
Li       4.64614709       9.65776148       9.75158198
Li       1.29002206      10.17583757       3.96062156
Li       2.55342197       9.34573324       8.37608433
Li       9.08421464       6.58326275       1.94173884
Li       1.90630579       7.12804334      10.12543048
Li       1.76910147       8.09415928       0.21081428
P        7.51022754       6.33664429      11.53005780
P        2.28342982       2.39115791       3.46790346
N        0.44268078       5.77801774       6.13232020
O        3.18443638       6.81668121       1.46943468
O        7.06953783       7.76874613      11.19778285
O        5.64281686       2.28270801      10.84190048
O        9.14276436       6.17450768      11.39828074
O        1.15080792       2.56577567       2.49821612
O        1.69898810       5.16336765      10.46675626
O        6.93681191       5.23094681      10.62140954
Li       9.65845665       3.84186599       2.45995874
Li       4.14221078       2.07851495       1.09996312
Li       7.10292865       8.59660640       9.58314596
Li       1.25628345       0.64218684       8.66631379
Li       3.49745076       5.34645597       5.09413922
Li       7.39240704       2.11637496       1.67654269
P        3.22164333       2.90349781       7.72745299
P        9.54221804       5.71530333       4.66008135
O        1.78795542       2.04953253       4.91870352
O        0.86098031       0.29255457      10.91461995
O        4.15101876       1.84337185       7.05521045
O        7.06173853       9.66823346       3.98118245
O        3.86548393       3.51341761       9.04543625
O        8.27602415       6.57242835       4.96837349
O        1.60416678       8.69442109       5.50611696
O        1.85349125       2.17216282       8.07628093
Li       7.59931637       9.69909998       7.35588313
Li       5.97270205       3.31940397       9.34471906
Li       4.58357120       9.90354767       7.26741859
Li       7.81418136       1.82674582       6.01677298
Li       9.51996133       8.57249438      11.11265683
Li       3.75541387       1.93551616      10.32947759
P        3.89821708       7.83473729       2.37993989
P        1.86440965       4.31127672      11.77420864
O        9.77133834      10.59447326       5.42006860
O        7.40323612       6.10997005       0.69993932
O        4.94368129       8.64884014       1.54938757
O        5.45994062       4.46812608       1.04057982
O        2.87400027       8.90353035       2.98576978
O        0.80678288       3.11851982      11.34163980
O        3.18206420       1.27891488       3.05442754
O        4.46569893       7.23630571       3.65347113
Li       3.19745715       0.65962541       5.79982294
Li       3.87170664      10.43775771       3.06963328
Li       8.64441753       3.99189372      10.98372158
Li       9.79183172       5.93406880       9.73548635
Li       8.72029084       0.33469762      10.42344218
Li       1.41180403       8.06175722       3.45853054
P        2.34114673      10.67653370      11.02270554
P        0.64672344       9.67321452       6.21504030
O        3.32354834       4.04556039      12.09599675
O        3.08392606       4.08349518       6.68951490
O        2.93694939       1.05091895      11.92202726
O        5.48511724       6.11228638       7.64790009
O        2.75588357       9.23531241      11.50428197
O        1.63253026      10.48734025       7.15022176
O        0.72516140       6.05620814       7.47197693
O        3.12212715       0.00448247       9.65980533
Li       3.45804073       5.14491477       9.29805888
Li       8.79996518       0.34775126       3.46038327
Li       3.80349457       8.34811294       5.41372976
Li       8.38770572       8.32060663       5.39369499
Li       3.58464359       5.11333719       1.20435511
Li       6.23771427       7.43997730       3.80335393
P        7.45483000       3.91202252       4.15678158
P        6.30803988       1.12133999      11.68086770
O        4.60074172      10.20282739       4.77958820
O        9.87067599       9.24371381       3.02347139
O        3.18878951       3.75822549       3.43609448
N        9.04836985       4.13674968       4.60558505
O        5.68323528       0.83451211       0.71579990
O        7.09312277       4.97994742       3.03825339
O        7.43035227       2.30009839       3.57002858
Li       6.67380826       8.98739742      12.44174628
Li       1.01460985       3.27685411       9.58000248
Li       2.18175031       7.28151388       7.00083677
Li       5.08343556       4.34444592       6.48889932
Li       5.69503389       1.65149308       7.78204724
Li       7.82167525       5.65716339       8.74345376
P        8.99057596       2.84363784       8.22627842
P        6.04335703       9.90408379       5.27281827
O        7.80657128       1.08249409      11.71162772
O        0.99342620       8.12624323       8.84792815
O        9.66277552       1.77296948       9.04803191
O        0.39061828       6.04436948       3.46864048
N        7.48103635       2.13980577       8.19022129
O        6.00511137       8.25674305       5.71162855
O        4.13778536       6.92209184       9.71178790
O        9.28879443       2.72271151       6.75573655
Li       1.08590678       1.69690551       6.45597416
Li       1.77905454       1.20470818       1.26562973
Li       3.76568389       7.24750906      11.51357902
Li       1.70455405       5.64666181       2.20794749
Li       1.18183170       3.75477687       6.26437631
Li       4.99180991       2.23795668       4.63947776
P        9.35455856       9.53702701       1.46386767
P        7.04007032       4.67564960       1.38229424
O        5.66320120       8.64228301       8.60475603
O        6.52957321       3.91541720       5.30685584
O        7.73958137       9.67142154       1.44701976
O        1.29156248       4.97458391       0.59463184
N        9.89222420       0.23380868       1.01469367
O        7.87885995       3.65138749       0.81690017
O        6.00159964      10.44437917      11.01620217
O        0.09820847       8.47746120       0.59253396
Li       9.65941747       1.96826536      12.36851617
Li       6.76869160       6.67560280       6.71695238
Li       4.40200706      10.10508515       0.22063500
Li       6.29657129      10.19925830       2.21837489
Li       5.22850014       4.03178867      11.57736470
P        9.55274717       8.38750409       8.43836896
P        4.78822415       7.36956005       8.29877177
O        9.10721702       4.18200257       8.90683739
N        9.30384406       8.77696892       6.95131168
O        9.18672667       9.54675263       9.32420733
O        3.62953171       7.99201069       7.38617162
O        6.38110314       0.08430775       6.49618815
O        8.55759805       7.15713234       8.56733643
124
Lattice="9.92562 0.0 0.0 0.0 10.6806 0.0 0.0 0.0 12.4552" Properties=species:S:1:pos:R:3 material=LiPON model=NEP89 temperature_K=1200 phase="NVT production" display_name="LiPON｜NEP89｜1200 K｜NVT production計算" report_figures="23_LiPON_lithium_MSD; 24_LiPON_transport_comparison; 25_LiPON_temperature_RDF" source_frame_index=840 relative_time_ps=84.0 pbc="T T T"
Li       4.54913393       8.71481935      10.50753655
Li       1.06610207       1.75340665       6.36032738
Li       2.83723947       9.14574077       7.84226968
Li       9.52296379       6.61610371       0.24945587
Li       2.02439706       5.63380324       8.25389150
Li       2.95433945      10.58439766       1.26173073
P        6.61234848       6.48686343      11.64927131
P        2.61864520       2.10816773       3.06068959
N        0.30285313       5.49498835       5.67765396
O        3.61022222       6.08373262       1.93985430
O        6.05581344       7.84972124      12.11449953
O        5.81469035       1.94912898      11.38872753
O        7.81519361       6.75634760      10.68548936
O        1.54166457       2.49225549       2.01581100
O        1.99518213       5.42672897      10.12029120
O        5.60936687       5.34912500      11.14625649
Li       1.95623449       5.17548285       1.85050779
Li       2.42200383       2.26755021       9.60942903
Li       8.52256401       9.95977812      11.39136939
Li       5.71721364      10.64073449       8.42385222
Li       2.31150820       7.54760532       5.82825397
Li       5.46499049       1.99652102       3.39162090
P        3.36750183       3.10180982       7.61218186
P        9.31815998       5.41108363       4.32334253
O        1.73043759       2.07275826       4.42592154
O        1.27406286       0.20692748      11.12206098
O        4.10846024       1.79802740       7.13803957
O        6.20536778       0.16517468       3.68553148
O        3.96888607       3.52339779       9.06510386
O        8.29141866       6.59606768       4.51370207
O        0.73182118       8.89086431       5.27350937
O        1.86191982       2.69897718       7.85908552
Li       1.24556969       0.33068768       8.98756174
Li       4.98796802       3.82943332      11.64123857
Li       7.91096588       1.42633065       5.68480455
Li       7.54559577       0.41728381       2.39806913
Li       0.68359482       8.80950539      11.27507923
Li       5.08870775       2.19765428       9.58490779
P        4.36707988       6.91885721       2.93191619
P        1.70431338       4.46439700      11.48835739
O        9.40469678       0.40366159       5.96393881
O        7.11273469       6.17086073       0.76608793
O        3.28326791       7.59394963       3.86428906
O        5.82815916       3.73673651       0.81301341
O        5.25823212       6.17619768       3.90746085
O        0.73140549       3.15979597      11.28199340
O        3.27125182       0.66652258       2.94397611
O        5.05928164       8.20829079       2.52581111
Li       3.49009987       0.29357823       6.40385034
Li       4.93039044       8.34120919       5.02038903
Li       9.43822597       5.76908565       9.71008974
Li       3.88067616       6.09050851      10.20994455
Li       8.67676995       4.12223286      10.97298653
Li       8.02736460       7.48034638       6.21636390
P        2.83977621       0.12343856      11.14014496
P        0.45899239       9.98288313       6.32389816
O        3.06091737       3.95967085      12.14960798
O        3.30349077       4.25050457       6.54426741
O        3.51898200       1.08624724      12.12973911
O        3.86801248       7.84953828       6.74700134
O        3.09813401       9.27517256      11.45669669
O        1.73761082      10.44473793       7.07431658
O        1.18294804       5.98958619       6.46059692
O        3.36780605       0.43797212       9.65070996
Li       5.01920851       1.56970725       0.41053807
Li       8.71517060       9.56161122       4.17184332
Li       4.54182396       4.17383678       4.83274463
Li       5.94617838       5.67422306       5.56919349
Li       3.63376304       7.59952478       0.64225003
Li       6.95750152       7.30246032       3.34663815
P        7.50656838       3.34503097       3.83169439
P        6.89411117       0.87124827      11.48020182
O        4.46707435      10.04072289       5.03436221
O        1.32070546       8.99088479       1.86575808
O        3.83994188       3.07861129       3.11556283
N        8.85400926       3.87743348       4.43858033
O        6.29446692       0.04857342       0.31655671
O        7.21875671       4.44256351       2.65167563
O        8.04779095       2.04663905       3.21003424
Li       9.25561494       0.52666357      10.12424276
Li       0.57970619       1.80940535       0.23776208
Li       7.42324643       8.15625271       9.37354445
Li       0.23776903       3.36046563       9.19281401
Li       5.65228968       2.11953459       6.19384973
Li       7.67811545       9.73475269       6.66078975
P        7.79716169       2.94366795       8.27440029
P        6.02208287      10.29124926       5.02953599
O        8.44600183       1.40088455      11.80947074
O        1.46539278       8.03269093       8.75424158
O        8.74307159       1.87259922       8.91639012
O        0.31332976       5.60625277       3.08545628
N        8.36708815       4.16261438       9.04876255
O        6.80593036       8.99196929       5.22164090
O        6.07611747       6.45840099       6.96703908
O        6.31949566       2.67451640       8.40647405
Li       7.44866896       5.71243556       8.13812113
Li       9.91888395       1.22739023       3.54058917
Li       1.57137722       7.30583452       3.52774318
Li       1.86596676       9.69908873       3.54780523
Li       1.94462676       3.64882393       5.10847253
Li       3.95868443       4.07180873       1.48282547
P        9.69620708       9.43831826       1.60376702
P        7.02701559       4.56195285       1.09875532
O        5.71546547       8.86890775       8.19253219
O        6.32683070       3.06642925       4.79793354
O        8.58930382       8.83032325       2.65048681
O        0.77238278       5.08706103       0.03180149
N        9.71824436       0.28220036       1.43288875
O        8.08885981       3.91061367       0.35166870
O        7.02205437      10.65388955      10.21290654
O        9.40852077       8.89474906       0.16986221
Li       9.55589030       4.39264498       1.55433306
Li       5.63594709       4.37520797       9.45021410
Li       4.37338185       9.91556464       3.15427823
Li       6.44160628       8.96159401       1.05024828
Li       8.39147301       2.14049324       1.01456805
P        9.78316454       8.18637474       8.64451346
P        5.01598653       7.53169906       7.54968184
O        8.25331668       2.77404661       6.74773843
N        9.39482673       9.20978893       7.49958354
O        9.38549576       9.15013653       9.92910264
O        4.46582399       6.60027481       8.65844850
O        6.56430860       0.44406383       6.21559282
O        8.95961754       6.80889382       8.54202758
124
Lattice="9.92562 0.0 0.0 0.0 10.6806 0.0 0.0 0.0 12.4552" Properties=species:S:1:pos:R:3 material=LiPON model=NEP89 temperature_K=1200 phase="NVT production" display_name="LiPON｜NEP89｜1200 K｜NVT production計算" report_figures="23_LiPON_lithium_MSD; 24_LiPON_transport_comparison; 25_LiPON_temperature_RDF" source_frame_index=870 relative_time_ps=87.0 pbc="T T T"
Li       1.76005780       8.49019389      11.55275877
Li       9.38457716       4.47960578       6.18347917
Li       2.39158444       6.25694288       8.81015002
Li       7.07778141       7.16475008       9.46930622
Li       2.83019567       3.99569798       5.90459668
Li       2.23606409      10.46252184       0.93678012
P        6.70318633       5.84939814      11.85444868
P        2.91875818       1.95825055       3.36495353
N        0.42606754       4.60610948       4.49033049
O        5.38079001       8.08241606       2.89436637
O        5.99291744       7.13476738       0.20496281
O        5.67143049       0.69826303      10.67469283
O        8.02616192       6.41106877      11.00954060
O        2.66935949       3.34930747       2.95243389
O        2.98977606       6.99641143      10.81776110
O        5.59400671       5.12705721      11.03979167
Li       6.84317416       6.24073325       2.08445297
Li       6.13670882       1.67996043       8.85654107
Li       9.28887839       0.28954659      11.85598692
Li       3.71686423       1.03034865       9.86917450
Li       3.49925560       8.76349070       5.81405236
Li       8.49041369       0.75108968       3.89018266
P        3.81754430       2.91548752       8.17668950
P        9.50629371       5.87951107       3.79623504
O        1.51643183       1.11487553       3.70584277
O        1.41360202       2.04747935      11.97339379
O        4.20297254       1.37412974       7.95605405
O        6.75980312       0.65341156       4.53895468
O        2.46279082       3.44120946       8.64061578
O        9.51504209       6.93195937       4.95877884
O        1.74529485       9.19368654       5.47925705
O        4.47811182       3.88035202       7.06243090
Li       1.51480961       1.81903831       8.36349536
Li       5.57479343       4.63863016       8.69874394
Li       1.19132327       1.72316105       5.27683213
Li       5.70935172       2.59634926       5.37750067
Li       1.49888051       7.71779687       1.47223236
Li       2.83637070       8.81400799       8.73633552
P        3.99699145       7.47824237       2.42231572
P        2.24497823       6.00366910      11.59705593
O        9.51729832      10.41380452       5.71099827
O        7.20666447       5.13877418       0.66668847
O        4.43071945       5.94601660       2.21961511
O        5.31746859       3.15510955       0.64682012
O        2.96787797       7.67442099       3.55695792
O        1.64557402       5.12176080      10.44751995
O        3.44337031       0.76147942       2.39580944
O        3.43724060       8.29180593       1.26334537
Li       5.71995185       9.55618480       8.42340267
Li       7.68899708       6.29528484       6.32290195
Li       9.59242784       5.53776240       9.59048385
Li       3.96969698       3.92173001      11.11645804
Li       8.77152915       8.06105477      10.78427363
Li       9.26205465       3.32936882      11.86501889
P        1.87525639       0.74001483      11.34903514
P        0.91290788       9.94324433       6.41119718
O        3.10418000       5.01225197       0.01224783
O        4.67727602       3.00729422       9.58525619
O        3.44988779       0.49196043      11.85165858
O        3.66112630       6.54219261       5.77963660
O        1.09660048      10.45375267      12.24295649
O        1.78385478       0.48260331       6.58880259
O        1.39412404       4.49715297       5.24621538
O        1.84960009       0.53447583       9.77132508
Li       2.21588479       3.25720794       0.77564169
Li       6.41658436       7.68498278       4.22619082
Li       4.45611504       5.20418178       4.31621436
Li       4.96276169      10.60831533       3.49950182
Li       4.97232368       5.13872105       0.81876799
Li       6.87242075       8.54697177       1.17462973
P        7.43772055       3.83161837       3.64617821
P        6.38934848      10.01468079      11.09235171
O        4.88376806      10.01114068       5.39632051
O        0.83748860       9.17214807       1.98282250
O        3.80331417       2.04808459       4.67165216
N        8.03357178       5.36079216       3.42031384
O        5.96014303       9.89204117       0.13109064
O        7.84132396       2.96535301       2.06432631
O        7.87681244       3.21464904       5.04128733
Li       9.48419390       9.98958524       9.47983063
Li       9.37574166       6.57487703       0.80982608
Li       4.47513907       7.59657545       9.46065765
Li       1.26607934       3.46462780       9.98146127
Li       8.17805563       0.27063396       7.45635735
Li       7.39888167       2.69196827       6.79698190
P        8.57908753       2.37433401       9.08522191
P        6.35129840      10.20676698       5.53240495
O        7.89349653       9.94398584      11.12037625
O        0.64860795       8.05979013       9.91560090
O        8.27341641       1.00242824       9.52627780
O        0.53815608       6.34598801       2.62857250
N        9.27279896       3.26992989      10.11746594
O        7.07455972       8.90203736       5.57322887
O        4.19733331       8.29121533       7.66574004
O        7.24006301       3.15664709       8.78892654
Li       8.64206551       9.03603286       5.00229400
Li       0.27422759       1.66440500       2.22899288
Li       1.01015261       7.71448217       3.64318173
Li       2.02933700      10.19896993       3.34614111
Li       4.64315321       3.39773633       2.38183587
Li       3.69451504       0.90887649       6.16337839
P        9.14121155       9.26284872       1.91042883
P        6.97786788       3.36372386       0.72246408
O        4.20340330       6.00006397       8.35100830
O        5.91554725       4.06182613       3.78950243
O        8.13717380       9.09861053       3.06256063
O        1.08560698       6.34997828       0.07736627
N        8.98302874       0.14922340       1.66249012
O        7.75114710       2.79324785      12.07363380
O        5.78893889       8.84778502      10.11942578
O        8.81723483       8.29917667       0.69476370
Li       2.59960638       5.41250291       2.96079519
Li       1.71094339       7.00212232       6.19368795
Li       4.48216981       0.55770120       0.84987557
Li       4.45572504       8.50104043      12.00756821
Li       5.95527293       2.75737598      10.59385755
P        0.22038422       7.96919587       8.36986630
P        4.59483097       6.80559791       7.00897680
O        9.36909797       2.38144523       7.66766702
N        0.68459532       9.35422920       7.87469456
O        8.49705787       7.96940627       8.42289838
O        6.11599233       6.64524002       6.76462440
O        6.49209555       0.31988091       6.93885516
O        0.70944264       6.40709664       7.82017359
124
Lattice="9.92562 0.0 0.0 0.0 10.6806 0.0 0.0 0.0 12.4552" Properties=species:S:1:pos:R:3 material=LiPON model=NEP89 temperature_K=1200 phase="NVT production" display_name="LiPON｜NEP89｜1200 K｜NVT production計算" report_figures="23_LiPON_lithium_MSD; 24_LiPON_transport_comparison; 25_LiPON_temperature_RDF" source_frame_index=900 relative_time_ps=90.0 pbc="T T T"
Li       0.54113708       9.82164179      10.90751559
Li       0.27165161       5.65557520       9.75744926
Li       6.40847590       5.64837216       9.94792171
Li       4.83044862      10.57682651       7.43094092
Li       3.60115283       4.27198043       5.81474999
Li       0.63681990       0.92057228       3.24475128
P        7.89028828       4.45493474      11.73651140
P        3.06382805       2.47706904       3.38937110
N        1.16596337       5.63549866       4.33719773
O        4.41929285       8.06432123       4.00250910
O        6.72581876       5.57573520      11.77468467
O        4.94815446      10.62400499      11.85029410
O        9.13274337       5.25138991      11.34961408
O        3.02521696       3.60469406       2.44552416
O        2.62150758       7.65354349      11.50188320
O        7.35803559       3.37055593      10.81676440
Li       6.50735750       6.50383848       1.70388671
Li       9.21745272       0.17027339       7.74774980
Li       6.11498005       9.94506855       0.93563955
Li       3.77725179       1.08190764      10.58412780
Li       4.08413676       8.40692898       6.08485182
Li       8.99987453       1.50367721       1.14287200
P        3.89542948       2.48953847       8.46373363
P        9.52155110       5.94063848       3.57693291
O        1.70088930       2.06500025       3.85990538
O        2.44468077       2.04200491      11.59079088
O        2.81404139       1.31387453       8.81665490
O        6.20086452      10.67292377       3.84271859
O        3.11024076       3.28855449       7.45658771
O        8.76666042       7.14092886       4.38591414
O        2.32472080       8.16440650       6.31833570
O        5.13643929       1.84373415       7.66057046
Li       2.62825537       6.40428592       5.85892015
Li       6.64699224       3.32013146       9.08309193
Li       1.59473793       2.12739309       7.42693720
Li       5.92313792       1.72683942       3.75328827
Li       5.39646419       7.00306222      12.08156747
Li       1.06387870       2.40846579       9.91643839
P        4.03234091       7.66268987       2.58201295
P        2.52589436       6.06970362      11.75962159
O        0.55327743       9.41392389       4.73190238
O        8.08775509       3.68710512       0.74766176
O        3.75034775       6.16861927       2.64775913
O        5.42531322       2.91639725       0.34515929
O        2.55663767       8.23446537       2.31305094
O        1.97514322       5.33414332      10.39973129
O        3.86603790       1.29442621       2.70961266
O        5.10053313       7.93520102       1.46125992
Li       2.50090666      10.31644282       8.84112560
Li       8.18971805       1.34654180       5.50248925
Li       2.69710921       5.02292477       8.25633688
Li       5.65815337       4.13237980      11.08884608
Li       9.42888989       3.82846398       2.05660297
Li       6.76342535       0.78523278       8.32124566
P        1.28910824       1.41034234       0.06021345
P        1.45082106       9.35594167       5.92499547
O        3.72476259       5.34062077      12.34212335
O        4.41179762       3.20486675       9.78850586
O        2.04301246       0.32810505       0.80880287
O        4.37534589       6.20646554       6.41256905
O        0.66404104       2.35071422       1.05340201
O        2.10971091      10.66910240       6.40148565
O        1.77690645       4.81540972       5.28273103
O        0.37832836       1.03157425      11.37383836
Li       0.54232133       3.99564380      11.76577701
Li       5.76023461       6.91486484       5.00555612
Li       7.99101303       5.63368605       7.32099482
Li       7.33368251       9.62115163       3.08316426
Li       1.68488662       5.96825424       2.08860432
Li       9.23672011       6.74474779       0.16646248
P        7.20780610       4.10099837       3.99236454
P        5.32300098       9.90892088      10.50464644
O        4.55154037      10.26400320       5.72720714
O        9.69620632      10.12788917       2.34333854
O        3.91993045       2.69206729       4.69777348
N        8.46847270       4.69256570       3.35753355
O        6.33046373      10.64701614       9.62368533
O        6.30038002       3.38099380       2.67282142
O        7.60227338       2.75084146       4.51973887
Li       7.78402758       9.68759077      10.29189864
Li       3.49322858       9.91975346       0.58611985
Li       3.22469820       7.87178190       9.82658228
Li       8.25496072       1.45889563      10.53454027
Li       1.56375939       9.87251099       2.17956748
Li       6.67239040       2.65002113       6.40843636
P        8.95649049       2.56728396       7.70810136
P        5.98696890      10.06215326       5.29460625
O        3.91244292       9.87482443       9.79390125
O        0.99900440       8.63152335       9.56332586
O        0.01622187       3.43565559       8.51531976
O        9.51374067       6.28763669       2.13556845
N        7.94358395       3.68570677       7.31798427
O        6.58755468       8.52138472       5.50385925
O        4.51709039       8.05431570       8.06284994
O        8.24706918       1.49589450       8.73388346
Li       6.53881244       8.36970134       8.79036514
Li       1.52323284       8.05992096       0.53050178
Li       8.54180494       8.62285064       6.09845777
Li       3.43660197      10.05132831       4.25728102
Li       4.59084941       4.64027965       3.69329190
Li       3.52682066       1.45083822       5.97867884
P        8.96162596       9.47534868       1.10189361
P        6.54753414       2.68471026       1.23776121
O        4.63759839       5.61240110       9.08683631
O        6.25359280       4.84389081       4.80819648
O        7.66903381       8.63093982       1.40230527
O        1.35918467       5.71883672       0.27727340
N        8.09177547      10.58704045       0.30611073
O        6.85206521       1.22652825       1.88318952
O        5.81259657       8.41713169      10.67021449
O        9.80864700       8.79413819       0.03651952
Li       0.49345187       3.33829270       5.84802708
Li       1.21266060       8.05673517       3.76456020
Li       4.35092906       1.63462331       0.85496893
Li       4.16646188       3.88877710       0.98955525
Li       3.48213927       3.59610203      11.56040624
P        9.88600662       8.28843916       8.45383532
P        5.04271033       6.59568838       7.89101998
O        9.81318325       1.78675056       6.65028360
N        0.16675645       9.09030403       6.93061336
O        8.61821872       8.95454154       8.82776489
O        6.60178737       6.58293333       7.99688502
O        6.81389160       0.10566513       6.30416131
O        9.76163143       6.84323812       8.24306653
124
Lattice="9.92562 0.0 0.0 0.0 10.6806 0.0 0.0 0.0 12.4552" Properties=species:S:1:pos:R:3 material=LiPON model=NEP89 temperature_K=1200 phase="NVT production" display_name="LiPON｜NEP89｜1200 K｜NVT production計算" report_figures="23_LiPON_lithium_MSD; 24_LiPON_transport_comparison; 25_LiPON_temperature_RDF" source_frame_index=930 relative_time_ps=93.0 pbc="T T T"
Li       1.56097875       6.78869236       6.04795232
Li       9.83389650       3.34751587      11.64476075
Li       7.15847794       5.27581385       8.40973566
Li       3.16279207       8.21267129       9.35900469
Li       2.43177832       1.20925569       6.65544709
Li       9.75788285       1.43173275       5.88101690
P        6.85264210       5.54984092      11.69545009
P        2.78129680       1.73975663       3.18232778
N        0.75580722       4.09994973       5.26726530
O        3.28478568       9.14634372       3.10358276
O        6.01813240       6.56553062      12.43851501
O        4.42307155       9.07669048      10.27616695
O        8.37750504       5.87498541      11.84517321
O        3.18687533       3.17972677       3.45009422
O        2.56845683       6.88277272      10.82602221
O        6.32975663       5.43578236      10.25138122
Li       9.38910333       5.63670721       1.39687025
Li       8.76318107      10.37510075       7.78080324
Li       6.52755033       8.69957470       0.10622136
Li       4.31247923       2.69277171       1.00238480
Li       4.50684032      10.17225679       4.13660236
Li       6.27956704      10.42410532       2.00731752
P        3.71356824       2.89546207       7.89726822
P        0.25895809       5.22441860       4.13855232
O        1.15028298       1.63072374       3.12130073
O        2.98320606       2.11948931      11.23184906
O        3.82892802       1.26478608       7.98991385
O        8.44879220       0.92724455       4.59035717
O        2.52941608       3.72685200       8.48845748
O        1.21821200       6.38556655       4.40815160
O        1.48882009       8.96677137       5.41484268
O        4.04024991       3.22597031       6.41701968
Li       2.76169556       7.76818891       4.54101241
Li       6.49972741       3.52961762      10.48958715
Li       0.82327694       1.16664943       8.83792776
Li       1.19684085       0.26301024       1.50058138
Li       4.38666376       7.34399778      11.19019345
Li       2.03812208       3.30662192      10.27342383
P        4.14827108       8.42962118       1.95273202
P        2.02463230       5.67060616      11.68156127
O        0.84433516       0.22144168       6.92815787
O        6.47271329       4.00225307      12.43887063
O        4.66330071       7.10612348       2.34124286
O        6.25930926       2.62017803       2.13810392
O        3.28595220       8.24081102       0.67796915
O        1.33799748       4.84689551      10.72320975
O        3.54560806       1.12106355       2.04978699
O        5.15607635       9.38429719       1.23087774
Li       3.95458174       0.74218491      10.39913330
Li       4.61020301       4.98960146       9.43774176
Li       1.07038716       4.43080776       7.82052447
Li       2.30734895       5.79992723       8.89866921
Li       0.74751763       3.22191696       1.83741593
Li       6.35883344       1.05863476       7.99177938
P        1.89759505       1.08639659      11.60488585
P        1.42970373       9.41885420       6.85705005
O        2.98220126       4.97177042       0.24746576
O        4.87487828       3.40618957       8.71978303
O        2.44557457      10.49257699      12.32862547
O        3.67919990       6.34776094       5.61268261
O        0.56417433       1.36145578      12.15695760
O        2.75692975       9.20192068       7.68848220
O        0.88354969       2.92244094       5.73139056
O        1.45769709       0.33637626      10.22895792
Li       7.02896455       8.39720484       8.16848767
Li       4.50927330       5.89801189       3.92348147
Li       7.63250192       6.77473012       6.18483554
Li       6.85335584       8.34384092       4.26094472
Li       2.17993131       5.66948016       2.07140813
Li       8.56611297       0.91409262       0.01997732
P        7.16819514       5.17817068       3.95575455
P        5.80000236       9.83713099      10.21350343
O        6.44064026      10.05124429       4.15071724
O        0.21830097       9.60303512       2.93440262
O        3.16120941       0.77993451       4.56268294
N        8.60080447       5.68729430       4.64651553
O        5.57944127       0.43624115      11.14400275
O        7.23931282       4.83492283       2.22387636
O        6.63396181       4.03245365       4.78410623
Li       9.49410233       7.43664980      11.74001974
Li       2.16421988       8.26889869      11.75186736
Li       9.73898887       5.69806263      10.16607223
Li       9.26917096       9.69118468      10.37361105
Li       1.98137227      10.21441214       3.97327630
Li       4.63973437       1.52778557       5.50275465
P        8.55303142       2.51145141       9.39119542
P        7.25547825       0.02744996       5.28447950
O        6.15827982      10.11253037       8.62297910
O        0.63333628       6.06281143       7.93623302
O        7.85993615       2.40266727      10.75275839
O        0.23922025       4.58834867       2.73113344
N        7.36872464       2.97098094       8.39812348
O        7.91981621       9.47571217       6.08261256
O        5.21421817       8.05238580       6.68673804
O        8.98144939       1.30628960       8.79961123
Li       4.41294368      10.32970418       7.96339123
Li       1.29512146       8.35748276       2.14801804
Li       8.57966272       1.39415086       2.85042814
Li       5.27598036       3.30752445       3.52504474
Li       2.65727243       4.08213367       5.14199495
Li       5.88263415       3.86125863       6.64033699
P        9.20105998       9.31409982       1.75856924
P        7.16557824       3.50745403       1.40627157
O        3.79480049       6.45624537       8.29608920
O        6.31524020       6.33795248       4.16777548
O        8.16774480       8.20984679       2.20631505
O        0.81246696       6.30461619       0.16231362
N        8.44717329      10.62974006       1.42042364
O        8.49903816       2.85034461       1.12215048
O        6.94900859       9.05003578      10.77324793
O        0.17179474       8.97182943       0.64706742
Li       8.61051352       4.30417902       6.31274458
Li       9.39890108       9.75400356       4.80492546
Li       4.24276167       0.17961595       0.28203632
Li       4.96344410       5.36507680       1.25102940
Li       6.84908126       6.87122165       1.73996921
P        9.73462771       7.30011051       8.37211565
P        4.54205533       6.63748893       6.89913442
O        9.37058190       3.79663859       9.08537916
N        0.59278721       8.40369252       7.71015413
O        9.64089620       7.44534781       9.98005679
O        5.82134353       5.49996872       7.00871189
O        6.31921982       0.91084346       6.09440908
O        8.26869663       7.01613332       7.80526207
124
Lattice="9.92562 0.0 0.0 0.0 10.6806 0.0 0.0 0.0 12.4552" Properties=species:S:1:pos:R:3 material=LiPON model=NEP89 temperature_K=1200 phase="NVT production" display_name="LiPON｜NEP89｜1200 K｜NVT production計算" report_figures="23_LiPON_lithium_MSD; 24_LiPON_transport_comparison; 25_LiPON_temperature_RDF" source_frame_index=960 relative_time_ps=96.0 pbc="T T T"
Li       6.70622691       1.54951012       8.24559146
Li       9.06478460       5.05524732      10.89572771
Li       6.76731004       6.47393732       8.99108139
Li       3.99891268       8.78794340       4.91863892
Li       1.90703982       1.81524944       5.14748036
Li       8.67713190       8.88482390       4.07759608
P        6.36547776       5.28474280      11.60219085
P        4.28280187       2.19861559       2.72713806
N        0.11549601       3.31677678       4.62238024
O        4.80582145       8.98146215       3.14485422
O        5.78523770       6.73108902      11.21339147
O        5.61062922       0.93267733      11.06087114
O        7.46284885       5.05412304      10.65397955
O        3.83742559       3.32963946       1.80161013
O        2.34497065       7.70781837      11.48549385
O        5.07800616       4.57924294      11.44863560
Li       3.66083986       2.92003128       0.02065792
Li       7.96612219       9.87261179       8.92067163
Li       4.41653247       7.39579807      10.40927997
Li       3.45331013      10.25923638       2.41762901
Li       6.06637336       6.71762452       2.39163827
Li       6.31605029       8.28466314      12.33001518
P        3.76420908       2.81723738       8.21788826
P        0.32636191       4.85201168       5.11280898
O        3.12575214       1.50049839       3.31547460
O        2.15750895       2.21372959      11.69839914
O        3.10888959       2.37272061       6.85484119
O        7.33922600       1.09662269       6.40435635
O        3.03443392       4.21729522       8.66443854
O        0.40456390       4.95663873       6.64120839
O        2.18261842       8.93925928       5.08484068
O        5.28274256       3.00119629       7.80932172
Li       2.90571386       6.16504234       4.73401456
Li       3.03849243       0.26363268       8.73168524
Li       1.64309506       3.45160690       7.41334137
Li       1.46330747       8.67959342       0.63234878
Li       6.07880373       1.23369986       0.45467440
Li       3.82331216       0.98520207      10.99788131
P        3.94456568       7.84534289       2.46269555
P        1.52422382       6.62266175      12.00554251
O        1.02546820       0.28175832       5.60085056
O        6.91781840       5.21371655       0.62734230
O        3.92438664       6.39120878       3.12031726
O        7.42830421       2.66443692       0.87282299
O        2.47123765       8.42887856       2.34710564
O        0.20281959       6.40819035      11.03205530
O        5.12449662       1.20342001       1.89198830
O        4.55926204       7.65105231       1.08743147
Li       0.96830863      10.53629545       9.06937388
Li       3.69010546       5.05443035      10.22110025
Li       1.44798895       6.38424620       6.71728688
Li       2.51975018       8.22311738       8.61823272
Li       1.18363264      10.18800785       3.53771982
Li       3.90220269       4.09984463       5.33241112
P        1.60442433       0.68595147      11.99638469
P        1.45688518       9.55139290       6.34258124
O        2.26931116       5.16154809      12.05609272
O        3.52220671       1.76939601       9.27633506
O        2.53357475      10.65749734       0.42454527
O        3.59123629       6.30443808       6.48991661
O        0.23366793       0.79306615      12.42057499
O        2.40725399       9.77278437       7.49061935
O        9.55821080       2.49274525       3.87143612
O        1.78687090      10.41798700      10.74759532
Li       7.12532624       8.33166532       6.85743735
Li       9.66403366       1.03675367       1.98404028
Li       6.06433745       8.08207049       4.65620662
Li       6.08837572      10.04967805       2.15164563
Li       0.89484619       7.46339191       3.12281493
Li       0.80595206       4.49474048       2.49410035
P        7.45121754       5.07955218       4.59529036
P        5.93704364      10.32225126      10.33028550
O        6.94104516       0.32889013       3.76732180
O        9.56819800       9.17817264       2.58809555
O        4.94924430       2.94584596       3.93072274
N        8.97987345       5.72314937       4.53219530
O        7.03351277       9.44450880      10.82744744
O        7.48781264       4.33812434       2.77658166
O        7.33458847       4.29243443       5.99087570
Li       9.24745583       6.22743452       0.70561818
Li       0.55660511       8.95904007      10.81656340
Li       2.01754547       3.03019160      10.12987878
Li       8.33908357       7.68931970      11.07822253
Li       6.23571440       2.81564126       5.63026676
Li       5.20636323       4.26033536       2.67139173
P        9.31908777       2.47147126       9.19957484
P        6.61249039       0.08085536       5.35275427
O        5.91736401       0.11584626       8.84601248
O        1.13141061       7.08683125       8.40237443
O        8.08446832       1.50732157       9.57575367
O        1.39124430       5.36274934       4.29340066
N        8.44605900       3.43084224       8.26954937
O        7.40972166       9.39560530       5.53356577
O        5.18429870       8.19820068       6.38778091
O        0.59161971       1.91578757       8.37348806
Li       4.52828974      10.05606183       7.32098961
Li       8.76788588       2.82690352      11.94629189
Li       6.96073381       2.17408649       2.86149731
Li       9.05265426       1.34654021       5.71442771
Li       8.87517809       6.86881375       2.94733473
Li       6.58034168       4.42830340       7.55545743
P        8.38982841       9.09292965       1.53901487
P        7.83696967       4.03811440       1.31308718
O        4.26088675       7.33158731       8.56525521
O        6.32630528       6.01057209       4.32204154
O        7.37069945       8.04464481       2.19018242
O        1.09357767       6.73770006       1.03426144
N        7.64447649      10.42910699       1.19551667
O        9.30232632       4.50158185       1.10498738
O        4.65973000       9.49503058      10.71691865
O        9.25857490       8.63243212       0.25864820
Li       6.07266947       2.47153319      10.22583606
Li       9.25559873       5.28454991       7.87092478
Li       8.57068476       0.09314227      11.86270195
Li       3.69084954       8.63294108      12.19587926
Li       3.33878973       5.05329615       1.31447763
P        9.76949226       7.96978558       8.07683437
P        4.77791349       6.84940004       7.12830609
O        9.71454395       3.22209945      10.43341553
N        0.11147551       8.85777359       6.78111981
O        9.60339738       8.93263990       9.32289692
O        5.93332551       6.03650980       7.54030433
O        5.12916139      10.62569088       5.83409998
O        8.40704488       7.30161949       7.76316608
124
Lattice="9.92562 0.0 0.0 0.0 10.6806 0.0 0.0 0.0 12.4552" Properties=species:S:1:pos:R:3 material=LiPON model=NEP89 temperature_K=1200 phase="NVT production" display_name="LiPON｜NEP89｜1200 K｜NVT production計算" report_figures="23_LiPON_lithium_MSD; 24_LiPON_transport_comparison; 25_LiPON_temperature_RDF" source_frame_index=990 relative_time_ps=99.0 pbc="T T T"
Li       5.71910709       2.43636182       5.63491036
Li       0.68316573       9.06341663      11.62023080
Li       9.56862684       4.48545772       7.77341769
Li       3.89956597      10.35132686       4.56472796
Li       3.40471503       4.17464720       5.59714308
Li       8.01894635       3.34512736       5.92046934
P        6.22964706       4.97533986      12.14347544
P        3.97034859       2.08210308       2.92775628
N        9.61566698       3.26638460       4.73763767
O        4.52304278       8.38277864       4.34956919
O        5.32514007       6.27054526      11.94786638
O        5.61887995       0.55070150      10.49617055
O        7.53273178       5.46859749      11.50955554
O        5.16833156       1.26823358       2.07302304
O        2.31279276       7.36508392      11.69004138
O        5.48234321       3.79137172      11.53877693
Li       2.06554560       3.46446644       9.86957982
Li       8.99883300       9.23939523       4.22351654
Li       4.47530758       7.31200402      10.63208644
Li       3.61805455       3.17808478      12.33096322
Li       6.19018840       9.86881758       2.46313513
Li       3.99905602       6.12436622       0.76163126
P        3.69462493       2.55216860       7.66318641
P        0.40131799       4.88804577       5.29843578
O        2.97479852       0.95478650       3.42780012
O        3.08036929       1.55609828      11.64747271
O        2.55658732       2.68035594       6.58685002
O        7.16708102       1.41943019       6.03068443
O        3.47146656       3.36592121       8.95667922
O        0.92917966       4.92085559       6.81542535
O        0.72898633       8.48304767       5.18283687
O        5.07207670       2.99667726       7.09815837
Li       3.69475257       6.56793843       5.05829187
Li       8.81776571      10.40330589       7.44152023
Li       2.26735086       0.26810321       9.26473302
Li       2.42914363       9.09973825      10.89322522
Li       6.38943667       2.19313217      11.35611293
Li       6.62956819       0.57341196       8.08280754
P        4.03196696       7.70689666       2.99466132
P        1.77805513       5.93755181      11.51816174
O        1.35882117       0.17699517       6.23582846
O        6.63713601       4.86369048       1.33337680
O        4.10062228       6.20969936       3.01801782
O        7.37359827       2.85144773       2.51759626
O        2.46841723       8.07956933       2.60082799
O        0.28013094       5.79038945      11.09783729
O        4.43085552       2.91269118       4.26583845
O        4.90495083       8.29273642       1.85810665
Li       8.82834126       7.81210733       6.50475104
Li       4.33214324       4.67687247      10.11460230
Li       1.11752543       6.38025127       1.78579959
Li       5.84226229       4.42432929       6.79820732
Li       1.55660920      10.38246007       2.59060469
Li       6.03460108       8.35667618       5.29682889
P        1.79216244       0.87951211      12.33713026
P        0.99782170       9.35357823       6.46208538
O        2.48505323       5.02569740      10.46750471
O        3.61808160       1.14230161       8.06225122
O        2.38515504      10.36975915       0.55334453
O        4.09588925       5.64068382       6.61044354
O        1.13956129       1.90972939       0.90945308
O        2.30026493       8.54048893       7.07023257
O        9.88449318       2.07022586       4.93489438
O        0.67304475       0.68978568      11.09636670
Li       6.49009598       7.37383736       2.24307422
Li       9.27707451       1.59823848       0.55280467
Li       1.83408844       6.84395159       6.55949952
Li       7.84661392       0.04752426      10.80987384
Li       0.05810940       2.49362254       2.84139972
Li       0.95843312       3.74382988       0.37409717
P        7.85677090       5.81501967       4.33794035
P        5.25562712       9.87540321      10.02071500
O        5.15279424      10.62684781       5.87630628
O        9.54592088      10.41561962       2.17238672
O        3.25947680       2.96634003       1.98225829
N        9.24556081       6.19983690       5.04803169
O        5.91507028       9.71393236       8.60778897
O        8.50788933       5.30072950       2.90415666
O        7.15698391       4.90384865       5.24829477
Li       1.05309383       7.13125518       3.96299685
Li       2.99961497       8.69137082       0.85570517
Li       2.51742976       8.74505597       8.65011218
Li       8.96603780       6.39898869      12.27411096
Li       2.25629846       1.12039055       5.26992169
Li       5.61004894       4.62474360       3.65667266
P        8.83954769       2.52153755       9.53304091
P        6.62136310       0.05486652       5.48150114
O        3.57849752       9.96653858       9.79927549
O        9.63202842       6.78701232       8.46738994
O        8.19505376       2.01554395      10.92011974
O        1.58090606       5.40966374       4.46538526
N        8.55781407       3.89477582       9.21981432
O        6.75956347      10.45083859       3.97238034
O        5.70181060       7.49280526       6.74040541
O        8.40499316       1.32613739       8.46761799
Li       4.52941112       9.39214066       7.38460781
Li       9.12559928       3.79595519      11.50088053
Li       6.72022443       1.40451612       3.04518598
Li       1.02311813       1.93506631       7.55804916
Li       6.58165938       7.47318676      11.84447800
Li       7.90762994       5.54922826       9.16810028
P        8.92002422       9.31814922       1.28512338
P        8.00878043       4.08722537       1.89407501
O        3.62437715       7.13241847       8.33900942
O        7.25165284       7.22157666       4.39790642
O        9.85697244       8.15140275       0.62455640
O        1.84090330       5.22156475       0.50183567
N        7.73312762       8.97023488       2.18832231
O        9.05265381       3.70227361       0.78133091
O        5.67849027       8.74813732      10.87245356
O        8.27810243       9.81782041      12.39041379
Li       4.19971389       1.25007830       9.87178187
Li       2.67836653       5.49925872       8.69598527
Li       6.76944999       8.32197280       8.06812222
Li       4.17076925       0.37908466       0.34803901
Li       2.57587868       4.28386998       2.96481368
P        9.65511360       8.20946409       8.91929439
P        4.89718813       6.50217161       7.57983680
O        0.53656434       2.63675917       9.38626854
N        0.14332921       9.15195120       7.75124935
O        0.82007294       8.64351158       9.94248341
O        5.76916453       5.56696530       8.53516999
O        7.31950504       9.55097623       6.32629726
O        8.27866911       8.86198759       9.29479668
124
Lattice="9.92562 0.0 0.0 0.0 10.6806 0.0 0.0 0.0 12.4552" Properties=species:S:1:pos:R:3 material=LiPON model=NEP89 temperature_K=1200 phase="NVT production" display_name="LiPON｜NEP89｜1200 K｜NVT production計算" report_figures="23_LiPON_lithium_MSD; 24_LiPON_transport_comparison; 25_LiPON_temperature_RDF" source_frame_index=1020 relative_time_ps=102.0 pbc="T T T"
Li       6.06714555       3.08795835       4.42272676
Li       8.46565458       8.54134873      11.17445363
Li       8.52500517       3.51208100       6.31631749
Li       0.53680122       7.51511963       3.30337207
Li       3.03485868       5.37422109       7.07175208
Li       7.65715150       5.54909193       8.71155034
P        6.66154157       5.51492228      12.04443493
P        2.96410528       1.77358352       2.65309326
N        0.07885005       3.18443830       4.68480679
O        4.31825572       8.74059518       3.98282015
O        5.48993360       6.35860219      12.23315667
O        5.36830780       9.14591665      11.32375875
O        7.95558211       6.16470392      12.07849687
O        4.06791900       0.81076980       1.95282000
O        2.81696953       6.87965213      11.53933682
O        6.48940734       4.55406506      10.86707283
Li       1.37879338       3.31831242       9.94698779
Li       1.31356946       3.94527016       1.46175504
Li       2.47113015       5.09140872       9.03918042
Li       6.55183707       2.64554045      11.46798294
Li       1.47492792       9.76642258       4.20132217
Li       3.17125153       1.86019097       0.29151076
P        3.69672385       2.59924517       7.51248369
P        0.60568415       4.72647154       4.54959021
O        2.32581557       1.20683101       3.98065437
O        2.26920144      10.38102757       9.96473989
O        4.08148493       2.83089784       6.01498667
O        6.26131047       0.47222148       4.29643289
O        2.62376175       3.72201900       7.99739467
O        1.68250194       5.29876457       5.50761515
O        0.71496701       8.32976894       5.72294800
O        4.87359530       2.93692423       8.56370154
Li       4.88092461       6.58033663       4.72362535
Li       8.78814626       0.51454137       6.72072853
Li       1.30913784       0.28250027       8.45761564
Li       1.28906497       8.32017076       0.33158032
Li       5.78536757       9.93434870       0.67791957
Li       6.31259616       1.84929686       8.80905852
P        3.68471192       8.06992213       2.86173084
P        2.51391560       5.37691164      12.00730677
O        0.62651346       0.07679682       6.68479093
O        6.76223885       4.39955659       0.85156898
O        3.68835391       6.53125311       3.36591112
O        6.76920569       2.86303003       2.83601887
O        2.11258151       8.43537791       2.75207796
O        1.10338659       5.26719223       0.00231412
O        3.50070897       3.25346910       2.90015427
O        4.43046772       8.19491591       1.55147158
Li       7.90107220       1.07624875       3.39144423
Li       4.42291242       4.22084059       9.93532475
Li       2.73035215       8.57593518       9.64442171
Li       6.10874150       4.22474147       7.09301780
Li       7.62085563       8.87911819       4.31852544
Li       7.63402263       7.22291098       6.63258419
P        1.38515659       0.31114818      11.11917256
P        1.18647222       9.34120568       6.73743535
O        2.75244738       4.48715803      10.66281353
O        3.10349731       1.25109265       7.87482879
O        2.04262607      10.13033817      12.31770433
O        4.38610004       6.89084152       6.74220807
O        1.62975527       1.89017961      10.96247680
O        2.67971898       9.28927626       6.49892819
O        9.24757886       2.14481843       4.45144017
O        0.03682416      10.38644614      10.96498721
Li       9.83862794       6.47555564       6.30020477
Li       9.82099961       5.57746412      10.92554600
Li       4.19472175       9.97149837       8.04062097
Li       8.16472006       0.72807388      11.68435038
Li       0.07987264       2.81482488      11.87411178
Li       9.80594061       1.73563842       1.83123813
P        7.59952087       5.51314089       4.44427375
P        6.17578371      10.13193541      10.55041524
O        5.13190339      10.43625728       6.35878853
O        6.74799980       9.15675946       1.92515895
O        1.82916939       1.91011059       1.64855717
N        9.29830146       5.84022181       4.58963065
O        6.41079603       0.76822370      11.58680548
O        7.58368245       5.34613265       2.81025205
O        7.00268308       4.34866486       5.34015511
Li       2.80221023       6.92348930       5.26262101
Li       4.83557400       3.69711279       1.70618060
Li       4.12995117       6.54045116      10.56336822
Li       2.74893336       5.21038882       2.24970026
Li       3.81446181       0.62591557       4.83203973
Li       5.94587740       7.41340787       1.90358764
P        8.83921047       3.27586910       8.91516745
P        6.46977298       0.40477009       5.91631199
O        5.52817534      10.60435830       9.21621470
O        9.13642329       6.86675155       8.16891276
O        9.30635377       3.83304054      10.28151429
O        1.11840122       4.94336727       3.06313602
N        8.07942391       2.03935689       9.54937215
O        7.59446863      10.03357526       6.28625512
O        6.49230493       6.89367448       8.00373474
O        0.16524086       2.79773994       8.06975704
Li       4.43268174       8.81068139       5.74445725
Li       8.97846157       6.65632387       1.09912649
Li       5.50086943      10.09355468       3.16619699
Li       1.48153470       1.84269286       6.10979694
Li       9.27659198       9.48577479       9.35295204
Li       4.32622548       8.10097945      12.29654145
P        8.30327523       9.65450479       1.93538006
P        7.69407892       3.83541213       2.12671195
O        4.40415424       8.07717262       9.02580614
O        6.91342909       6.75672180       4.95727831
O        9.07569757       9.94639459       3.31486346
O        3.50673335       4.89845134       0.70630656
N        9.02686489       8.62177565       1.03342533
O        8.88297289       3.25506699       1.38536553
O        7.57671064       9.50789531       9.96994138
O        8.21643314       0.35804631       1.31050997
Li       3.86133060       1.34065138       9.49177442
Li       1.07548515       4.47052639       7.38592055
Li       6.29247738       8.88887351       8.25735613
Li       1.89667580      10.33019864       1.68044803
Li       3.40417417       3.97980023       4.81204260
P        0.63120889       7.34904283       8.69300071
P        4.94728811       6.85560354       8.21374973
O        7.77399642       3.90675620       8.05298998
N        1.16285278       8.82791618       8.31124004
O        1.56073589       6.20111105       8.27489060
O        4.44861997       5.58980154       8.99463831
O        7.00235780       1.71493711       6.58507880
O        0.68411927       7.27011563      10.21446205
124
Lattice="9.92562 0.0 0.0 0.0 10.6806 0.0 0.0 0.0 12.4552" Properties=species:S:1:pos:R:3 material=LiPON model=NEP89 temperature_K=1200 phase="NVT production" display_name="LiPON｜NEP89｜1200 K｜NVT production計算" report_figures="23_LiPON_lithium_MSD; 24_LiPON_transport_comparison; 25_LiPON_temperature_RDF" source_frame_index=1050 relative_time_ps=105.0 pbc="T T T"
Li       5.04803912       2.32462674       4.92461215
Li       5.92091561       5.36726104       2.25688897
Li       6.98596192       1.24536135       1.83043396
Li       6.59686388       7.27709724       1.36439378
Li       2.62088972       6.06416391       7.31491884
Li       6.37719506       4.41059032       9.04294181
P        6.49702413       5.32760180      11.92531081
P        3.29863323       1.88219413       2.65099896
N        0.06024562       3.25182011       4.89474027
O        4.01071656       8.58623114       4.28814668
O        5.63155147       6.05048040       0.48336129
O        5.08831415       9.25258557      11.25527849
O        7.15295694       6.11265140      10.96881355
O        4.51656855       1.62163969       1.70551236
O        2.56821288       6.91422941      11.55831703
O        5.74245598       3.94116785      11.47184100
Li       2.57398045       2.77113460      10.14547792
Li       1.00996604       4.20407708       1.86078473
Li       8.50772729       5.52239939       9.79542458
Li       4.13722694      10.29636750       4.27371143
Li       0.89901808       0.64670869       3.86298595
Li       3.14686271       3.04502554       0.09438812
P        3.91619358       3.19165099       7.87991045
P        0.36864625       4.84307662       4.99074985
O        2.24392542       2.69836888       1.87207804
O        2.15551524      10.41824738      10.25770493
O        4.58744515       3.42936354       6.48872752
O        7.73958776      10.20432273       5.73440305
O        3.34481684       4.55197325       8.12055534
O        1.43712179       5.25040137       6.01043280
O        0.16619518       9.72923659       5.03329807
O        5.19533329       2.62400271       8.77956322
Li       4.52720569       5.40104475       5.48706381
Li       8.51982418       9.47916214      11.34458821
Li       0.60408932       0.53724652       9.46446883
Li       9.44169924       7.07896371      11.53942666
Li       6.44847746       9.68865586       2.73944778
Li       4.99713750       2.18995074      10.79772271
P        4.02988746       7.81955877       2.93862608
P        2.00718228       5.44209965      12.03881304
O        9.79821060      10.61962661       7.57407017
O        7.85460726       4.89203712       0.41040672
O        4.36380618       6.42197769       3.36547960
O        6.76897195       3.37754855       2.15150827
O        2.62349326       8.05157025       2.37040088
O        0.50644627       5.50442920      11.85567061
O        2.73787857       0.64759746       3.52907613
O        5.11703957       8.53153782       2.02582546
Li       1.67653254       7.97532110       4.45692055
Li       4.75557966       4.91201657      10.30204518
Li       6.03180665       9.56259543       7.62416444
Li       6.20007414       3.87450761       6.55487605
Li       3.30882252       4.61055698       2.73482603
Li       8.44938254       8.92495516       4.22054054
P        2.20023635       0.42409800      11.58975899
P        0.56342366       9.52799726       6.55444848
O        2.74378099       4.24792687      11.22867911
O        2.74843775       2.07499785       7.87016390
O        2.62974141      10.07340433       0.29417637
O        4.26511883       6.78805544       6.61574146
O        3.27144810       1.47097650      11.29036875
O        2.05660517       9.59559914       6.68121950
O        0.66559098       2.10904160       4.96649396
O        0.90037350       0.98853178      11.98238996
Li       8.15384236       5.22526405       7.18772079
Li       6.53274084       7.51855412       9.97114255
Li       8.49154344       9.57808968       8.79301243
Li       9.02114226       1.16946968      12.16187846
Li       0.68725941       1.34808975       1.45743430
Li       2.12301025      10.26289041       2.14699723
P        7.48093361       5.86918271       4.37653140
P        5.86879568      10.17740072      10.27417885
O        6.74492256       0.65293679       3.81934840
O        7.98386487      10.64841994       0.73315380
O        3.69136920       3.07066093       3.69634003
N        8.73314791       5.41092729       5.43510267
O        5.88585913       0.83354455      11.09645567
O        8.16315260       5.36073489       2.85963178
O        6.14926477       5.12717085       4.72831978
Li       3.37953816       8.57719355       6.94983529
Li       8.05292130       3.20424123       4.95021008
Li       3.27435632       7.73591507      10.13140867
Li       0.72462091       6.72931949       2.47930817
Li       3.03540042       0.46385894       6.52365027
Li       3.96633809       8.22292672      12.36935397
P        9.09783776       2.42056853       9.55447477
P        6.56992066       0.61658600       5.27537142
O        5.22319516      10.65320097       8.88372726
O        9.48297471       6.11136163       8.44572914
O        8.20278280       3.52406787      10.24762326
O        0.95238705       5.41309948       3.62326903
N        8.90823059       1.00482049      10.08368237
O        5.12827350       0.28183779       5.81724973
O        6.37560515       5.36136937       7.66055916
O        0.69335059       2.71700609       9.55117495
Li       5.52221068       7.92313908       5.10973441
Li       9.03996861       3.73858521      11.90376384
Li       4.76460685       0.11862590      12.37572117
Li       8.74472251       1.30377820       6.29968583
Li       8.06817402       7.60985291       6.14864984
Li       3.48989071       0.59090355       9.07709980
P        8.97094859       9.50025026       1.41443003
P        8.12625407       4.04155281       1.68835545
O        6.62840482       7.76585828       7.34442954
O        7.47736416       7.39756795       4.42319474
O        0.17394910      10.18324239       2.18951032
O        2.26952207       5.33241423       1.06735458
N        8.17826011       8.68074281       2.39830333
O        9.43671455       3.24882243       1.59004867
O        7.28782646       9.45115208      10.11147399
O        9.50103311       8.63690879       0.23128308
Li       5.62395607       2.62008324       0.73724809
Li       1.22080835       4.20969761       8.52187227
Li       7.11451211       2.30653334       7.74332870
Li       1.61529536       8.52463374       0.09921988
Li       2.37479961       3.15886767       5.23178396
P        0.41618919       7.54957883       8.49676085
P        5.62118077       6.72832770       7.65688555
O        9.05400905       2.41366569       7.92625234
N        0.14901327       8.16112389       7.08191338
O        1.85368286       7.17632838       8.68719943
O        4.94814842       6.79942340       9.11607483
O        6.99743559       2.02125444       5.89929036
O        9.73427084       8.41694607       9.59484165
124
Lattice="9.92562 0.0 0.0 0.0 10.6806 0.0 0.0 0.0 12.4552" Properties=species:S:1:pos:R:3 material=LiPON model=NEP89 temperature_K=1200 phase="NVT production" display_name="LiPON｜NEP89｜1200 K｜NVT production計算" report_figures="23_LiPON_lithium_MSD; 24_LiPON_transport_comparison; 25_LiPON_temperature_RDF" source_frame_index=1080 relative_time_ps=108.0 pbc="T T T"
Li       8.02153218       3.22004792       6.14510717
Li       7.80057860       7.70104232      11.49105804
Li       4.72822915      10.38826138       1.62873922
Li       6.62289885       2.16203770       1.66167549
Li       2.52952212       2.79999381       5.40839345
Li       5.99828005       3.89267985       8.09698760
P        6.92742702       4.67967026       0.16178972
P        3.95869918       2.35735185       3.11489937
N        0.40360211       3.40585770       5.72629376
O        4.26428010       6.65268436       3.25921591
O        5.84492000       5.04508548       1.20127781
O        4.21573593       8.85440690       9.01290451
O        7.22508070       5.83941231      11.77510214
O        4.89610674       1.27454024       2.44860942
O        1.71128377       7.60918297      12.29135130
O        6.19280368       3.54761815      11.88628323
Li       8.56976595       5.68667665      10.30147854
Li       1.97036967       3.62758137       1.04028593
Li       8.44626738       5.53032282       7.41972936
Li       4.83214002       8.59026967       5.57282860
Li       8.16207992       1.82061281       4.24750424
Li       4.57318592       3.18387056       0.60753617
P        3.75759613       2.33803362       8.43522840
P        0.70881023       5.07918998       5.56739463
O        3.26727345       3.31165082       2.02059980
O        1.71396798      10.66563284      10.99815288
O        3.60019107       2.53439536       6.91073201
O        7.38460502      10.29843477       7.09803910
O        4.63925931       0.97728700       8.58750625
O        1.32976279       5.26079255       6.91424990
O        0.70512931       9.98032773       4.92459503
O        2.31403428       2.26937835       8.99450881
Li       6.06635840       6.68256960       4.52735712
Li       9.88594419       3.40069029      12.04132132
Li       0.72575316       0.88543688       9.82939893
Li       3.26205842       8.95239623      12.35361388
Li       6.00647107      10.00082523       3.52529101
Li       7.10426061       2.13974481      11.93080930
P        3.65613993       7.97816087       2.86981514
P        1.82532247       6.13293095      11.77033133
O        1.92905719       0.34934197       7.00339018
O        8.54784977       4.02164859       0.68563890
O        2.07223583       7.99421768       2.70685624
O        7.63365101       3.33080485       2.93795478
O        4.36669593       9.09929894       3.68009149
O        3.04763509       5.64568400      10.99925659
O        2.74879344       1.77565336       3.85845299
O        4.18214974       8.10710854       1.36439826
Li       1.00667568       7.51316744       4.18489585
Li       2.05337744       3.37975853      10.35926197
Li       7.74169265      10.18854038      10.22270356
Li       6.01809665       9.98168014       8.38424891
Li       3.76634531       5.19852865       4.27408293
Li       6.00853774       6.20922234      10.14827086
P        2.39456191       0.86473510      12.03959901
P        1.41804112       9.66555874       6.28818440
O        2.12839883       5.38376546       0.67808251
O        4.57140306       3.51613577       8.89857099
O        2.12318269       0.00882773       0.97640007
O        5.58177052       5.08170992       6.16009956
O        3.78900943       1.33163847      11.94735010
O        2.46451271       8.65669233       6.35861457
O        0.07334253       2.27496463       5.20423064
O        1.62113370       2.18516221      12.29240491
Li       7.39032416       7.89887851       8.03732866
Li       4.69375596       4.40865872      10.75099809
Li       9.51846880      10.66151757       7.77961231
Li       5.84682249       0.68559176      10.96169536
Li       0.47314560       5.30195598       8.60831563
Li       0.44458664       1.29911100       1.45224902
P        8.67463649       6.27450514       3.68758589
P        5.15646905       8.74386348      10.17805418
O        7.42150016      10.46650704       4.69516405
O        8.38295059       9.31552466      11.97486540
O        4.73729020       3.31770094       4.00796958
N        9.33030499       5.94193893       5.00760042
O        4.82063255       9.80304358      11.35947046
O        9.31452582       5.22856194       2.59382922
O        7.20993901       5.86777631       3.56254014
Li       3.48560839       4.71319722       7.82419468
Li       1.24392571       1.05498683       4.22234613
Li       2.44692116       6.81747943       6.82809089
Li       1.39823871       5.99264781       2.03474996
Li       3.61183739       9.50520972       7.54640751
Li       5.01764470       6.78314199       0.60151429
P        8.56021588       2.57732811       9.17504668
P        6.66862479       0.36956510       5.97926834
O        6.63041112       8.86270159       9.70754420
O        8.84884068       7.20174034       8.34796147
O        9.29075072       3.60039751      10.15683084
O        1.83885358       5.13180819       4.45666450
N        9.62226911       1.76654931       8.54952438
O        5.09212813      10.39451882       6.25706004
O        6.53142077       5.95829255       8.32813909
O        7.78819195       3.45007577       8.00819981
Li       8.41188428       9.62592107       3.35958785
Li       0.45481710       8.85404183      11.32315943
Li       1.25866017       9.47817831       1.97151002
Li       1.74309479       3.47588718       3.43614229
Li       8.57761159       9.16721003       5.99900142
Li       3.12343577      10.22450628       9.76361855
P        7.83695448       9.90248383       0.87394255
P        8.89394746       3.76665646       2.19588011
O        6.03562281       7.70645214       6.60763647
O        9.15452099       7.57883848       3.31338297
O        8.98645354      10.54727014       1.83288246
O        0.52155553       5.87188284      11.14901239
N        6.87923303       0.46338217       0.59565304
O        0.13882323       2.87194224       2.29378673
O        4.89891448       7.37456653      10.76730639
O        6.95180695       9.02117886       1.71622384
Li       6.07565305       4.53343243       2.96137453
Li       1.22147827       2.02478292       7.50640292
Li       3.69536249       0.96891775       6.30320748
Li       3.30528239       7.24898034       9.34643079
Li       5.05636681       3.10565851       5.86862789
P        9.90354621       8.25837257       8.48680780
P        5.58118895       6.28448381       7.23376488
O        7.56239666       1.51586744       9.94071909
N        0.24136876       9.21982961       7.27152797
O        1.25154774       7.49749359       8.83691133
O        4.18521327       6.51235032       7.77338100
O        6.61541718       1.87953963       6.22776639
O        9.53197062       9.39455448       9.67100352
124
Lattice="9.92562 0.0 0.0 0.0 10.6806 0.0 0.0 0.0 12.4552" Properties=species:S:1:pos:R:3 material=LiPON model=NEP89 temperature_K=1200 phase="NVT production" display_name="LiPON｜NEP89｜1200 K｜NVT production計算" report_figures="23_LiPON_lithium_MSD; 24_LiPON_transport_comparison; 25_LiPON_temperature_RDF" source_frame_index=1110 relative_time_ps=111.0 pbc="T T T"
Li       0.58516929       5.09055658       9.95537125
Li       6.92226935       8.44447182      11.46030770
Li       6.19985123       3.65732665       8.53843853
Li       5.51416795       6.14696134       2.50927874
Li       3.53687971       4.90823022       3.61492604
Li       5.42204810       6.33783112       9.72321867
P        6.24941461       5.37108084      12.01862670
P        4.40670079       2.00771402       3.17450479
N        0.39655330       2.99850053       4.38134351
O        4.11150381       6.71476395       3.46228180
O        7.19572267       6.59174956      11.91214471
O        5.69519490      10.19581868       8.76142196
O        5.87433585       4.72273167      10.74138007
O        5.18468089       1.31181311       1.95828287
O        2.44233350       7.61243602      12.00713968
O        4.91055826       5.43652332       0.38917841
Li       8.43690097       7.04708177      10.26814388
Li       1.68709341       2.85091062      10.37144872
Li       2.10229928       4.97797380       7.58904918
Li       3.84546718      10.59435304       5.19177048
Li       5.70415207      10.18831336       3.54740216
Li       4.16464401       7.48104161       0.23301066
P        3.42405119       2.31047412       8.23426874
P        0.69917824       4.49767209       5.02245610
O        3.65529580       3.27757393       2.51262043
O        1.69450185       1.19667820      11.09270629
O        4.90361004       2.61615033       7.82781921
O        7.99323896       9.76844518       6.77667101
O        3.28586588       0.97431064       8.89601854
O        0.33061598       4.69692061       6.44687620
O        0.80363914       9.02639015       4.92741521
O        2.60851197       2.57870218       6.83476090
Li       6.34519857       3.96575041       4.95053641
Li       6.93413200       1.60385522       3.21511437
Li       8.71892629       0.20752867       8.04529275
Li       1.09872283       6.63717003       3.25977369
Li       6.03539606       8.02710063       5.35563714
Li       2.86976724       6.62859978       9.84686338
P        3.73300938       8.15498696       3.07026459
P        1.58806958       6.37207153      12.32751021
O        0.99752003      10.61240401       6.94398408
O        7.11059589       4.18085709       0.49630919
O        2.09522797       8.30337419       2.93939777
O        8.03917963       2.94896510       2.66188973
O        4.33415019       9.00270376       4.16689551
O        1.98658676       5.22807329      11.21370174
O        3.40718123       1.00530748       3.68627423
O        4.28800978       8.69062833       1.73220754
Li       3.26197381       6.71022121       5.20160851
Li       3.25288171       4.60138685       0.91822673
Li       9.78296025       0.15523742      11.00431047
Li       1.00918312       1.67114328       7.30731634
Li       1.63375109       0.60933679       2.52770796
Li       3.94262380       4.39984193      11.09559895
P        2.33843523       1.39957054       0.02302167
P        1.39405363       9.24985123       6.35733096
O        1.64534628       5.70804878       1.29160173
O        2.82479896       3.53913028       9.24555030
O        2.35658432      10.66829444       0.64593436
O        4.57143303       5.49042892       5.85082695
O        3.70866737       2.09327469      12.23477889
O        2.91905702       8.98683498       6.58379191
O        0.38394659       1.69922770       3.86757329
O        1.37680165       2.36118524       0.87806172
Li       8.98175374       8.50994531       5.37474362
Li       6.58786159       2.17520361      12.41144104
Li       4.57999277       9.33674571       7.06003876
Li       4.14044044       0.94833486      10.92260447
Li       1.48314149       0.39933025       9.48831983
Li       5.23736620      10.27544065       1.03839100
P        8.62110938       6.32387626       3.43550313
P        5.28745072       9.20770470       9.83312529
O        7.58622488      10.24880848       4.21590554
O        8.52533318       9.51848487      11.76355769
O        5.61685362       2.42277639       4.07917718
N        9.78202243       5.57681001       4.20167870
O        5.32767618      10.08352913      11.11637168
O        7.62128777       5.57520613       2.47763382
O        7.83300429       7.34176771       4.33461813
Li       4.08228168       3.19966415       5.95302259
Li       0.03154898       2.29156342       1.89018047
Li       2.49333798       9.15325210      10.61179453
Li       0.73390253       4.75476071       2.45697451
Li       7.14000346       8.33687524       7.55703717
Li       7.52866530       8.91418862       2.88689904
P        8.78311339       2.65886819       9.66521491
P        7.16343202       0.02984802       5.72355736
O        6.30451710       8.02579510       9.91819806
O        8.87059756       7.24321455       8.58450977
O        9.75957138       3.57879527      10.70594173
O        2.25958681       4.58482714       4.84022642
N        7.60184530       1.97963171      10.41612321
O        5.56969603      10.49957097       6.02473304
O        6.31083091       5.66056697       7.81867019
O        9.65970733       1.44481508       9.15487916
Li       0.26843771       8.67726027       2.69266265
Li       8.90432008       6.16527941       0.67763813
Li       0.63878625       4.04158713      12.31026988
Li       9.56797562      10.41939025       4.71586621
Li       8.23029840       5.46415384       7.36049326
Li       0.14688678       8.57348654      11.71379093
P        8.43504011      10.20924252       0.82603691
P        7.96266321       4.12487883       1.76765321
O        5.06750166       7.64828675       7.05925523
O        9.24952277       7.15317039       2.26974427
O        9.64663080      10.02758005       1.68222828
O        0.18125244       6.76268055      11.74737448
N        8.45842272       1.11063219       0.63147825
O        9.43453715       4.34005746       1.32651268
O        3.82689258       8.75385723       9.52037033
O        6.95525960       9.72621298       1.25268879
Li       2.03815708       1.86781662       4.56492976
Li       8.52304150       2.83567982       6.14967090
Li       3.27693750       7.94163660       8.10519245
Li       2.46726492       9.04738323       0.95896169
Li       5.15148492       0.88798976       7.92971268
P        0.42956096       7.73685185       8.55950507
P        4.95190956       6.08647350       7.19854156
O        8.14449393       3.56914742       8.59998043
N        0.68997243       7.93078807       6.95913774
O        1.33202083       6.49528207       9.06798582
O        3.85608929       6.07322442       8.22293519
O        7.74543299       1.41239523       6.18723551
O        0.80270447       8.90287374       9.56988511
124
Lattice="9.92562 0.0 0.0 0.0 10.6806 0.0 0.0 0.0 12.4552" Properties=species:S:1:pos:R:3 material=LiPON model=NEP89 temperature_K=1200 phase="NVT production" display_name="LiPON｜NEP89｜1200 K｜NVT production計算" report_figures="23_LiPON_lithium_MSD; 24_LiPON_transport_comparison; 25_LiPON_temperature_RDF" source_frame_index=1140 relative_time_ps=114.0 pbc="T T T"
Li       3.91777695       3.82382009      11.22131051
Li       6.25087426       6.96297291       1.44325267
Li       5.16023021       2.76151287       6.03546302
Li       0.18988421       1.45448525       2.42499570
Li       4.86587589       7.02602391      11.11477383
Li       7.71882400       0.44686108      10.55019702
P        6.29906977       4.65317618       0.05189720
P        4.23830868       2.52153506       3.38844287
N        0.08221344       3.16518572       5.21063498
O        2.06728077       7.86695623       2.53357056
O        6.45534615       6.05831543      11.57689869
O        6.62867768       9.57703734       9.63801624
O        5.90183722       3.24462717      12.00440052
O        5.23322985       1.58111636       2.39056352
O        1.23373476       6.89259247       0.00185939
O        5.57473487       5.00547681       1.31769358
Li       8.74460286       5.62438190      11.61388748
Li       1.60192935       3.25422536      10.86004653
Li       1.75203890       2.13090700       4.89106150
Li       0.83120247       2.25850913       7.06927816
Li       3.76037464      10.31920133       4.66995418
Li       8.20284350       5.72926507       7.72228541
P        3.21708443       2.75565818       8.13002265
P        0.10502727       4.86157568       5.37893762
O        3.33587101       3.67193380       2.92627556
O        2.70807528       1.91982640      12.05956323
O        3.59114779       3.58989423       9.50776167
O        7.61307561      10.39502104       6.48768304
O        1.90674063       2.10802950       8.41096511
O        0.11285478       5.21551473       6.95433673
O        0.22919865      10.05371605       4.56422893
O        4.26931003       1.74500726       7.49759814
Li       6.19018520       4.48420865       3.21058145
Li       9.82094711       1.97778731      12.37147000
Li       8.65576929       0.31879419       7.70787753
Li       0.18617322       7.15633285       6.29221061
Li       7.72710090       8.43021948      10.43090326
Li       6.42583038       5.32146439       9.62536174
P        3.63126897       7.77661003       2.68867878
P        2.02802368       5.86924368      11.61602915
O        1.44169025       0.69243263       6.32443815
O        7.89887424       4.63926472       0.35563200
O        4.40869090       9.10199816       2.85731580
O        7.76846131       3.06321012       2.54974648
O        4.16955417       6.93946269       3.77277644
O        3.19415898       6.69629799      10.69867405
O        3.31249769       1.57000000       4.16153045
O        3.93734265       7.47169439       1.20839514
Li       8.63183395       9.15032371       3.78644394
Li       6.06734777      10.05417204       2.54581306
Li       5.47089600       2.52760735      10.09879354
Li       3.30596253       5.51197396       8.30992643
Li       3.34621745       0.31632730       2.64739348
Li       3.78800708       5.14946615       1.70631426
P        2.44459284       0.51111210       0.14041055
P        1.09088272       9.92361930       5.97284313
O        2.83650949       4.82367244      12.40898443
O        2.94523324       3.74639597       6.87839317
O        2.10420091      10.13755962      11.46824850
O        4.19275763       5.92487005       6.37226177
O        3.76391945       0.06035683       0.82891934
O        2.47899511       9.17180510       5.91211714
O        0.00583455       2.05440972       4.51009958
O        1.28316578       0.46919709       1.27782212
Li       8.01601327       8.48742278       6.36925233
Li       3.03862384       0.76549796       9.96640101
Li       5.88892862       7.96619882       4.36195890
Li       6.57448893       1.46844812       0.71591746
Li       2.92364282       8.19758847      12.38235053
Li       4.77031908       9.16627269       0.56795249
P        8.31864239       6.31861694       3.52484378
P        5.19069803      10.10339199      10.18181274
O        6.59454825       1.70727166       5.93096749
O        7.39175714       0.16641515       0.23584179
O        5.20708141       3.15632967       4.35776639
N        8.50110057       5.29724515       4.89568030
O        4.96472464       0.89560649      10.52688525
O        8.91732678       5.52093556       2.21331681
O        6.81265810       6.58022828       3.52686791
Li       6.43851702       1.95177258       3.72045278
Li       8.78704360       0.61385879       4.59750243
Li       3.25535459       0.19440465       7.10508869
Li       1.37787771       3.95344604       2.61064592
Li       5.47958443       9.51592606       7.66425313
Li       0.81586236       8.02861205       4.07989700
P        8.39539289       2.90154159       9.21817341
P        6.39212918       0.22015407       5.63163967
O        5.17446933       9.17395491      11.39273522
O        8.70815912       8.10401575       8.16538728
O        9.56146457       2.50721902      10.21829195
O        1.15468562       5.53065738       4.61222289
N        8.81115723       2.35665083       7.95359057
O        6.80257590      10.63328328       4.22977451
O        6.53135707       4.97376505       6.76262876
O        7.96743991       4.30276553       9.28126985
Li       1.07325976       6.64592331       1.93481007
Li       2.90893072       4.99376097       5.67280253
Li       3.95078602       2.44425126       0.78619619
Li       0.47955079       1.07914306       9.27267010
Li       0.35110902       5.11591305       9.10565223
Li       0.17234555      10.08109661      11.93001748
P        7.82170840       9.62433652       1.08907236
P        8.56177067       4.01869527       1.77455067
O        6.23860824       7.39654392       6.26094719
O        9.19221294       7.52310949       3.80615663
O        9.09417015       8.86692563       0.68236421
O        1.02145613       5.10978360      10.80408954
N        8.34920125      10.56915263       2.24108981
O        9.89647306       3.23890623       1.34147830
O        4.06909080       9.75426351       9.25444401
O        6.55234071       8.77632456       1.23306657
Li       3.74179894       7.80051349       6.02233981
Li       7.83344762       3.23779005       6.23674303
Li       2.43741194       8.84815670      10.00985984
Li       0.24727628      10.00316414       2.25639015
Li       6.01452318       1.29740675       7.86497969
P        0.07416473       8.54254573       8.57853503
P        5.59152237       6.17921027       6.97942071
O        7.26046254       1.89343886       9.43150099
N        0.30822349       9.17344471       7.09509025
O        1.17603206       7.61832582       9.00816327
O        5.20069017       6.38746228       8.53242371
O        4.96186474      10.38476267       6.02411839
O        9.83541416       9.72987015       9.60951610
124
Lattice="9.92562 0.0 0.0 0.0 10.6806 0.0 0.0 0.0 12.4552" Properties=species:S:1:pos:R:3 material=LiPON model=NEP89 temperature_K=1200 phase="NVT production" display_name="LiPON｜NEP89｜1200 K｜NVT production計算" report_figures="23_LiPON_lithium_MSD; 24_LiPON_transport_comparison; 25_LiPON_temperature_RDF" source_frame_index=1170 relative_time_ps=117.0 pbc="T T T"
Li       2.06077440       4.13806580       1.86229670
Li       3.06498884       5.48908152       9.92788616
Li       5.50128599       3.22987820       6.38230939
Li       4.50475069       1.41828843       5.27392680
Li       5.36416875       7.26975029      10.19506937
Li       0.97010627       1.67160080       7.45870255
P        6.28196093       5.33308384      11.83091681
P        3.88693842       2.72094071       3.48271935
N        9.20304798       3.72495053       5.03379656
O        2.44211416       8.26988235       2.92333346
O        6.08432922       6.53136238       0.47969832
O        6.72126239       8.62981020       9.80495928
O        6.59572540       5.70691224      10.46686083
O        4.38599544       3.74763833       2.41347795
O        2.29256483       7.77159694      12.34359739
O        5.19116141       4.07541423      11.85707061
Li       9.87168607       4.83178005      11.68720878
Li       1.61584480       1.98652381      10.29762806
Li       4.17652610       9.14908193       5.86268260
Li       1.12356987       3.06349469       4.84467928
Li       3.25870259       7.62974208       8.23383891
Li       8.35721833       8.68068902       6.27847409
P        3.03574040       2.56957856       8.25962675
P        9.52995391       5.18552387       5.70165254
O        2.33314237       2.78770241       3.43138229
O        4.62134161       1.11398619      12.31734136
O        2.49079470       3.56367188       9.27543706
O        7.42992535      10.42849040       7.65404097
O        2.48750029       1.11052947       8.33065619
O        8.83569295       4.99011390       7.12393136
O        0.30975815       0.46192209       6.27153126
O        4.61021974       2.40277781       7.86176698
Li       5.60042789       4.94074075       2.38975821
Li       9.34286600       1.71758196       0.32766249
Li       6.47563959       1.78513214       8.25803318
Li       8.94572803       9.28632913       3.55583558
Li       6.18470853       8.26348572       1.04704906
Li       5.18450125       4.41089428       9.72327495
P        3.97103030       7.96561932       2.89260521
P        1.33660917       6.62549692      12.23475666
O        2.56820002      10.15130926       5.79147897
O        7.88869566       4.80248962       0.10569052
O        4.63648159       8.74539518       4.08794283
O        7.00613145       3.23784922       1.76641592
O        4.30507223       6.49676522       2.93588824
O        1.71817800       5.69314239      11.05626830
O        4.20213057       1.19262890       3.15896952
O        4.51509965       8.70657859       1.61154396
Li       8.57618279       7.29263343       0.91576772
Li       8.78882111       1.03531178       4.66244241
Li       7.59600537       0.15298352      10.61844496
Li       2.49072196       7.13118356       5.88240167
Li       6.03878993       7.48239439       5.00011577
Li       4.32432137       7.61543318       0.13367762
P        3.11941204       0.95803876       0.00075323
P        0.93713772      10.00743477       5.67876982
O        1.20738055       5.92282771       1.01944080
O        2.12487241       2.77389189       6.89728669
O        2.52188651       0.23803468      11.25471434
O        6.00234884       4.96323605       7.21456630
O        2.50264759       0.23171558       1.19062437
O        0.35887211      10.05899359       4.22133477
O        8.57419271       2.85870426       4.27184611
O        2.48170508       2.38222409       0.14805197
Li       2.93477973      10.35167405       3.43482358
Li       4.76220895       1.70932641      10.10631059
Li       5.03537996       5.30323903       4.73172520
Li       0.72758213      10.45455150      11.37664353
Li       2.57873348      10.09306426       9.31091135
Li       4.08351474       9.66116626       0.26839045
P        8.03238366       6.32185284       3.60817804
P        5.37988937       9.48491126      10.11313805
O        7.25107255       1.70829042       6.07696639
O        9.05905588       0.69243788       1.79402236
O        4.53190582       3.26356229       4.78201127
N        9.16547261       6.46634776       4.66308075
O        5.70107280       0.20261627       9.95641719
O        8.35637629       5.60073644       2.24984547
O        6.76992879       5.56004749       4.42740933
Li       5.84765734       1.11618967       2.11473153
Li       9.09779760       2.75310346       6.59630249
Li       4.47809650       0.36615016       7.80411616
Li       1.31419231       1.62507539       2.34078118
Li       6.27925938       9.00742867       7.96267710
Li       0.94084433       6.10546681       3.56029088
P        8.97827118       2.53767907       9.70196408
P        6.96045081       0.08148451       6.29053619
O        4.58924099       8.87422100      11.29450256
O        8.88901246       7.61561954       8.54262924
O        9.48482013       1.96344462       8.33432134
O        1.17264741       5.29025824       5.87477381
N        7.41435485       2.84606331       9.55244267
O        7.45963214      10.03707939       5.04133803
O        4.38396881       6.10010876       8.74555631
O        9.48429377       3.96794550      10.02216259
Li       6.85053108       3.19527758       3.99864794
Li       2.89991295       4.21216635       5.84438241
Li       4.62559434       2.95743668       0.71875793
Li       9.21646352      10.53544026       8.00027518
Li       7.39713520       4.22570776       8.10081023
Li       9.44581453       8.61047508      10.84793886
P        8.66319447      10.01981819       1.12551787
P        8.24851092       4.11020438       1.47385922
O        5.68812399       7.46837767       6.90939288
O        7.47578231       7.78654364       3.59494498
O        8.92898282       9.84965673      12.09879339
O        9.69074553       6.93774671      11.84682467
N        9.69644162       9.02262761       1.75836911
O        9.38805730       3.21913764       1.54645849
O        4.49631768       9.24141649       8.71335583
O        7.12164081       9.76794042       1.54893949
Li       1.14928787       5.09229462       7.65017742
Li       6.23297226       9.57045382       3.84813713
Li       0.03294429       6.04723135       9.21125859
Li       1.42432919       9.23446866       1.81941850
Li       7.39579790       6.35498481       7.86149658
P        0.49098027       8.25826969       8.07785033
P        4.93416051       6.07413796       7.22071147
O        9.05864365       1.53816320      10.89071635
N        0.36565802       8.68594678       6.48883797
O        1.49535442       7.12205373       8.08855805
O        3.87894163       5.96112808       6.05744921
O        5.47578366      10.51985106       6.20142098
O        0.46412290       9.42072301       9.16381548
124
Lattice="9.92562 0.0 0.0 0.0 10.6806 0.0 0.0 0.0 12.4552" Properties=species:S:1:pos:R:3 material=LiPON model=NEP89 temperature_K=1200 phase="NVT production" display_name="LiPON｜NEP89｜1200 K｜NVT production計算" report_figures="23_LiPON_lithium_MSD; 24_LiPON_transport_comparison; 25_LiPON_temperature_RDF" source_frame_index=1200 relative_time_ps=120.0 pbc="T T T"
Li       1.44633608       7.61708593       1.54522961
Li       4.65774057       5.37230680       9.89709384
Li       5.29837563       2.92739562       6.02120460
Li       3.77574592       0.14351359       8.20642636
Li       4.80465318      10.03288919       0.68932566
Li       2.94596827       3.51366886      10.60494569
P        6.17408276       4.86573525      11.82219880
P        4.24319415       3.29404264       3.52638187
N        0.38927732       2.90639201       4.39196700
O        2.23295933       8.19683359       3.40977176
O        5.08829230       5.47791985       0.29218345
O        5.96256560       8.40439433       9.14764998
O        6.38794320       5.53489202      10.47047448
O        3.54220787       4.53571713       2.90234208
O        1.04864555       7.66851931      11.57373636
O        5.76959069       3.44272163      11.81097259
Li       9.74580791       0.22075841      11.01646329
Li       7.52683120       1.10542428      10.95809083
Li       4.04990732       8.34715343       8.04440188
Li       9.29887550       1.64807088       6.82463283
Li       2.27653428       8.63327100      10.47369670
Li       5.95477307       8.79996138       2.74725699
P        4.33699863       2.82255840       8.54424091
P        0.32112552       4.46727773       5.11300796
O        3.07882209       2.45058690       4.34108491
O        3.99548064       0.91115933       0.03203445
O        5.78279334       2.84915412       8.91714169
O        7.70997924      10.57252011       7.19729209
O        3.67567263       1.65952507       9.43622482
O        8.90709735       4.83875196       5.79420903
O        2.25575746       0.01096765       6.92366918
O        3.89177335       2.57861129       7.07016912
Li       7.16884285       3.90875078       5.18351313
Li       1.58246653       1.41631509       4.03532441
Li       6.33046507       1.13823289       8.60323057
Li       6.24830805       7.72364055       0.29450520
Li       4.28826397       7.24867598      12.15799486
Li       8.17798941       4.32349203       7.31408408
P        3.64417344       8.68390875       2.62503980
P        1.76909602       6.41822039      11.70726827
O        2.61166670       8.48220512       6.12322922
O        7.68617871       5.25222577       0.40118590
O        4.09334365       9.94320426       3.40084368
O        7.38963172       2.98569328       1.85111536
O        4.78074760       7.45944971       2.80544876
O        2.98312447       6.33108385      10.69580158
O        4.69947233       2.35353260       2.37484683
O        3.16302998       8.84738094       1.24495184
Li       9.61323165       5.48396970       0.30233406
Li       7.56756175       8.92402670       5.42951250
Li       6.01424949       1.79751555       1.25469943
Li       2.50599560       5.75849811       7.24987805
Li       2.43381638       7.09639919       4.78796929
Li       4.13524130       3.57039960       1.04666801
P        2.50770847       1.35910952       0.24038251
P        1.45677953       9.48436006       6.31308043
O        2.27750463       6.12953656       0.69232939
O        3.64329987       4.10711773       9.03295502
O        1.49593892       0.42991934      11.83091288
O        4.07672422       6.06659854       5.20539714
O        1.92617515       1.12735240       1.88138994
O        0.83712965      10.10266078       5.00715563
O        9.36153054       2.08530059       3.83084268
O        2.44847422       2.90049483      12.43492901
Li       3.67747369       0.82023136       2.71126357
Li       0.44605415       2.07533063       1.74602269
Li       2.96374363       4.39733220       5.43451169
Li       8.04665776      10.07550497       9.22903920
Li       5.41078717       2.19362701      10.62091193
Li       8.97466263       7.81707687      11.66698243
P        9.02451932       6.48721292       3.31587596
P        5.22567879       9.34513929      10.16268616
O        7.02563737       1.81838154       5.90201784
O        7.14355372       0.55167339       0.66280093
O        5.31184561       3.69982566       4.57132829
N        0.27627822       5.47660739       3.74918970
O        5.80075678       0.11004651      10.20949268
O        7.63547018       5.31283391       3.03658967
O        8.67203271       7.50147691       4.48341116
Li       6.63165814       1.39992284       3.66805767
Li       8.20477912       6.85059866       5.95851801
Li       3.31787396       0.14085026      10.76611709
Li       1.20655055       4.43162164       2.45027130
Li       6.82302230       8.64234641       7.52026797
Li       0.15056122       8.68257174       3.39553085
P        9.45635016       2.42781974       9.54142430
P        6.62592453       0.27045057       6.11429418
O        5.20327339       8.73006473      11.60668358
O        8.47492154       7.39693924       7.68598370
O        0.54618932       1.66861417       8.58011351
O        1.38403848       5.15421874       6.03591894
N        8.36600716       1.21553167       9.32070555
O        6.86966928      10.45511142       4.58847696
O        6.12231133       5.02907171       6.29798392
O        8.96503745       3.69878518       8.87963695
Li       3.41620460       0.82967546       5.92729658
Li       1.85404633       2.13678926       7.18597810
Li       3.94559589       6.07425822       1.68553421
Li       0.72634684       0.00177554       8.76559598
Li       9.20107757       0.16557751       4.12903283
Li       6.97611081       6.94196691       9.61097545
P        8.09470389      10.09363104       0.73866345
P        7.99684649       4.32873180       1.67046018
O        6.24388836       7.38553418       6.12614558
O        9.22395230       7.40831701       1.92773317
O        8.71053426       9.87077645      11.87281801
O        1.03275092       5.22757247      11.25954827
N        9.17320189      10.30653357       1.98473325
O        9.49289527       3.88451195       1.33958340
O        3.75529001       9.49799104       9.60064313
O        7.11122574       8.96343617       1.32784315
Li       0.32771605       5.10861493       8.81886578
Li       4.24366633       8.99339927       5.27232959
Li       0.63526337       3.49966016      12.15859119
Li       1.37862358       9.84008174       1.12289103
Li       5.66831284       5.41500626       3.38643390
P        9.87061285       7.94100046       8.23650005
P        5.16569984       6.31497139       6.30374002
O        9.45475469       2.37051578      11.08849005
N        0.27566297       9.15480927       7.28502830
O        0.89171060       6.69419428       8.21749303
O        4.61835302       6.42076917       7.74311676
O        5.11450408      10.59371044       6.77551555
O        9.76997171       8.64351974       9.57105733
124
Lattice="9.92562 0.0 0.0 0.0 10.6806 0.0 0.0 0.0 12.4552" Properties=species:S:1:pos:R:3 material=LiPON model=NEP89 temperature_K=1200 phase="NVT production" display_name="LiPON｜NEP89｜1200 K｜NVT production計算" report_figures="23_LiPON_lithium_MSD; 24_LiPON_transport_comparison; 25_LiPON_temperature_RDF" source_frame_index=1230 relative_time_ps=123.0 pbc="T T T"
Li       1.76395531       7.86862915       4.02669580
Li       3.41296791       4.53968337       5.88800970
Li       6.27435221       3.85478737       6.26573657
Li       1.54397180       3.48559968       7.45987333
Li       5.39983798      10.41638282       0.36746093
Li       1.96155485       3.68593821       9.87556890
P        6.92604368       4.57819360      11.33707231
P        3.79077766       2.97150470       3.66187879
N        9.47044699       3.06993359       4.57025013
O        4.64118200       8.93111967       3.58905887
O        5.93986501       5.67581709      10.74602817
O        3.34373288       9.93149469      10.01382625
O        8.13244255       4.51180782      10.37423742
O        4.57037599       2.25292876       2.60525459
O        0.39578516       6.99336144      12.13099559
O        6.52584842       3.18320583      11.85727044
Li       1.46173866       2.43733006       2.23439167
Li       7.53990139      10.09021981      10.10366049
Li       4.47475914       0.03547505       7.53364295
Li       6.93536971       6.49002281       9.40918046
Li       3.83151915       8.69514901       8.22416244
Li       8.65174308       7.15975638       1.16160684
P        4.22217773       2.81087358       8.46457140
P        9.76035733       4.29898326       5.69993333
O        2.74461813       3.78576032       2.89117959
O        3.89900586       0.61246561       0.64279946
O        5.58696826       3.00164536       7.78851301
O        7.80388241      10.48668151       6.54075401
O        4.16794275       2.56803181      10.04181804
O        8.73526300       3.97909799       6.78009306
O        1.13817706       0.60774152       6.39297098
O        3.46809845       1.54794537       7.83106594
Li       8.91692788      10.30215717       3.39964436
Li       3.69722665       3.12918186       0.83674287
Li       8.33792540       2.64249465       7.88861534
Li       0.00920803      10.22747185      10.96902291
Li       6.30062546       7.95967811      12.19101666
Li       4.48613521       6.38960162      10.52548199
P        4.17792533       8.31846705       2.24808148
P        1.57809839       6.21409293      11.49952478
O        2.89766123       9.45057957       6.44743844
O        7.36190486       5.54700765       0.24838291
O        4.56302461       6.80003937       2.32125977
O        6.43948649       4.13191726       2.38974043
O        2.64087446       8.14513351       2.11561765
O        2.65086982       7.25199599      10.78024839
O        3.04629330       1.88778968       4.62643318
O        5.06956745       8.81364371       1.08570688
Li       9.51193689       3.74607272      11.30338872
Li       6.77608614       8.85014737       3.73733670
Li       2.46019035       0.18696987       3.62061430
Li       1.68653600       6.98218051       6.49706406
Li       0.60792755       8.52126114       1.83740358
Li       3.59511752       5.31873821       1.72689310
P        2.42815704       0.85768434       0.64489503
P        1.53410217       9.83637884       6.02173340
O        2.27105442       5.44635144       0.28357830
O        3.26744341       4.02866419       8.17489898
O        1.94349054      10.63435084      12.01590820
O        3.97967695       6.45946518       5.89238675
O        1.62330401       0.41640474       1.96037706
O        1.11851550       9.54796262       4.60107095
O        9.73777217       2.16474198       3.82718984
O        2.08850624       2.37817200       0.64599695
Li       5.41759206       0.61844528       3.30635417
Li       6.30037055       2.60409883       1.39769946
Li       1.13660301       2.07458034       5.02220530
Li       1.53911836       8.64612749       9.70781039
Li       5.12524153       1.86230808      11.51302550
Li       8.69675935       1.73128506       0.85577828
P        9.20757423       6.44734685       3.79977680
P        4.89677497       9.68977813      10.18156485
O        6.74406299       2.13020560       5.63328381
O        7.39929698       0.48300495       1.10114289
O        4.57099109       3.76151062       4.76213609
N        9.18548616       5.63614822       5.09707674
O        5.44207315       0.28383884      10.99682223
O        8.15184049       6.04832735       2.59289666
O        8.33975100       7.61400350       4.37055820
Li       4.03662259       1.26279665       6.03557543
Li       8.10393494       5.85521967       6.64011691
Li       2.82112795       0.89984592      10.38570373
Li       1.00787658       5.11348094       1.96316345
Li       6.86939638       9.21835824       7.35931218
Li       5.26536575       5.83777861       4.03611307
P        9.78812210       1.65880777       9.75362882
P        6.80282118       0.56809389       5.57673989
O        5.52972805       9.88366758       8.74357405
O        8.37090050       7.68982974       7.60952992
O        0.97967093       0.57017572       9.62965544
O        1.30465635       4.28698483       5.95233879
N        8.45846467       1.32452380       9.04180811
O        7.10177937       0.21747184       4.16652642
O        6.39227018       5.58890673       6.05701742
O        0.44014803       2.89934560       8.96539434
Li       1.83552202       1.06971470       8.00268136
Li       2.69580438       6.04865296       8.68014748
Li       6.25631547       6.63842303       1.81888082
Li       9.01338699      10.62402251       7.92527122
Li       8.53337597       8.49254314       5.93726663
Li       8.90056116       7.66456361      11.22493719
P        8.10752611       9.82763603       1.02451583
P        7.66679824       4.72755133       1.78168708
O        6.06784888       8.06420560       5.89679425
O        0.50928151       6.94126236       2.95693094
O        8.59150088       9.45261944      12.07134659
O        1.15646256       5.03653415      10.67033362
N        9.57474766      10.05441487       1.62950715
O        8.77236360       3.70177123       1.53833779
O        5.20180693       8.22096166      10.69113358
O        7.40532796       8.77636002       1.69159040
Li       9.46992773       4.66741046       8.69783939
Li       4.22684105       9.21417046       5.25600421
Li       6.80853439       1.83866719      10.33892264
Li       3.37355399       8.88134980      12.39403613
Li       7.88663337       2.69445049       4.06628548
P        9.84319725       8.16206597       8.19001414
P        5.39803021       6.76054790       6.42407910
O        9.49991563       1.99911080      11.17607141
N        0.54284805       9.08555211       7.03890402
O        0.79801628       6.89765153       8.29666643
O        5.43758629       6.91212963       7.96495115
O        5.45143912       0.08345709       5.89726784
O        9.50081081       8.85146405       9.55033423
124
Lattice="9.92562 0.0 0.0 0.0 10.6806 0.0 0.0 0.0 12.4552" Properties=species:S:1:pos:R:3 material=LiPON model=NEP89 temperature_K=1200 phase="NVT production" display_name="LiPON｜NEP89｜1200 K｜NVT production計算" report_figures="23_LiPON_lithium_MSD; 24_LiPON_transport_comparison; 25_LiPON_temperature_RDF" source_frame_index=1260 relative_time_ps=126.0 pbc="T T T"
Li       2.46489856       7.60886659       4.58194216
Li       4.47778585       5.95409851       5.07627528
Li       4.52675659       0.86255109       6.13735395
Li       0.86252943       5.74951259       8.29042850
Li       4.22939343       1.61077922      10.71401859
Li       1.43425148       3.16607950      12.17315540
P        6.84987486       4.77390034      12.02226190
P        3.33027645       4.04652790       4.02772472
N        0.08277274       2.87093760       4.82791544
O        5.46630534       8.52731089       1.73905156
O        5.34853256       5.43720729       0.03057641
O        3.16763561       9.74181207      11.21101043
O        7.70508726       5.63580093      11.00954480
O        4.91612297       4.00921819       3.62452890
O        0.41213821       6.38772292      11.68400183
O        6.89514976       3.20594006      11.97324974
Li       5.08251855       2.09726995       3.43681229
Li       7.95000242      10.22155900      10.44414056
Li       7.20864950       2.95047320       7.16571383
Li       6.80238559       4.03157932       9.57980908
Li       2.97293127      10.15493782       3.81940678
Li       0.78249140       6.46854872       1.72136202
P        4.51135377       2.93177429       8.46810504
P        9.69843069       4.15446027       5.91717778
O        2.28144049       4.08143856       2.92459803
O        4.32336146       3.14589236       1.09294706
O        5.35785650       2.39538482       7.31052400
O        5.90241988      10.09215103       6.41691351
O        5.20288399       3.13484204       9.81551906
O        8.22731687       4.00044147       6.05276678
O        9.58959155       9.65066477       5.72913090
O        3.52401829       1.57734184       8.59187766
Li       6.36042459       7.94775259       4.05155395
Li       4.26872032       5.17143519       9.70384745
Li       4.97476321       3.52894100       5.77956043
Li       1.92408775       0.22132293      11.38775350
Li       5.81108848       7.30928781      10.04687402
Li       4.21197925       7.02217592      11.84183964
P        4.28345318       7.75200196       2.48785342
P        1.56845722       5.73866734      10.93824888
O        1.34787727       0.61233910       6.73774898
O        7.61052056       5.15970258       1.08663131
O        3.47641820       6.75289933       1.52994141
O        7.49592662       2.98749792       2.27605350
O        4.79516392       7.19463321       3.88932888
O        2.60333911       6.70373703      10.33043352
O        3.33372624       2.84477964       4.91061706
O        3.06587621       8.78774791       2.82756411
Li       9.16267184       4.39534135      10.71898485
Li       4.30492503       9.15936779       5.88937224
Li       8.08990817      10.61070794       6.58947532
Li       3.16386481       5.61156557       6.95603806
Li       0.99411724       1.61535425       1.57208495
Li       6.03794713       2.05618505       1.18228525
P        3.67349402       1.66860035       0.99023498
P        1.05814605       9.75377904       6.31020271
O        2.34225956       4.95820830      11.98558257
O        3.33765839       4.11672943       8.25745917
O        4.90901998       0.69274105       0.96345013
O        4.30877156       7.12635784       7.13145382
O        2.63732217       1.13206020       2.15147960
O        2.18960952       9.43887446       5.33122565
O        9.77705724       2.39777343       3.75770626
O        2.71270788       1.64402852      12.25505655
Li       6.35997433       9.63593564       0.22560804
Li       3.55384829       4.91976625       1.84036488
Li       1.71226748       2.45174569       5.96143901
Li       8.63575363       7.08157676      11.91287733
Li       1.94798804       8.16611245      11.00593034
Li       6.21556087       1.77400191      10.90042454
P        9.41328860       6.17400091       3.82891238
P        4.66577311       9.62918198      10.65363949
O        6.66762945       1.42503582       4.90524288
O        9.25617289       8.26904359       1.07328806
O        2.87684113       5.34525407       4.95133008
N        9.81671120       5.44656079       5.15326548
O        5.52994553       0.23843622      10.65857641
O        9.43649139       5.17696465       2.63258817
O        8.05847293       6.95600232       4.06385369
Li       5.70178911       0.29824376       8.16880865
Li       8.50884759       1.64070424      12.23007034
Li       1.52842326       0.25560486       8.33813310
Li       5.91191520       4.30214455       1.88584440
Li       6.56657746       8.86368571       7.62374418
Li       6.87529575       5.23118520       5.30893398
P        9.08314886       1.93313360       9.08503042
P        6.11821907      10.56409819       4.99028522
O        4.39798877       9.37712299       9.19102068
O        8.48388660       9.47152549       8.48018353
O        8.67629664       1.07635734       7.74127618
O        0.75619852       4.05304229       7.15769253
N        8.13599203       1.50942925      10.17639712
O        7.07173701       9.79427688       4.00372104
O        5.31060473       5.08737683       6.45202895
O        8.82258014       3.58699841       8.98453830
Li       1.86631275       3.30533203       8.92829046
Li       2.82064971       8.18909369       8.42801769
Li       6.20609179       7.19958631       0.39582975
Li       8.64282024       7.74977927       5.60273172
Li       9.90270115       8.69355906       2.99600103
Li       7.90938962       2.47384310       4.06527799
P        9.33902076       9.75114478       0.80983104
P        8.59321329       3.99034452       1.69943138
O        6.98487714       6.95865416       6.73099599
O        0.63545293       7.09113086       3.39884587
O        8.11082592      10.37896938       0.00702138
O        1.04202611       4.75341347       9.96224993
N        9.25245066      10.65107709       2.15955731
O        9.73932461       3.56777258       0.80471228
O        5.37469479       8.42253479      11.41796108
O        0.72898052      10.04722060       0.02843389
Li       8.24383254       5.80756400       8.91594375
Li       5.55231797      10.47730863       2.47190392
Li       3.79923062       4.04109588      12.06597050
Li       2.89015887       9.32379770       0.67938849
Li       8.80086367       0.30493936       4.32338562
P        9.90192876       8.63431284       8.54528219
P        5.71651781       6.34831003       7.25702922
O        0.49633543       1.62338031       9.79035561
N        1.08091290       8.55276925       7.43162555
O        9.49017053       7.22337907       9.00944079
O        5.91839804       5.90334191       8.97160207
O        4.77063937       0.17797381       4.30940775
O        0.98543134       9.09493926       9.76438581
124
Lattice="9.92562 0.0 0.0 0.0 10.6806 0.0 0.0 0.0 12.4552" Properties=species:S:1:pos:R:3 material=LiPON model=NEP89 temperature_K=1200 phase="NVT production" display_name="LiPON｜NEP89｜1200 K｜NVT production計算" report_figures="23_LiPON_lithium_MSD; 24_LiPON_transport_comparison; 25_LiPON_temperature_RDF" source_frame_index=1290 relative_time_ps=129.0 pbc="T T T"
Li       0.97280345       8.56392901       3.48029515
Li       2.20407513       6.63597065       5.30884724
Li       2.10498166       9.01555328      10.96284591
Li       3.45015830       4.61888792       8.91780756
Li       4.74454057       1.01009777      10.93053729
Li       2.58039644       2.47299533      11.43994848
P        7.18729754       5.08481518      11.87930049
P        3.70585979       3.97441748       4.09841763
N        9.63145719       3.38126915       5.23646793
O        5.35466111       8.28052130       1.49047911
O        6.27793783       5.81289093       0.40301674
O        3.80097862       9.85698218      11.17671686
O        8.26227237       6.06426933      11.33483369
O        5.17288690       4.30162062       3.67804474
O        1.46135568       7.03218113      11.53028372
O        6.40982409       4.60749532      10.53511851
Li       1.93207045       3.23480780       1.54485774
Li       6.04816633       9.63615732       0.26390403
Li       7.85599624       5.86499002       8.64333693
Li       7.48340574       4.11010615       7.05831747
Li       4.36855298       0.59562140       3.93254608
Li       9.68140241       7.09353856       0.32791713
P        3.42501306       1.90984723       8.88107892
P        9.63357296       5.05127754       5.64683218
O        2.67793705       3.43207724       3.14100625
O        4.52574668       3.31270868       0.81250008
O        4.52525814       1.45598472       7.90097221
O        7.15531951      10.02206679       6.78100740
O        4.23115087       2.77302352       9.91958297
O        8.25955050       5.56755506       5.93270889
O        0.06517364       9.95534340       4.68401644
O        2.28324654       0.89278750       8.97047765
Li       4.70984160       6.23194462       4.91814706
Li       0.63805387       4.90231591       8.89402131
Li       4.73891813       2.69780824       6.18862315
Li       6.42142063       0.72262413       2.16539360
Li       5.40936002       6.27373078      10.14378826
Li       7.02869379       7.62264763       1.60677599
P        4.00904326       7.90640240       2.38404727
P        2.41050233       5.79094579      11.26379313
O        1.64668804       0.06649687       6.52511708
O        7.87022510       3.87031202       0.15223686
O        3.43455032       6.44967763       1.94830420
O        7.76021368       2.39245161       2.28775085
O        4.43833339       7.86966169       3.88336471
O        3.78730105       6.11393606      11.66023344
O        3.42206742       2.99010119       5.29927769
O        2.78484620       8.81229708       2.04643734
Li       5.88949198       3.11420135       8.70680916
Li       2.52359635       1.31440820       5.54045764
Li       8.48455514       0.12964864       7.55672802
Li       1.18749614       2.14149557       7.74852815
Li       2.54135663      10.48104406       0.90985307
Li       9.48401792       0.67960945       3.47986170
P        4.58573746       1.81793619       1.02722194
P        0.80602120       9.56638532       5.99661314
O        2.09487677       4.57885308      12.29586389
O        2.80160284       3.06610354       7.97920500
O        4.82756458       1.43796806       2.44300909
O        4.01093835       6.01035886       7.69203830
O        3.16873069       1.39857192       0.48378890
O        1.77864023       8.38471813       5.69476064
O        0.52978179       2.48043153       4.73500633
O        5.82023713       1.04027222       0.15335690
Li       7.79053711       8.44131572      10.70833327
Li       1.74115598       5.94764207       2.92394621
Li       2.61065234       9.96602138       8.19973360
Li       0.16754877       6.52727190      10.41519578
Li       2.33411633       7.66901943       0.59652854
Li       7.48619429       1.99451581      12.25804520
P        9.08802272       6.33143933       3.15719866
P        4.83285434       9.36751418      10.09398323
O        6.75405134       1.86205580       5.61368094
O        8.09686492       8.65601986       0.51086037
O        3.04999366       5.25138683       4.55848416
N        9.88982885       5.77045679       4.28732441
O        5.99031419      10.48270515       9.89213311
O        8.33116784       4.91898315       2.55292945
O        8.08959838       7.29282702       3.60885435
Li       5.95196559       0.24159940       8.00818810
Li       0.17322913       3.96544576      11.30892515
Li       0.55518660       0.10543345       9.93556263
Li       3.61294543       4.98401203       0.95120341
Li       8.26374900       8.47122586       6.08336251
Li       2.61432319       4.54249813       6.67409316
P        8.72533935       2.44886287       8.94546803
P        6.57121490       0.34501687       5.55663644
O        4.38002603       9.13455652       8.71211644
O        1.30589683       8.91785866       8.87515745
O        8.99991968       1.73396568       7.58240374
O        1.03789204       5.14991282       6.62784902
N        7.45530112       1.99960050       9.56766128
O        7.28361033       0.13098692       4.17217118
O        5.86442871       4.57175957       6.76029083
O        8.82311934       4.02547336       8.76964472
Li       7.55099065       0.32972046      10.64999691
Li       2.75470479       6.96216682       8.91992405
Li       5.72033683       4.54170518       2.02934725
Li       8.94273916       1.63115429       5.71809756
Li       8.39209443       9.45263771       3.58365530
Li       7.00828572       6.16332483       4.49782237
P        9.36314097       9.70734315       0.44982936
P        8.67736626       3.47062869       1.78393260
O        5.45390248       7.16222143       5.90535189
O        0.28284661       6.95572157       2.15446901
O        8.85394758       0.23944780      12.03900308
O        2.21250144       5.34121299       9.76421271
N        9.74279918      10.10910423       2.01449194
O        0.14993323       2.99056978       1.38273385
O        5.85557005       8.26846182      10.62719522
O        0.74226651       9.09949564      12.33101872
Li       6.05820155       8.53940542       7.60099831
Li       4.25778557       8.68416162       5.34978735
Li       4.64220546       4.13950486      11.09600864
Li       4.99038435       7.20198470       0.03282586
Li       7.01041856       3.17774493       4.01627627
P        9.75478358       8.66672952       8.52387870
P        5.40593023       6.10253338       7.11543071
O        9.63924961       2.15971882      10.09666656
N        9.53492478       9.17966641       7.02504697
O        8.82278122       9.50518531       9.34996091
O        6.29780076       6.66060109       8.27797277
O        5.04563191      10.49674852       5.71989177
O        9.58856331       7.18500646       8.77186334
124
Lattice="9.92562 0.0 0.0 0.0 10.6806 0.0 0.0 0.0 12.4552" Properties=species:S:1:pos:R:3 material=LiPON model=NEP89 temperature_K=1200 phase="NVT production" display_name="LiPON｜NEP89｜1200 K｜NVT production計算" report_figures="23_LiPON_lithium_MSD; 24_LiPON_transport_comparison; 25_LiPON_temperature_RDF" source_frame_index=1320 relative_time_ps=132.0 pbc="T T T"
Li       2.74928681       8.98522861       0.42878142
Li       1.68661951       6.20596209       4.29476131
Li       0.72121372       8.10785350      11.06844826
Li       4.81085598       9.11825782       6.76900045
Li       2.06829815      10.28966850       2.32660810
Li       0.30744805       5.21433798       9.43636811
P        6.57031876       4.52001517      12.30518617
P        3.69341049       3.91673577       3.59949541
N        0.04512727       3.01834303       5.26849733
O        5.73252271       8.65160746       1.79277865
O        5.82124546       5.07197178       1.03890084
O        5.91537412       0.29756097      10.86277209
O        7.10439250       5.86963543      11.71043766
O        5.37079287       4.04223701       3.88732432
O        2.33982045       7.90391723      10.59856076
O        5.74445101       3.63517358      11.49920827
Li       0.82187270       2.05994322       0.31334673
Li       5.73290490      10.04017695       0.66619846
Li       4.33700930       4.29830167       8.77552059
Li       7.05195031       3.31878570       7.56121419
Li       1.11586007       3.30633552       3.17894522
Li       0.18004397       8.78291725       3.31275877
P        3.45464137       1.64288398       7.98608164
P        9.67934747       4.64760894       5.64830249
O        3.29191055       4.52310407       2.25467586
O        2.66092990       1.21998039       1.36045208
O        4.93994244       1.99794842       8.48113421
O        6.88984696       1.91960842       6.44349912
O        2.74579089       3.07299966       7.98702871
O        8.18849852       4.80462825       5.88028339
O        1.61072941       8.26071638       4.75090003
O        2.69427475       0.65627855       8.75840005
Li       5.40961651       7.42338056       0.42546677
Li       1.57573655       5.12210104       1.24088785
Li       4.68288257       1.99710836       5.06288539
Li       5.16267994       5.65304609       2.53156784
Li       1.83566413       6.30025126       7.85926054
Li       8.75153131      10.35246753       6.77355155
P        4.45006916       8.54236701       2.84274887
P        2.40870457       6.38901682      11.37074904
O        1.18286279      10.19467861       6.16830895
O        7.89803138       3.59998360       0.21325227
O        3.41706687       7.77256502       2.14274478
O        8.13767632       2.14206810       2.36301450
O        4.95283609       8.20820841       4.25844948
O        3.76613474       6.35664022      12.04177285
O        3.11099889       2.53249083       4.01604191
O        3.76367454       9.92010237       3.03980530
Li       6.53989503       2.44312675      10.20160937
Li       2.54774967       3.62200322       6.18840860
Li       8.82514853       2.17397008       6.70922078
Li       1.75987720       1.48090509       5.17198734
Li       7.52698480       8.39997736       2.07553601
Li       8.92931079       0.62823561       3.71216162
P        3.62688063       1.31325295       0.14299941
P        1.63863852       8.72945293       6.18000709
O        1.26151036       6.58633149       0.01225020
O        3.53696614       1.20195939       6.46543325
O        5.01512129       1.25669696       0.76069704
O        4.28705797       6.15114505       8.44066258
O        3.29552713       0.14595790      11.79514040
O        3.19566460       8.81809569       6.71987889
O        0.22360295       2.07971225       4.31881517
O        3.18567109       2.61842431      11.87927935
Li       8.15776445       8.03666555      10.47585774
Li       2.83651397       3.52554669      10.43624107
Li       0.87388548       0.42784999       8.23493003
Li       7.65570630       5.26285541       9.83728193
Li       1.49120775       7.61566221       1.72572561
Li       6.72622845       1.34642320      12.21215734
P        8.96585542       6.21030601       3.32914849
P        6.10859000       9.59014778      10.33479496
O        5.95890299       0.88155538       4.19526498
O        1.00632098       9.86720249       0.93157131
O        3.06803918       4.94411323       4.68623580
N        0.07993455       5.60592287       4.42364018
O        7.64884206       9.43970492       9.74856031
O        8.19342652       5.13932853       2.49055431
O        8.03221504       7.23600160       3.87405256
Li       4.18702621       0.11285555       9.98055400
Li       9.20792284       5.88165814      12.27316486
Li       8.88899571      10.67174506      11.12542134
Li       3.86521171       4.26643666       0.44037414
Li       6.45019294       7.89514181       5.02334238
Li       3.83176487       6.79764347       5.13210322
P        9.02540210       2.19682915       9.48931949
P        6.79637735       0.61461101       5.51043888
O        5.32800784       9.59478339       8.97020480
O        0.61008159       9.19187443       8.99120059
O        8.58035596       1.10441491       8.53529920
O        0.78147765       4.96802554       6.81306141
N        8.06729138       1.72612880      10.55396658
O        8.27014233       0.16669504       5.13341265
O        5.86990006       4.70158153       7.26012133
O        8.70357849       3.62521939       8.83513413
Li       6.04309474       0.76091137       8.22107762
Li       3.60077020       8.04568171       8.71240198
Li       7.01577132      10.36430080       2.96725831
Li       7.94496179       2.80244534       4.68619119
Li       6.87682802       8.54608409       8.02716258
Li       6.24500090       5.27997742       5.68547868
P        9.39893210      10.05442988       0.96198714
P        8.64865107       3.41334343       1.63382846
O        5.49787097       6.89530804       6.27176652
O        0.21873841       6.91723050       2.46176922
O        8.79004695       9.88282940       2.46901017
O        2.12839171       5.36491880      10.22522878
N        9.08986457       0.79359526       0.35862380
O        0.13295055       3.46979278       1.30894218
O        5.63830051       8.61167916      11.43213742
O        8.73473145       8.83694566       0.34904078
Li       9.26190003       7.16686009       5.79401765
Li       3.68692801       9.98968526       5.27030443
Li       2.00022666       9.95418477      10.30016382
Li       5.30970715       6.58887520      10.69853081
Li       4.49810498       0.94767963       3.05902357
P        9.89515270       8.10049621       8.17387097
P        5.54263363       6.16385001       7.67755796
O        0.56607059       1.90422269       9.97333510
N        0.79019689       7.55451430       6.88604870
O        8.61544698       8.54929607       7.26893642
O        6.64119708       6.68040013       8.65882607
O        6.18002941      10.16271079       6.25441187
O        9.64698959       6.88443602       9.03813217
124
Lattice="9.92562 0.0 0.0 0.0 10.6806 0.0 0.0 0.0 12.4552" Properties=species:S:1:pos:R:3 material=LiPON model=NEP89 temperature_K=1200 phase="NVT production" display_name="LiPON｜NEP89｜1200 K｜NVT production計算" report_figures="23_LiPON_lithium_MSD; 24_LiPON_transport_comparison; 25_LiPON_temperature_RDF" source_frame_index=1350 relative_time_ps=135.0 pbc="T T T"
Li       3.52056745       9.43235401      11.85230489
Li       3.18581754       6.88365885       1.37315613
Li       1.49220428       9.05703459      11.78472006
Li       2.87712465       7.82163816       9.65034361
Li       1.62976541      10.17887403       1.92917634
Li       1.09612857       4.70857987       8.67583053
P        6.06116628       5.48461545      11.99043697
P        4.65061833       3.84261748       3.76655362
N        0.27974880       2.59345350       5.49675010
O        4.20044486       9.17830914       1.12331913
O        5.62643408       6.22647121       0.81203351
O        5.76030316       0.58415524      11.05335259
O        7.06761873       6.23541017      11.00286783
O        5.86258882       3.66770031       4.73920773
O        2.93839837       7.35103980      11.50187871
O        5.11120633       4.73618498      11.11248897
Li       9.61979049       2.29511065       0.18837029
Li       2.62513121      10.29247708       9.39065855
Li       4.68669761       4.06990929       6.24602271
Li       2.06944802       2.76116492       6.05910679
Li       8.50495185      10.35678581       8.19567913
Li       0.46777981       4.14604248      11.36316964
P        3.31080357       2.38752192       8.30778260
P        9.90257126       4.32087814       5.53639376
O        5.38549745       3.16553787       2.61323754
O        1.54128119       1.23936251       1.49246577
O        4.33630971       2.66101255       9.44574972
O        7.76782821       9.46039377       5.86741434
O        2.39160773       3.69940486       8.17544111
O        8.98247346       4.47091784       6.84048805
O        2.36389834       8.06205761       5.62204059
O        2.34039580       1.27359530       8.54787498
Li       3.62815381       4.32753889       0.24744271
Li       2.11185758       1.53343781       3.61847217
Li       7.15343630       3.08187384       3.64770515
Li       1.29173510       4.44551667       1.78342425
Li       2.22219381       6.23916921       6.84112591
Li       2.75669256       6.08306972       4.08071900
P        4.02804397       9.38100193       2.64915164
P        1.94992625       6.12589882      11.66530090
O        2.10521042      10.57736029       5.68394039
O        6.84774349       4.11050884       0.16457383
O        2.69792687       8.56990846       2.95782164
O        8.05659156       2.59641864       1.78549069
O        5.29674190       8.54602222       3.29120331
O        1.97889431       5.14824244      10.55612429
O        3.46864369       2.96414256       4.20382188
O        4.00944542       0.12436718       3.15780762
Li       8.29180704       2.71401962       7.48972712
Li       3.92790204       0.59365773       5.21884408
Li       0.23542983       9.73359697       5.16963378
Li       5.85467040       1.52914799       9.26828092
Li       8.01482017       7.67761624       6.03213477
Li       9.36684256       1.38309037       2.81124400
P        2.25819029       1.55850166       0.02073726
P        2.12080119       9.29272854       6.57536041
O        2.37864647       5.49060816       0.58999837
O        4.26310566       2.27197862       7.00113030
O        3.79004744       1.81535434       0.37044455
O        4.43667044       6.38604591       8.63057617
O        2.23808600       0.39975518      11.49212415
O        3.30681861       9.40525066       7.52589148
O        0.30913986       1.84841466       4.41190839
O        1.63664233       2.58947850      11.61688643
Li       6.06913746       7.79767544       1.53094339
Li       1.22975253       1.67307078      10.13704551
Li       4.45851020       0.00405796       7.34648179
Li       5.62973698       1.91874908       6.13391725
Li       0.65592936       8.20865089       3.10157168
Li       7.16616264       1.24289710      12.24467816
P        8.59229570       6.12364991       3.37260536
P        6.10389127       9.89085928      10.06439575
O        7.81973508       1.15069890       6.57138767
O        9.65316363       9.56849979       2.42514330
O        4.34700183       5.28332216       3.36000053
N        9.13968881       5.24967968       4.52178743
O        5.23184138       8.85191472      10.79000722
O        7.62001898       5.17988159       2.58797843
O        7.72917320       7.21662409       4.25591205
Li       4.97875385       2.38365369      11.23297466
Li       9.00230267       6.18999925       0.93879261
Li       9.12863964      10.54842940      10.85653128
Li       5.79262872       3.83227512       9.50696201
Li       6.02455632       9.06141839       7.36730233
Li       5.78543061       6.57652297       3.92708731
P        8.70069605       2.44224104       9.74954676
P        7.21346914       0.14627571       5.60147790
O        7.53253305       9.29220503      10.25850829
O        1.17350628       8.96559411       9.63472458
O        8.57037703       1.98859068      11.27275233
O        1.40572739       4.94496412       5.61726090
N        9.52053688       3.77249008       9.91033960
O        7.50829167       0.87667906       4.24745370
O        4.78853267       7.03304058       6.27696755
O        7.40388408       2.76644312       8.94769376
Li       7.66008654       7.62446524       9.44789634
Li       3.75322752       5.16130923       9.80453204
Li       5.77025309       9.68714027       0.02419071
Li       7.08105156       5.11916712       5.71463472
Li       8.19450308       8.12376453      11.58538583
Li       4.43307283       8.73714616       5.20251952
P        8.64582922       9.37641819       1.15024695
P        8.06172855       3.98686250       1.26546404
O        6.57072517       7.31514706       7.84149829
O        0.09745000       6.37639485       2.65798382
O        7.65817885      10.61725002       1.06447153
O        0.47572759       6.78293799      11.81001228
N        9.61868484       9.45713112      12.42431654
O        9.47695473       4.38782040       0.64201151
O        5.80188532      10.25111336       8.56650121
O        7.81881607       8.11977825       1.11153942
Li       8.80758513       5.53252578       8.34587317
Li       5.33190906       1.62880052       1.58611760
Li       0.49831106       1.37590235       7.10497137
Li       4.91061911       7.23824912      10.38323333
Li       6.36025765       9.86808669       3.45843314
P        0.79152855       7.98368048       8.46403932
P        5.37167454       6.42804971       7.57429218
O        9.47339162       1.33798303       8.96021399
N        0.67647256       8.90572037       7.13711421
O        9.32837488       7.29025389       8.56281719
O        5.78621706       4.94044403       7.43236522
O        5.38167526      10.51955829       5.58528274
O        1.87083853       7.00230250       8.49992314
124
Lattice="9.92562 0.0 0.0 0.0 10.6806 0.0 0.0 0.0 12.4552" Properties=species:S:1:pos:R:3 material=LiPON model=NEP89 temperature_K=1200 phase="NVT production" display_name="LiPON｜NEP89｜1200 K｜NVT production計算" report_figures="23_LiPON_lithium_MSD; 24_LiPON_transport_comparison; 25_LiPON_temperature_RDF" source_frame_index=1380 relative_time_ps=138.0 pbc="T T T"
Li       5.79950103       2.86044226      10.08454424
Li       3.17601136       5.69759012       2.39862712
Li       2.04166185       9.61776224       1.14686837
Li       3.64657548       3.96353914       0.51766927
Li       0.14268220       8.60593387       3.17938029
Li       4.54352481       5.49542199      10.05352814
P        6.20089039       4.91862080      12.33864931
P        4.54070845       2.98925226       3.34450935
N        0.64529049       3.18186817       5.14273508
O        3.93304221       8.94758828       1.17272319
O        5.50611478       6.05439695       0.47278710
O        5.92253482       0.48913204      10.90835601
O        7.10288332       5.73616679      11.28287353
O        4.91891536       3.64504786       4.62052655
O        3.44503356       6.81135844      11.10310426
O        5.22129639       4.37341401      11.24878973
Li       9.87174507       1.73589138       1.10520009
Li       1.92614165       3.63581166      10.72419560
Li       3.02531105       5.88304473       6.37303514
Li       2.35696506       2.21910610       5.55546550
Li       4.43697017       8.14337364       5.18848696
Li       0.54347071       5.25616921       2.42988497
P        3.23564428       3.21849578       8.27438119
P        0.76310737       4.89667250       5.15730705
O        5.55703478       1.88145721       2.95391986
O        1.79446696       1.06973954       1.60652846
O        4.82056963       3.35143046       8.39824090
O        8.02126416       0.13115639       7.01161194
O        2.61840848       4.48498617       8.86335947
O        0.81825541       5.73036131       6.42891020
O        0.25273340       9.34757470       5.06820556
O        2.66849805       2.06084144       9.08704146
Li       5.19598079       9.87400696       0.14855428
Li       8.97527763       0.13960072       3.82236091
Li       6.22188162       1.52339523       0.17502602
Li       2.30400180       0.31009043       3.40135507
Li       1.44779479       6.95068545       7.70798517
Li       8.28282589       3.39815499       5.05580108
P        3.47978855       8.54142595       2.64694862
P        2.18623115       6.36197718      11.93389503
O        2.17257353       0.08946657       5.57227806
O        6.65245444       3.73497444       0.86059812
O        1.97742460       8.33630768       2.73135962
O        8.57905317       2.68307281       2.59958512
O        4.28296400       7.17546566       3.01168707
O        2.44996345       5.52720966       0.69332764
O        3.30541942       2.11163446       3.66453443
O        4.10366716       9.69246469       3.52785340
Li       9.39194810       5.80410728      10.34798163
Li       4.26559432       0.24441179       4.94543622
Li       4.57279544       0.29001064       2.11578458
Li       3.71989877       0.51045056       7.71748187
Li       7.74949132       8.75559583       5.78702511
Li       1.58485185       2.60399509       3.07386274
P        2.50452536       1.35829644       0.30104960
P        1.49419278       9.39292959       5.95432212
O        1.24921605       7.66635492      12.24630438
O        2.97049943       3.03176055       6.80757061
O        4.07236722       1.11649178       0.53422817
O        5.45473101       6.24966829       8.72426045
O        1.78263960       0.57413546      11.76161597
O        2.68709766       8.35493149       5.68844177
O        0.38398310       2.01579010       4.82396146
O        2.12630129       2.74349358      12.35674711
Li       7.30505940       1.14598612       2.32975973
Li       1.19543844       0.93436509       8.80226536
Li       4.11241307       7.62872613       9.34428283
Li       5.50143252       2.93355444       6.29765853
Li       2.31367363       7.16095968       4.18243704
Li       7.39393413       0.76428945       8.56943953
P        8.30495495       6.15771782       3.73526959
P        5.84739905       9.97751682       9.94714618
O        7.18224391       1.86688584       5.79793622
O        9.11129900      10.11940385       2.09607809
O        4.36985521       4.03113875       2.30704498
N        9.16905652       5.51204239       4.74466493
O        4.66058497      10.30760313       9.01069320
O        7.44698481       4.79541442       3.10134450
O        7.42631584       7.31103945       4.23109823
Li       4.25997568       1.04818850      10.65894325
Li       0.10657257       7.21997761       0.91207302
Li       9.90594687       0.90825578      11.11167919
Li       6.18692168       7.18338770      10.14559277
Li       7.70880533       8.24079989       8.19248068
Li       6.21298629       9.05591137       3.30689442
P        9.05689747       3.13645914       9.44353192
P        7.00526084       0.24271611       5.83312568
O        5.59768183       8.59385754      10.75464230
O        0.33899395      10.08444046       9.61037592
O        7.39161319       2.79341880       9.47241352
O        1.63018167       5.23058443       3.99401488
N        9.23117045       4.56027657       8.72220246
O        7.48231581      10.38517598       4.39094356
O        4.52379616       6.48700460       6.34880512
O        9.63974550       2.04444242       8.40313946
Li       8.35824219       5.73309738       7.44502407
Li       6.55924669       4.20996619       8.47884998
Li       7.37105567       7.13261330       0.65587542
Li       0.89914897       4.04583203       7.46114762
Li       8.90396881       9.23989795      10.75839757
Li       5.43847358       9.21252988       7.53468617
P        8.21244646       9.88161625       0.94387824
P        7.97609012       3.85894508       1.83376939
O        6.62930850       7.62334853       7.16869498
O        9.04885928       6.68310486       2.41701335
O        6.70417839       9.99233374       1.23135723
O        1.07905177       5.55800478      11.22447542
N        8.59840102       0.35691386      12.41829246
O        9.08081118       4.61053918       1.16157518
O        7.17718574       9.72238409       9.21543537
O        8.32688651       8.48570732       0.25400416
Li       0.26254471       4.26725769      12.10774906
Li       2.68436887       9.61317948      10.42775565
Li       9.09238572       1.87099513       6.67870225
Li       4.57658457       7.46240979      12.26463588
Li       5.59397978       5.82610704       3.31739835
P        0.74540690       9.02031778       8.65546398
P        5.84460710       6.30908416       7.26157193
O        9.55097829       2.88796187      10.79846680
N        0.99017649       9.87722384       7.40066561
O        9.70653087       7.81706391       8.84095246
O        6.63247181       4.98236894       7.01083029
O        5.56027454      10.50086059       6.03110116
O        2.15646298       8.57016415       8.95831489
124
Lattice="9.92562 0.0 0.0 0.0 10.6806 0.0 0.0 0.0 12.4552" Properties=species:S:1:pos:R:3 material=LiPON model=NEP89 temperature_K=1200 phase="NVT production" display_name="LiPON｜NEP89｜1200 K｜NVT production計算" report_figures="23_LiPON_lithium_MSD; 24_LiPON_transport_comparison; 25_LiPON_temperature_RDF" source_frame_index=1410 relative_time_ps=141.0 pbc="T T T"
Li       6.11240806       2.87911917       6.15587128
Li       5.39101231       2.81349014       1.39929501
Li       9.31765210       8.41737892      10.71117699
Li       0.22551997       0.37985235      10.98883195
Li       0.14173711       7.18259756       0.96633244
Li       4.77219032       6.46814241       9.59525805
P        6.48374543       5.40961278       0.06004255
P        4.20805265       3.07668963       3.70508769
N        9.52931342       4.37190813       5.09105856
O        4.01252596       9.16292325       0.85397022
O        5.65909743       6.29535361       0.99125382
O        4.75591706       0.09293639       9.60127916
O        6.45026151       5.73223913      11.05719168
O        5.02587240       4.05167454       4.74492862
O        3.23640234       6.07076401      10.44430280
O        5.84639381       3.83305606       0.06554032
Li       5.01399598       1.72472718      10.76345756
Li       0.75084709       3.54311050      11.54191687
Li       4.05685930       5.60784135       5.59704899
Li       2.42178553       3.56287855       6.22237947
Li       6.09622536       8.43996676       4.79070921
Li       2.46589314       5.13562338       3.58047842
P        3.54848438       2.71156620       8.74103221
P        0.45400071       5.60586243       5.63962159
O        5.32562136       2.07006994       3.30502412
O        1.67087711       1.56561712       1.44288813
O        4.25635815       1.86999409       7.76559569
O        7.60368802       9.49439750       6.52312264
O        2.59558156       3.66998116       8.02387176
O        0.25957518       5.70527164       7.17916101
O        0.70402509      10.41424714       4.82979772
O        4.50925427       3.31769998       9.83504906
Li       4.34558304       7.22591536      12.30143298
Li       2.72537745       8.27661747      10.09939709
Li       7.04446558       2.35097010       3.48898071
Li       6.62909577       0.23159265       2.62576759
Li       1.95027771       8.07056415       4.00702068
Li       8.77650997       1.89339831       6.22726238
P        3.94831303       8.81963610       2.29404276
P        2.16184242       6.17303730      11.54637490
O        0.99967014       1.08449500       7.19835199
O        8.00757379       5.30409806       0.57640501
O        2.86264967       9.61702032       3.02498305
O        7.75509230       3.11899317       2.02308131
O        3.67477000       7.37067675       2.89876710
O        2.73071121       5.53777542       0.44898775
O        3.06316105       2.26182878       4.36848284
O        5.38873644       9.04422788       3.01798761
Li       9.14718520       5.62785203      11.34853473
Li       3.41470897       0.80161806       2.88859817
Li       4.31412825      10.27631280      11.68689693
Li       4.32976934      10.55086656       7.18390964
Li       8.83070892       8.24556203       5.98609459
Li       3.77583241      10.31678474       4.94335384
P        2.64904017       1.43235397       0.34729056
P        1.24132720      10.44047916       6.31401467
O        1.77769343       7.77249268      11.62549352
O        2.63755124       1.55544398       9.33250329
O        4.14646501       1.25887965       1.03332613
O        4.57402618       6.00412339       7.62037867
O        2.47396880       0.19011003      11.75221059
O        2.70219309       9.80276617       6.30757066
O        8.64142582       3.54270520       4.92646144
O        2.58740189       2.87689982      12.25449506
Li       1.27074390       1.71512675       4.02518315
Li       0.83547105       1.70466893       8.83546407
Li       3.16102515       8.25842544       7.08279051
Li       2.58376512       5.99080116       7.67995260
Li       1.00045857       9.69751818       3.07545127
Li       8.18616825       9.99586998       8.34490132
P        9.09223340       7.02471861       3.42093949
P        5.20906608       9.36587522       9.48977606
O        6.83348021       1.41509541       7.08177915
O        8.14262859       9.88276593       2.32868051
O        3.66800491       3.88654093       2.59138545
N        9.78675850       6.91850223       5.02211201
O        4.53985005       8.93306231       8.15721434
O        8.73844823       5.47270023       3.10114209
O        7.60278159       7.52825064       3.67878465
Li       5.72153792       1.39576837       8.88063205
Li       2.45553482       9.23888889       0.12150710
Li       9.59509719       2.02663160       0.84973653
Li       7.33700902       7.73629797       9.64536978
Li       6.63928095       4.26995415       9.32141558
Li       8.50197524      10.22689382       4.06302911
P        8.27528983       2.41563157      10.02015730
P        6.79847958       0.14917583       6.10243817
O        4.55764526       8.54566706      10.59990537
O        1.09708933       9.61776194       9.72786212
O        9.06532027       1.02517061       9.66577740
O        2.05123766       5.55708514       5.37148379
N        8.41100440       3.52402081       8.93347903
O        7.31504070       0.72680014       4.78694867
O        5.88330911       6.56097066       5.60125167
O        8.83684214       3.26459490      11.22765232
Li       8.22517132       5.55981171       7.46743967
Li       4.17487582       3.97215532      11.74571789
Li       6.63641797       7.41212596       2.20308642
Li       0.33584842       4.73836525       8.64619949
Li       7.30874721       0.10089229      11.32096304
Li       6.27523909       8.56879688       7.36876846
P        7.85431117       9.72669113       0.80777194
P        8.79571653       4.37572164       1.95453649
O        6.94972861       6.93703032       7.94963696
O        0.19814465       7.87497510       2.60103081
O        6.38994229      10.06207513       0.45871796
O        0.97361499       5.37825085      11.02019446
N        8.74356526       0.19354300      12.35751730
O        0.30012572       4.06241798       1.71101572
O        6.61903228       9.38353511       9.91451649
O        8.20496349       8.29259555       0.43149700
Li       2.12839445       3.78358973       1.46807916
Li       2.59211646      10.67786705       9.45296735
Li       7.54136521       2.84404521       0.06934269
Li       3.85746185       6.00254477       1.57665473
Li       6.48164404       5.97831914       4.01422354
P        0.64039913       8.77979005       8.54916713
P        6.01456827       5.98082507       7.04982083
O        6.87052151       1.95817087      10.42821686
N        0.21834688       9.34384533       7.14640577
O        9.23183236       8.12334520       8.97021288
O        6.57338189       4.52958002       7.20519066
O        5.50135425      10.21847849       5.71171267
O        1.66416624       7.75302412       8.23958035
124
Lattice="9.92562 0.0 0.0 0.0 10.6806 0.0 0.0 0.0 12.4552" Properties=species:S:1:pos:R:3 material=LiPON model=NEP89 temperature_K=1200 phase="NVT production" display_name="LiPON｜NEP89｜1200 K｜NVT production計算" report_figures="23_LiPON_lithium_MSD; 24_LiPON_transport_comparison; 25_LiPON_temperature_RDF" source_frame_index=1440 relative_time_ps=144.0 pbc="T T T"
Li       4.77493744       2.35993689       5.48768593
Li       5.81862332       3.31181159       1.00368014
Li       9.88900306       7.90227588      11.39944079
Li       0.90081950       7.83804259       0.78434189
Li       9.77046632       5.76845105       0.81643905
Li       4.80557783       6.38380781      10.70951471
P        6.35708014       5.35895383      12.17376226
P        3.97266471       4.18735249       3.21505598
N        0.72245197       4.01603710       5.95864224
O        4.22758454       8.80393345       0.91735154
O        5.56709648       6.53578805       0.11754704
O        5.51318552       0.23113609      10.97815510
O        7.41329511       5.56665601      11.03548843
O        4.47137255       5.11705989       4.29886380
O        3.30936858       6.04810941      10.89069307
O        5.51028621       4.09294325      11.76279270
Li       3.55680753       1.39453208      10.42881435
Li       1.02382782       9.91822628      11.41633759
Li       2.25299753       1.98154997       7.14444978
Li       3.65357306      10.51797403       4.70281776
Li       5.55532002       8.45353835       4.14718436
Li       3.13711038       4.86594988       0.78231098
P        3.79549057       3.26293563       8.52119554
P        0.18934470       5.60478755       5.95629226
O        4.10546269       2.80986534       3.72147560
O        4.48262221       1.72556868       0.56479455
O        3.98640532       3.27816458       6.95984260
O        7.76964860       9.93653826       6.08762157
O        2.89124624       4.42877317       8.98228304
O        0.28035295       5.79970110       7.39609976
O        0.73167539      10.49786721       5.22047257
O        5.03392594       3.18091708       9.43180130
Li       4.17707743       6.81274237       1.21168999
Li       4.07676002       9.14278682       6.75249009
Li       7.04167373       2.91535673       4.22826146
Li       1.40248479       3.76783910       1.92634008
Li       3.82405338       4.89915217       5.86300890
Li       7.75151791       6.07513226       8.90567143
P        3.41720757       8.72121725       2.31391499
P        1.91912885       6.32297599      11.54913738
O        2.81076350       0.40656901       6.62540743
O        7.47653859       5.09280539       0.98138778
O        1.87691465       8.39110972       2.20307539
O        7.14846002       2.56199584       1.81254300
O        4.05898866       7.55505354       3.20949545
O        1.72973529       6.08061339       0.61972816
O        2.57941773       4.49630101       2.93368136
O        3.54499450      10.10536616       2.99387064
Li       7.91073209       7.08593385       1.57649691
Li       1.10603917      10.01308546       2.16714541
Li       5.60103472       0.20810750       0.53722578
Li       2.08030202       6.86945825       6.75397548
Li       6.58927548       9.12767493       7.48302080
Li       2.46607789       1.24585802       3.03689137
P        2.91063639       1.81223871       0.27075343
P        1.76438271       9.97293181       6.16314523
O        1.74404225       7.86873431      11.51297078
O        3.09167949       1.86834905       8.81793002
O        2.50452344       3.35736189      12.33302819
O        3.86272236       6.60043445       6.87504890
O        2.63584623       0.61521068      11.81503855
O        2.44545604       8.68624608       6.02521555
O        0.74008478       2.72615960       5.95615348
O        1.86567011       1.84868379       1.60328665
Li       7.64752609       0.30615591       8.68064533
Li       9.53628705       0.32799704       6.70594407
Li       3.15611344       7.54474933       9.27653735
Li       6.64978628       4.05217171      10.17589325
Li       3.39749970       6.85472927       4.96836138
Li       7.81419374      10.40393483      11.11336739
P        8.84507978       5.78443839       3.57843732
P        5.46633438       9.68583544       9.82878770
O        7.21323211       1.73368035       6.41422138
O        9.26958195       9.79108474       2.24262939
O        4.97655605       4.68192221       2.02903849
N        8.82331556       5.94944532       5.17079835
O        5.02514371       9.91444139       8.34285213
O        8.62012212       4.34907693       3.17575092
O        7.65336799       6.70492605       3.26810738
Li       7.24587575       3.56327827       7.25698950
Li       3.39219453       8.62257216      11.78861096
Li       9.30606034       9.73576767       3.96054370
Li       6.12143306       8.35327260       0.72635604
Li       5.69670438       2.32334170      10.96848853
Li       7.14807681       0.61246350       2.19537380
P        8.57714380       2.48479011       9.57300281
P        6.94241372       0.48079421       5.45267738
O        4.45197515       8.67027464      10.35899499
O        1.38569263       7.88596520       8.41661428
O        9.45119975       1.69262877       8.71916406
O        1.46397961       6.25116903       5.21110449
N        8.09034884       3.85589356       8.89184038
O        7.55095337       0.94443589       4.03940522
O        5.73992064       8.03451823       6.18079765
O        9.51938291       2.78827321      10.75040635
Li       1.36881946       5.60441252       8.96822977
Li       3.82031306       4.01546202      10.96043275
Li       5.55583456       6.31552671       3.16427848
Li       1.38795137       3.45665757      10.75724008
Li       8.19647357       2.65499643      11.92465658
Li       7.00581703       7.66780903      10.84706218
P        8.47404125       9.56290002       0.94637269
P        8.13399822       3.72432700       1.67937051
O        5.78760652       6.84464826       8.47078950
O        0.01485086       6.46656786       2.64667950
O        7.02588326       9.99265176       1.27115045
O        0.89235479       5.50659805      10.70916107
N        9.17410749      10.49082300      12.36908076
O        9.48652057       3.38922508       0.95251529
O        6.97955726       9.31475119       9.61333839
O        8.67291853       8.20016091       0.27977680
Li       9.21437064       4.68159867      10.69681183
Li       2.48809566      10.38731429       8.44893861
Li       0.59369049       1.81505321       0.24939644
Li       1.86403885       6.52206918       2.99465271
Li       7.84033340       7.32375998       5.64329415
P        0.19819991       8.71905572       8.47504821
P        5.45431950       6.64966994       6.97745866
O        7.39304496       1.95388294      10.30341022
N        0.69171978       9.77744309       7.38661962
O        0.03332681       9.27505995       9.84209483
O        6.22105376       5.58583439       6.19953802
O        5.57179681       0.00138217       5.07047225
O        8.79679334       8.12316076       7.75226719
124
Lattice="9.92562 0.0 0.0 0.0 10.6806 0.0 0.0 0.0 12.4552" Properties=species:S:1:pos:R:3 material=LiPON model=NEP89 temperature_K=1200 phase="NVT production" display_name="LiPON｜NEP89｜1200 K｜NVT production計算" report_figures="23_LiPON_lithium_MSD; 24_LiPON_transport_comparison; 25_LiPON_temperature_RDF" source_frame_index=1470 relative_time_ps=147.0 pbc="T T T"
Li       2.95044085      10.34234469       9.92534988
Li       7.36526626       0.12367526      10.82854270
Li       0.60409913      10.45138026      10.90478227
Li       9.03821337       9.59932662       3.39025879
Li       4.18630582       6.51834851       2.18510482
Li       2.31547838       3.67068179      10.23399099
P        6.62888494       5.59059242       0.27523047
P        4.00342222       4.24800711       3.45499264
N        9.71269680       4.05316229       5.26790332
O        4.73783348      10.48287651       2.65758622
O        6.22338253       6.46804566       1.43504435
O        5.21452832      10.14228536      11.11873426
O        7.78448349       6.36024706      11.88784338
O        4.91454416       5.14684235       4.36041465
O        2.88140119       5.54921142      11.95001752
O        5.67913674       5.08771695      11.65140069
Li       3.66270790       7.60115380       8.88427754
Li       1.21468895       1.78277883       9.34268793
Li       0.19775009       4.03824015       8.82618263
Li       1.47970867       3.14542732       6.18515529
Li       5.89861033       2.00034246       2.69669495
Li       1.67374767       5.70880077       1.35958035
P        3.54336008       2.59737042       8.46589813
P        0.23296660       5.52763414       5.86561797
O        3.36174865       3.08960506       4.09060021
O        4.24069895       1.88384133      12.33780810
O        3.90299044       1.20796885       8.92627763
O        7.44806270       9.70477854       6.84003843
O        4.24209236       3.20241978       7.21591024
O        9.49862547       5.56914538       7.35913362
O        0.13181157       0.03309249       4.68260620
O        4.14855908       3.49608989       9.64424644
Li       9.05616547       1.50771792       3.73334587
Li       3.61141579       9.75634009       7.41017700
Li       7.94245488       4.11039037       6.67180315
Li       8.13965655       4.86400776      10.78777207
Li       3.78357489       1.75027413       6.00076537
Li       1.30000211       6.33594880       8.21937798
P        3.91774835       9.20273506       2.37137604
P        1.65321742       6.18766116      11.14242668
O        1.77347467       1.21268373       6.24835798
O        7.41520524       4.28656176       0.93852708
O        4.33420214       8.65395000       0.89924541
O        7.18912521       2.98462199       3.27662925
O        4.44005704       8.05980543       3.37430347
O        0.87327496       7.00510187      12.20041934
O        2.67548233       5.03818358       2.83756440
O        2.35853254       9.15412912       2.25145115
Li       8.24296857       7.21317410       0.80732556
Li       0.74835473       8.54832011       1.42747771
Li       3.86949378       9.15598554      11.73830747
Li       4.38362271       4.65547040       6.14487734
Li       6.07559464       8.55617619       7.23813366
Li       1.74736387       0.15577475       1.90907812
P        2.70053927       1.30534881      12.30956648
P        1.14948268      10.55727948       5.78418939
O        2.24208712       6.94099178       9.82224524
O        2.06934034       2.98666855       8.21961658
O        1.76069819       2.12100086      11.50507838
O        4.44871932       6.26644769       7.04533114
O        2.41692357      10.54399098      11.84810616
O        2.07343183       9.51605513       5.11457899
O        9.68718657       2.76091778       5.34799052
O        2.14675427       1.84063130       1.34339939
Li       8.97154186       8.10089107       6.14370605
Li       4.11625887      10.23115339       4.63801439
Li       6.57042798       6.25902584      10.25437243
Li       5.80528528       3.53370082       8.61195795
Li       3.43802643       3.91860297       0.62844412
Li       8.28101463       8.08599025      10.91930106
P        9.10237295       6.49431276       3.48980577
P        5.55988171       9.07353800      10.01443245
O        5.10506411      10.40457485       6.19782627
O        9.32830972      10.30050362       1.87828750
O        4.80923663       4.01442018       2.12179853
N        9.56533493       6.75372447       5.03155210
O        4.74335060       9.24205620       8.72465027
O        8.07541346       5.30620335       3.24801475
O        8.27739275       7.83002194       3.39416379
Li       6.31570373       3.81951961       4.96786498
Li       5.76343399       7.67987327       0.23214418
Li       6.69286794       8.61498301       2.81460743
Li       5.08738721       1.41422176      10.59654124
Li       5.50058139       0.88862616       8.19442712
Li       0.98579324       3.15359705       0.42008183
P        7.91457964       2.01349181       9.67234086
P        6.65763723      10.61513488       5.76339041
O        5.25912829       7.69303526      10.47161991
O        2.01734507       8.28269758       7.79734965
O        8.53284714       2.64975419       8.43218915
O        1.77263220       5.72908663       6.16941926
N        7.68313515       3.09044502      10.75006298
O        7.29097580       1.34979939       5.99495261
O        6.81242397       6.99078675       6.37061424
O        8.85123442       0.85419692      10.08220263
Li       4.45358637       5.84592810      10.16251766
Li       6.05965509       2.83914647      12.37847244
Li       2.96508412       6.99152436       6.35118387
Li       8.95684881       2.00637044       0.01650765
Li       5.28514905       0.22920487       0.61358722
Li       7.98528339       9.82038430       8.37468217
P        8.41220842      10.06196483       0.63078452
P        8.12675299       3.83218044       2.38293790
O        6.55812087       5.71109649       8.57655607
O        0.39659058       6.92630423       2.43275367
O        7.73649638       0.71857606       0.16950684
O        0.84661468       5.04725374      10.42805696
N        9.35107445       9.26678539      11.99805874
O        9.72110250       3.77289862       1.99486787
O        7.01136084       9.26688039       9.77059348
O        7.32001733       9.09622945       0.96567364
Li       8.64473956       6.64475666       8.46143640
Li       8.79928349       1.22202455       7.05786147
Li       1.22790144       3.76433124       3.40307376
Li       2.22175268       7.90917694       3.67919248
Li       5.96833380       7.46937536       4.39273686
P        0.87486276       9.18019726       8.14071322
P        5.99315965       6.01509767       7.19502106
O        6.45414961       1.62021897       9.60297398
N        0.15065330       9.87740080       6.86323350
O        1.45856282      10.41733167       8.88606899
O        6.30972341       4.49547669       6.52013628
O        6.80797179       9.92027958       4.35357419
O        9.69805837       8.30491577       8.85439196
124
Lattice="9.92562 0.0 0.0 0.0 10.6806 0.0 0.0 0.0 12.4552" Properties=species:S:1:pos:R:3 material=LiPON model=NEP89 temperature_K=1200 phase="NVT production" display_name="LiPON｜NEP89｜1200 K｜NVT production計算" report_figures="23_LiPON_lithium_MSD; 24_LiPON_transport_comparison; 25_LiPON_temperature_RDF" source_frame_index=1500 relative_time_ps=150.0 pbc="T T T"
Li       3.79760162      10.01910684       7.90822768
Li       8.02477803       2.05031433       0.20277876
Li       1.46229532       5.93594391       8.48914894
Li       8.38689457       9.53246263       3.42038301
Li       3.49322398       7.38874026       2.30360664
Li       0.85775019       3.43807907       1.35963064
P        6.62544594       5.68245525      11.93006864
P        4.22639801       4.76577204       3.47815056
N        0.38043445       3.17982848       4.70186620
O        4.52438212       0.50158929       2.66378573
O        5.59383995       6.75493112      12.18904925
O        5.55827991       0.38726863      10.47870280
O        7.85350427       6.20360269      11.09862633
O        3.34150309       5.83772042       4.16654566
O        2.29782469       6.48780238       0.91270785
O        6.06820832       4.33828778      11.50199896
Li       3.37887848       9.98395354      11.32396316
Li       0.68066999       0.24867648      10.06000639
Li       4.62456488       4.99247074      10.58467600
Li       0.75591029       2.18567203      10.77585059
Li       6.34650149       0.54984025       2.42984774
Li       9.71506577       8.12173451      11.23370161
P        3.38505559       3.01338028       8.49196733
P        9.91124518       4.35764005       5.93356010
O        5.37240487       4.26617724       4.20646844
O        4.00893828       2.20311214       0.11057779
O        4.61439257       3.22579874       9.46694821
O        7.35284008       0.67720498       3.99767865
O        3.71830400       3.22242508       6.87265519
O        9.43507114       3.55271876       7.12270764
O        0.12529265       9.62652942       4.44830670
O        2.43204080       4.18835025       8.93979960
Li       5.79596195       6.81252432       3.83741714
Li       6.30826914       9.62446892       7.18931270
Li       0.99474090       1.27048443       7.81873295
Li       6.36913096       2.79158407       3.53978890
Li       3.96225235       1.36235644       6.22240921
Li       2.39060142       6.99981158       6.04171184
P        4.20562657       9.71558552       2.18728990
P        1.98749366       6.79027496      11.99155737
O        1.69416166       0.61798401       5.88313290
O        7.01144652       5.52817463       1.02866132
O        4.39575859       9.41799268       0.50229157
O        6.94143405       2.81551691       1.87336088
O        5.13032948       8.58371202       2.89179138
O        1.85973869       8.34130488      11.68180528
O        3.36777091       3.55798708       2.90769752
O        2.72469716       9.18441273       2.49339406
Li       9.13445312       4.76079110      11.39646027
Li       7.20320547       4.62652597       5.08895381
Li       4.44066770       7.94098180      11.53855769
Li       4.29107894       1.91995391      10.57431072
Li       8.28114168      10.44862966       8.10426660
Li       1.47394968       0.12573320       3.52101677
P        2.47641331       1.99324749       0.00169273
P        1.01677271       9.82668744       5.70579374
O        2.99827323       6.26363159      10.94087151
O        2.98545794       1.62677920       8.61869450
O        1.94414369       3.45917949      12.22175236
O        4.01874101       6.67564637       7.09013229
O        2.14695081       0.99515280      11.18991052
O        2.18044466       8.80931228       5.50699330
O        9.71730719       2.42741859       3.78847359
O        1.83072837       1.47552408       1.28921712
Li       8.47510942       8.74261994       6.12272807
Li       4.29172693       9.08847708       5.09205035
Li       3.33771272       7.29530345       9.12139959
Li       7.96854028       2.04124462       7.16504319
Li       3.45150039       1.93633014       2.47845891
Li       7.18882445       7.22020881       9.48697943
P        8.90666870       6.05685136       3.91897103
P        5.55463217       9.93390545       9.43559813
O        6.69079263       2.24843674       5.80088363
O        9.42502974      10.64369263      11.84780806
O        4.82766093       5.67170264       2.28202449
N        8.82949609       5.39929212       5.37339420
O        5.29278575      10.65461909       8.12702605
O        8.34923813       4.64727846       2.96384656
O        8.10206424       7.31636538       3.60522451
Li       5.48493859       3.50397233       6.23491692
Li       9.38675736       7.26820198       1.39999571
Li       6.25346176       7.72570575       1.45087437
Li       6.47407872       4.37227359       9.40034969
Li       5.92329501       1.80254042       8.86990890
Li       1.72312895       8.92129021       0.92067949
P        8.42875534       2.45386876       9.80169042
P        6.64060930       0.66376473       5.36746967
O        4.63316133       8.66721340       9.82610025
O        2.20815871       8.47112733       8.38511412
O        9.31884675       1.38405694       9.13691892
O        1.31890164       4.88918365       6.37100312
N        9.35889660       3.71433693       9.98647562
O        5.39612630      10.54841947       5.14795716
O        6.22347655       7.70735468       6.82330417
O        7.59485399       2.00654870      11.04771943
Li       3.36547317       4.84283971       0.43899766
Li       5.51740415       2.99949022       0.67243604
Li       1.61013521       4.93770438       3.70568173
Li       9.63626003       0.99702181       5.06421322
Li       5.81709751       0.17256190      12.18114880
Li       8.43579913      10.43559231      10.41669621
P        8.62470062       9.92381372       0.53123803
P        7.88750956       4.08119567       1.61445368
O        5.98085826       6.18320149       8.81441705
O        0.33491225       6.34114247       3.30733503
O        7.93760543       8.68905991       0.00353196
O        0.55301696       6.21724003      11.64219483
N        9.48618124       9.42975454       1.63327924
O        9.04027021       3.47411671       0.68262218
O        7.01278492       9.37982785       9.30745749
O        7.58440359       0.29001518       1.16337020
Li       8.83928243       5.48429827       8.16293760
Li       1.52418274       4.56796591      10.73489023
Li       8.38248808       1.57665021       2.49166833
Li       1.58879436       7.91117413       3.64572839
Li       3.61202644       4.92805036       6.29527622
P        0.70994425       8.46756978       8.46148827
P        5.48840474       6.45112394       7.20811646
O        7.31531871       2.83010394       8.66620204
N        0.12440229       9.27081474       7.10650681
O        0.21593979       9.00357563       9.86517761
O        6.08253543       5.26661362       6.47131433
O        7.63091014       0.04254284       6.44247618
O        0.04165305       7.08443490       8.45719774
124
Lattice="9.92562 0.0 0.0 0.0 10.6806 0.0 0.0 0.0 12.4552" Properties=species:S:1:pos:R:3 material=LiPON model=NEP89 temperature_K=1200 phase="NVT production" display_name="LiPON｜NEP89｜1200 K｜NVT production計算" report_figures="23_LiPON_lithium_MSD; 24_LiPON_transport_comparison; 25_LiPON_temperature_RDF" source_frame_index=1529 relative_time_ps=152.9 pbc="T T T"
Li       9.72923630       1.50416305       7.98554975
Li       6.95586213      10.35084903       1.41381037
Li       2.45207424       6.67657586       7.02345394
Li       3.37111870       7.28411130       4.91781154
Li       8.01844580       9.11469880       3.45442193
Li       7.99452928       0.34007386      10.95528929
P        5.07159507       5.89540583      11.59918068
P        3.38524586       4.34848282       3.60884818
N        9.76357340       3.35033728       5.49707033
O        3.34989521       0.09347449       3.18309101
O        5.80794134       6.96329627      12.31342058
O        5.58143323       1.29648045      10.65290317
O        5.85565815       5.24953687      10.35907919
O        2.71579766       3.03447051       4.14705673
O        2.11851515       5.96032086      12.35159471
O        4.45761374       4.60987537      12.21026182
Li       5.16131732       3.04695894      11.05513101
Li       9.30964004       8.49253227       9.79747339
Li       4.77257185       6.07613919       2.07288482
Li       9.81211105       1.01886263       0.07219432
Li       4.80513217       9.18527284       5.37079205
Li       7.93830256       5.67318516      11.63562356
P        3.99764691       3.77240006       8.24666393
P        9.56466017       4.96559493       6.04750974
O        2.35518635       5.28230225       2.99496917
O        4.05246929       1.90864777       0.59804037
O        5.44977257       3.72571211       7.86474605
O        7.40894938       0.79664536       4.43109005
O        3.14817804       2.74797581       7.43772922
O        9.14821999       4.62603684       7.55578595
O        9.20726189       8.83353965       5.08339016
O        3.35428733       5.22396922       7.85888837
Li       4.54914433       6.17516576       8.98203511
Li       8.27130779      10.15500126       6.16830762
Li       1.47504235       1.21792181       5.15631431
Li       4.57394332       1.95406661       2.74853811
Li       2.54449894       1.70523494       9.36788234
Li       4.77733560       5.38185056       6.48988764
P        4.09013409       9.56904312       2.55480256
P        2.09035790       6.67908359      10.89128063
O        0.53091709      10.64740297       3.66347377
O        8.28122934       4.20791973       0.63667798
O        5.62879502      10.02801740       2.21194225
O        7.30209003       2.04991756       1.78988351
O        4.18854466       8.44553329       3.67954051
O        1.87006884       8.30247847      10.81736556
O        4.15562678       5.00783687       4.88796008
O        3.25252606       9.15926033       1.35739637
Li       0.90164156       4.48430608       8.42617336
Li       6.04137431       3.97842043       3.89631940
Li       3.89331685       8.56126243       9.25119933
Li       7.19818347       3.48667162       6.86281373
Li       1.50200956      10.28623966      10.26682279
Li       0.50621058       9.38685743       2.11638309
P        2.60620751       1.67306391       0.07858074
P        0.76239134       9.43588205       4.84851344
O        3.69382545       6.62391597      10.77211046
O        3.86587192       3.49453839       9.74322622
O        1.76380217       2.95639124      12.31227184
O        5.34300145       7.72877176       8.65793233
O        2.55853851       0.89346512      11.23541091
O        1.84967435       8.35943036       4.79364286
O        9.88932947       2.12030687       5.95199871
O        1.65490928       0.83841101       0.97495351
Li       6.67997838       5.52416038       8.89708051
Li       5.92066664      10.26781258       7.60889006
Li       2.97572858       4.53436553       0.87369337
Li       8.82318251       7.22836862       6.66655700
Li       1.83415900       1.02717633       2.75229206
Li       7.96718900       9.71304399       8.11553076
P        8.44406371       5.79391052       3.47239302
P        5.32650424      10.55832456      10.13435816
O        5.99295862       2.78651901       5.27107438
O        8.31772390       7.83530425      11.41717186
O        4.48048753       4.27994728       2.57075188
N        8.53783843       5.84206892       5.09897041
O        4.52089238      10.55304116       8.84735965
O        7.88683826       4.18965898       3.23150703
O        7.44777774       6.88602062       3.13058548
Li       4.22608628       2.57579736       5.49419884
Li       1.31499117       6.91088862       3.65254364
Li       6.46703960       6.52254422       4.69916461
Li       6.39715758       2.05786200       9.19746058
Li       3.46900285       0.68860493       7.02255490
Li       4.84599568       0.03836036       0.28560100
P        9.19136909       2.94094532      10.13919555
P        6.36858382       1.17168987       5.54641634
O        4.69637270       9.68805329      11.32263673
O        2.11374281       8.60128000       7.83910328
O        0.71453035       3.02647280       9.58783904
O        1.07216952       5.67801145       6.03607285
N        8.74501877       4.35484230      10.63612864
O        5.22486619       0.19562250       5.86314521
O        6.93019025       8.49357931       6.69767678
O        8.96452778       1.99758537      11.34576335
Li       0.83513374       3.74695568       2.88395341
Li       5.46174278       3.32328212       1.08744222
Li       1.97663536       4.16354380       5.72884288
Li       1.32343508       6.64336214       1.37866201
Li       6.13929628       7.97266670      10.36578951
Li       3.57487502       8.16647311      12.02190296
P        8.84804484       8.70553270       0.10960277
P        8.27119061       3.34751907       1.86118551
O        6.78068443       6.12892069       6.98798224
O        9.81011787       5.91825452       2.75622859
O        7.88867435       8.93893082       1.33490688
O        1.39392093       5.91110348       9.76340346
N        0.18978917       8.14930609       0.83101136
O        9.49602924       2.46140691       2.36074532
O        6.75529977       9.93273714       9.65640088
O        9.29074407      10.07059150      12.02799107
Li       1.86770461       4.12227119      10.78607566
Li       0.15272749       3.55714515      12.26291018
Li       8.84689855       0.87428869       3.32956432
Li       1.60526605       9.67807857      12.41980859
Li       6.78410585       7.24623716       1.43726870
P        1.27445621       9.93246792       7.63014129
P        5.97060051       7.34100907       7.18425123
O        8.21200347       2.63063003       8.96415197
N        0.92781251      10.34009379       6.13056685
O        1.84490093       0.51362243       8.43746694
O        4.67847247       7.39369537       6.17237112
O        7.21616675       0.69626650       6.85577636
O        9.86516171       9.65972392       8.27905462
124
Lattice="9.92562 0.0 0.0 0.0 10.6806 0.0 0.0 0.0 12.4552" Properties=species:S:1:pos:R:3 material=LiPON model=NEP89 temperature_K=1200 phase="NVT production" display_name="LiPON｜NEP89｜1200 K｜NVT production計算" report_figures="23_LiPON_lithium_MSD; 24_LiPON_transport_comparison; 25_LiPON_temperature_RDF" source_frame_index=1559 relative_time_ps=155.9 pbc="T T T"
Li       9.15820554       1.17469240       6.45222666
Li       4.84765742      10.34063688       3.99073499
Li       1.20640760       5.41409618       8.80769171
Li       1.16291393       1.07825767       9.42629986
Li       6.93717776       9.23181974       5.27860516
Li       0.30196880       2.67531010       0.23901578
P        5.92074471       6.06746472      11.95082238
P        3.46588681       3.96596943       3.48825027
N        9.56707686       3.19791106       5.91562626
O        3.14258457      10.03467940       3.41791495
O        6.44091539       6.70116623       0.73926745
O        6.78982673       1.05343844      10.71941450
O        6.22016428       6.99803901      10.74618661
O        2.61102607       2.85314428       4.26129793
O        2.88372629       8.47068338      11.23178833
O        6.04250560       4.61980826      11.48950750
Li       5.67209815       3.14876957      10.23459580
Li       9.59715540       4.79860417      11.72601757
Li       6.05505839       8.69416282       0.69895341
Li       8.87887830      10.52756253       2.89346453
Li       2.82830557       8.60956015       4.92330847
Li       8.24672053       6.34022299       0.57437292
P        3.78136427       3.62045516       8.07713347
P        9.32051178       4.90169461       6.08991159
O        2.53942815       4.82674932       2.63902499
O        4.22251643       1.91547159      12.43766724
O        5.32762790       3.65994746       7.53378177
O        6.63167719       0.36945956       4.33668212
O        3.02291130       2.43166657       7.50134569
O        8.46522431       5.38673643       7.18016624
O        8.49402702       8.90601833       5.88573004
O        2.85434468       4.76761090       7.55364450
Li       2.84798190       5.28526218       5.96455244
Li       7.68117556       7.10675411       5.41614906
Li       4.18312080       1.37005622      10.25155611
Li       6.48309683       0.29261046       0.74062146
Li       3.82761342      10.42355112      12.01804462
Li       6.97887284       8.74711325       2.87805118
P        3.64957293       9.18584282       2.16522994
P        3.18214289       6.97543678      10.97578955
O        9.72704887       0.00858681       4.63323698
O        9.07689362       4.11145727       0.68342800
O        5.18376067       9.05572945       2.21748441
O        7.22065055       2.31231141       0.68304543
O        3.27531848       7.74471870       2.61511130
O        3.58424566       6.64644625       9.53441644
O        4.06300713       4.96410762       4.62164205
O        2.70627462       9.60848749       0.94938774
Li       1.43716760       3.17134682       6.81357556
Li       6.24931912       3.48591368       3.25858226
Li       3.07662945       6.48323895       8.09012140
Li       5.44521319       4.44993871       5.90542183
Li       1.47371262       9.51613631      10.85463755
Li       1.16228446       9.83052957       3.42297741
P        2.71393011       2.02406646      12.39558581
P        9.89671604       9.53830502       5.64059617
O        4.18737896       6.27601539      12.08400490
O        3.85943660       3.31979751       9.59312046
O        2.17371668       3.44155478      12.05942301
O        4.99493483       8.55555250       7.70092680
O        2.31912003       0.88929401      11.40920290
O        0.88837728       8.53300809       4.93861417
O        0.43272846       2.24874177       5.55523303
O        2.00448698       1.55972110       1.28493276
Li       9.35949383       7.16621006       7.59332114
Li       3.90135250       0.54107417       7.40621841
Li       5.48330157       2.81245783       0.72725991
Li       7.16875537       9.60758816       7.33129532
Li       3.09110492       1.26510383       2.82732979
Li       9.19868184       0.49016785      10.53339583
P        8.48837635       5.62485618       3.12121147
P        6.07731245      10.43181565      10.21546349
O        6.54005343       2.76515434       5.48443700
O        0.14038019       9.45632232       1.87740503
O        4.52022411       3.27143679       2.51524478
N        9.03725431       5.46415758       4.59717585
O        4.94119025       0.24633739       9.20938309
O        7.69566211       4.23352300       2.73003317
O        7.55399589       6.83576093       3.29273756
Li       3.01390547       1.87956558       5.69060737
Li       9.39063564       7.75737758       3.71819505
Li       1.39700886       7.03455104       6.41598956
Li       6.03769180       1.92627433       8.32809868
Li       7.21237343       3.97607803       7.84300622
Li       3.86860170       9.22152061       9.03990901
P        9.01775052       3.26053237       9.44465913
P        6.22085336       1.23348217       5.64757820
O        5.46105271       9.81239853      11.40066744
O        0.86719889       7.90233404       8.13218786
O        9.39172495       2.49544190       8.11599731
O        0.87274919       5.19032433       6.24898140
N        9.76930561       4.45862333       9.87661874
O        4.69686011       0.93585516       5.59329817
O        5.73192003       6.46553710       7.18185114
O        9.59368940       2.34450611      10.72059531
Li       1.62779802       6.37883388       2.91397376
Li       8.25817911       1.58179190      11.94468754
Li       9.92086415       3.74740538       4.07915122
Li       1.13521086       7.12637560       0.22715107
Li       5.49311412       6.69221567       9.08622260
Li       7.59675878       8.33606712      10.90787996
P        8.85645859       9.42295312       0.66716847
P        8.23703609       3.12012504       1.62189976
O        3.45575569       7.43389096       6.22568944
O        9.58563861       6.09821416       2.15208813
O        9.13590544       8.13098429      12.42908243
O        1.92702790       6.16149313      11.13293946
N        7.53215539       9.64050326       1.40335855
O        9.31468497       2.15467624       2.25761725
O        7.12376481       9.45105281       9.51563871
O        9.33810606      10.63709852      12.29486568
Li       2.13932695       4.18425166      10.24618345
Li       3.25392407       4.82592854       0.83236054
Li       9.72347703       1.64329260       3.88838363
Li       1.31604771       0.01678091       0.42123912
Li       4.75811860       6.97281241       3.64114834
P        1.05848148       9.51346262       8.28623381
P        4.92120700       7.55614416       6.54417695
O        7.50771463       3.16474996       9.49182111
N        0.52815254      10.27632058       6.89814947
O        2.52858826      10.03909493       8.15033325
O        5.52257387       7.99328500       5.12215330
O        6.78621201       0.74321637       6.96324619
O        0.29183789      10.02430080       9.50440765
124
Lattice="9.92562 0.0 0.0 0.0 10.6806 0.0 0.0 0.0 12.4552" Properties=species:S:1:pos:R:3 material=LiPON model=NEP89 temperature_K=1200 phase="NVT production" display_name="LiPON｜NEP89｜1200 K｜NVT production計算" report_figures="23_LiPON_lithium_MSD; 24_LiPON_transport_comparison; 25_LiPON_temperature_RDF" source_frame_index=1589 relative_time_ps=158.9 pbc="T T T"
Li       8.78611624       1.26286250       4.95880191
Li       6.01623934       9.49596962       4.25177422
Li       0.95233399       6.03160856       7.62276691
Li       4.13610847       9.61515819       6.76929437
Li       9.39855607       6.68218194      11.92016256
Li       0.50707961       0.21819839       1.71088910
P        5.37951039       6.13479077      12.01540322
P        4.25124732       4.42842683       4.01192961
N        0.71235585       2.91066076       5.57944150
O        3.58844304       9.91912403       3.86188124
O        6.22516468       6.52501760       0.72633537
O        5.84311543       2.07562279      10.53731297
O        5.81501902       6.76069421      10.59723231
O        5.69843026       4.95914281       3.78274478
O        1.95050887       8.65832315      12.21310511
O        5.05137140       4.59429218      11.98945945
Li       4.35481860       2.99649322      11.27766337
Li       2.47278200       0.61589998       6.35522310
Li       4.84521906       8.47644044       9.82080857
Li       6.68257654       3.44837675       4.16036999
Li       3.06713630       6.40949083       6.12117809
Li       0.48437041       9.42347766      11.30822392
P        3.06236038       4.00251896       8.67670814
P        9.77872854       4.28442446       5.19100224
O        4.10519345       3.00163264       3.49402232
O        4.09231495       0.53421192       1.25322591
O        4.54356141       3.99816401       8.37652082
O        6.46017215       0.85157002       4.12729527
O        2.23261502       2.90722122       7.90410122
O        8.29366275       4.44702761       5.54058748
O        8.20364248       9.12738625       4.32193358
O        2.64193292       5.37361633       8.20407770
Li       5.72472703       4.34381150       6.75630984
Li       5.15572546       1.64057878       2.11764447
Li       4.24213273       8.67226901       1.03837622
Li       7.85694842       1.03518704      10.49285713
Li       6.01721496       0.39259744       0.05900572
Li       6.69988095       8.05274463       2.64111115
P        3.70238650       8.31785291       3.59104014
P        2.63060701       7.43931807      11.55202472
O        0.09589164       0.32057218       4.05047200
O        8.15963135       2.44151104       3.40860529
O        2.99503597       8.05539799       2.23417181
O        9.34999425       2.30385243       1.19931815
O        5.14336278       7.94210035       3.16684228
O        3.11584144       8.02942026      10.27683267
O        4.01926206       4.47339241       5.57592793
O        3.27295981       7.77223935       4.87246608
Li       4.41989499       2.52305695       5.40158561
Li       2.83719357       0.79972084       3.70235054
Li       1.02667041       2.59890698      11.91821372
Li       4.01452603       2.00823139       8.01569395
Li       3.15438538      10.30899062      11.67339205
Li       7.79169814      10.62162305       2.94911286
P        2.86216180       1.46238751       1.05336244
P        9.65798392       9.55454583       4.51908200
O        3.81502710       6.81513173       0.17667233
O        2.80234109       3.71861902      10.14688100
O        3.41843590       2.86284234       0.54846415
O        7.45805120       8.32452143       8.08188195
O        1.95224625       0.81572072      12.33303819
O        0.68348880       8.48902807       3.89291857
O        1.79315241       2.08737837       5.33670953
O        1.91016388       1.69536685       2.11142867
Li       9.27519561       7.34482363       5.24330993
Li       6.09526395       3.56027763       9.22836446
Li       5.18906030       3.80691207       1.26438390
Li       7.81410770       9.66444332       6.27973258
Li       2.22966502       9.29487021       5.02591444
Li       8.30150768       9.78780201       8.43848827
P        9.09920475       5.65077905       2.54717412
P        5.47917740       0.66665468       9.89158540
O        6.26755079       2.67063575       6.00887660
O        9.13224060       9.65346480       1.30695199
O        3.30610046       5.33337539       3.11994679
N        0.12309775       4.97293339       3.76487699
O        4.17863580       0.91226084       9.33377799
O        8.34239541       4.71152276       1.51028440
O        8.20017069       6.49390333       3.49315607
Li       0.69621485       2.43528580       3.35995563
Li       2.46619038       6.18929803       1.62830932
Li       7.22440909       8.08218847      10.27645133
Li       7.51112074       2.06691808       8.14080956
Li       7.97145210       5.15343038       7.22430553
Li       2.15870658       4.15892193       6.18509206
P        9.14057992       4.18773449       9.88548797
P        6.25826535       1.15194555       5.67664007
O        5.23193586      10.16291362      11.02899519
O        0.98082242       8.21041417       8.38447230
O        9.62252136       2.72163989      10.47179122
O        0.74625651       5.43038263       5.80216381
N        8.46565666       5.00632731      11.06973180
O        4.91880539       0.41879357       5.98501939
O        6.44298561       6.05929468       7.16038941
O        7.93334426       3.84274205       8.78891996
Li       1.32600347       6.73146019       3.70408579
Li       6.60250833       3.80417615      11.75152284
Li       0.44759669       2.52278880       7.17807419
Li       5.58294360       6.21850717       2.28578262
Li       4.61751289       6.06806169       8.88445979
Li       3.02178993       8.49013721       8.42484549
P        7.88488694       9.40909980       0.38556875
P        8.13580963       2.85700040       1.92572623
O        4.86408865       8.04674942       8.22543497
O        0.12556980       6.46325378       1.77226342
O        8.19544519       8.13300707      11.91194476
O        1.79753791       6.05363184      11.46083589
N        6.56603565       9.41967594       1.24382201
O        6.68160585       2.63129421       1.38101112
O        6.81012133       0.13985317       9.20898212
O        7.71170536       0.00361987      12.03832124
Li       1.24304243       6.69672646       9.81739561
Li       2.86915121       4.59275735      12.38554194
Li       1.89860974       1.90956785       9.59944643
Li       0.92958645       8.32911998       2.03770740
Li       6.61690507       6.38107422       4.68721495
P        0.96739027       9.52856978       7.45638040
P        6.16526815       7.56536042       7.46734204
O        9.91911368       5.16351982       9.05601298
N        0.05696988       9.13664512       6.14696399
O        2.41015507       9.89374293       7.14817799
O        5.96386622       7.98397680       6.01350628
O        7.54276477       0.63134542       6.62299914
O        0.13671285      10.65162097       8.17676827
124
Lattice="9.92562 0.0 0.0 0.0 10.6806 0.0 0.0 0.0 12.4552" Properties=species:S:1:pos:R:3 material=LiPON model=NEP89 temperature_K=1200 phase="NVT production" display_name="LiPON｜NEP89｜1200 K｜NVT production計算" report_figures="23_LiPON_lithium_MSD; 24_LiPON_transport_comparison; 25_LiPON_temperature_RDF" source_frame_index=1619 relative_time_ps=161.9 pbc="T T T"
Li       0.15325441       1.71093916      11.91719744
Li       7.63931234       9.16282014       5.30631675
Li       8.67374417       6.51148851       7.52557998
Li       9.07198643       9.77695943       8.60723737
Li       7.20813123       0.24125403      12.11690672
Li       1.01564767       2.20925972       7.90760901
P        5.42597897       6.46906590      11.94342040
P        3.86685877       4.87005637       4.53165766
N        9.85616149       2.84162703       5.15552042
O        5.46282103       9.91485429       2.27988128
O        5.42936821       7.22875824       0.82670894
O        5.01886487       2.23098906      10.91255407
O        6.95508253       6.95173686      11.51675349
O        4.40815731       6.07377253       5.30213298
O        3.19416108       8.78486402      11.82367358
O        5.38432088       4.89389180      12.03380765
Li       3.57558610       7.01386414       1.55275729
Li       5.46831735       9.50489082       5.86762957
Li       6.11845052       8.86183542      11.79582897
Li       6.06555576       4.79157368       6.84535688
Li       3.76000711       7.89517671       5.69993696
Li       9.82895757       6.38314928      11.69924613
P        3.52122075       3.98839823       8.38492735
P        8.97401774       4.29031270       5.22151171
O        4.53969408       3.64333728       5.15055203
O        3.01238737       1.30234387       1.97376884
O        3.11548248       4.04032376       9.88026451
O        7.12409646       0.55426280       5.62748847
O        5.03523439       4.42337437       8.19564694
O        7.47464519       4.14611133       5.25202889
O        8.47421837       9.20167244       3.59892078
O        2.55692123       4.97010025       7.73328216
Li       1.62029050       4.29116378       6.22390212
Li       4.23196184       1.74662858       6.49932885
Li       2.75705219       0.10821903      11.55283095
Li       4.17487961       9.33141013       0.54039650
Li       4.76655234       0.99744112       1.28172993
Li       0.61038301       7.29334253       1.27160437
P        4.49272434       9.58778981       3.50287619
P        3.00959979       7.43661795      11.17606670
O        0.71567787      10.43772568       3.92520214
O        8.29986199       1.79560883       2.86608128
O        3.18407636       9.27488553       2.60342925
O        7.91846071       2.41145478       0.38531566
O        5.19585669       8.56993497       4.33596586
O        2.28381940       7.39695579       9.78857397
O        2.28322613       4.80707708       4.34544766
O        4.34003208       0.23174103       4.38516378
Li       4.62934160       1.71752135       3.38111471
Li       2.58454694       0.11383218       3.71040411
Li       1.61034768       3.43789439      11.05727792
Li       3.77932266       0.86523799       8.47549207
Li       3.89845602       4.06728068      11.50209950
Li       6.79991810       0.23681261       3.67608479
P        2.32108674       2.35353945       1.00641568
P        9.85960187       9.02925419       3.93154816
O        4.58436568       6.93528236      10.70338230
O        3.20570590       2.52106644       7.79252353
O        3.21694100       3.39752200       0.58441204
O        6.96667842       8.63598629       8.42642985
O        1.84638328       1.72484566      12.27540259
O        0.59367295       7.83825098       3.28864177
O        1.02839861       2.36765370       5.49143591
O        1.18415321       2.88489968       1.80605126
Li       6.41432134       4.71469867       3.66108860
Li       6.05314365       2.87036157       9.10969536
Li       1.10275340       3.94989106       3.25439335
Li       7.97758030       6.83241451       4.78922893
Li       1.12915973       6.23357442       4.43335028
Li       7.89857210       7.29339757       9.81934378
P        8.41857137       5.42466116       2.51567609
P        5.15295419       0.74029446      10.86259745
O        6.26228345       2.42736818       7.21943770
O        0.33851151       8.65743674       0.06616192
O        4.54516817       5.13879908       3.15526211
N        9.11311325       5.35872379       4.05210804
O        4.22775652      10.65707474       9.93626969
O        7.68086213       4.03532680       2.30670570
O        7.39661556       6.54541162       2.90780297
Li       0.18175099       1.45823700       2.98874952
Li       5.67604624       7.80638756       2.81138163
Li       5.60041370       5.30387537       9.56558146
Li       7.92728019       1.73456910       9.64112460
Li       3.89665618       6.37741523       7.46973144
Li       3.43714467       8.68171458       8.43229378
P        9.12993195       4.08346700       9.96690288
P        6.64295170       0.93241543       7.08814441
O        5.31693717       0.11113073      12.29181594
O        1.92287052       7.53186130       6.38675738
O        0.12686591       2.99035864       9.45952477
O        9.59033269       5.09166454       6.26488753
N        9.53956783       4.42286120      11.42731484
O        5.33957338       0.27125557       7.39802677
O        6.45349910       6.31271730       8.04511740
O        7.73943315       3.49925264      10.01271937
Li       1.86965658      10.05948495       1.44808561
Li       5.01183154       4.38377521       1.64196267
Li       9.36192532       0.97806106       5.37807166
Li       6.51682745       2.32754469       5.20357479
Li       6.70561195       2.95888545      11.74641876
Li       6.28360262      10.21415531       8.95934888
P        9.35914326       9.26029479      11.55495911
P        7.42285109       2.37951005       1.79362491
O        4.80308871       8.21058135       7.20030236
O        9.39074213       5.85805811       1.43051195
O        9.15670641       8.40188882      10.24887375
O        2.29477062       6.66880967      12.30519844
N        8.13412189       9.15769471       0.07323919
O        5.86862345       2.36727247       1.87959665
O        6.57907767       0.55628710      10.30238550
O        9.74919919      10.67067598      11.09407454
Li       0.77228440       8.61171081       9.20788732
Li       7.63658711       7.43233243       0.51582115
Li       1.50569158       5.54707204       9.11758710
Li       0.29550444       4.30491172       0.81758807
Li       7.77033839       9.87573908       1.63770701
P        1.15880952       8.82004625       6.73585460
P        6.39231694       7.67115949       7.49674932
O        9.31950839       5.31533691       9.00118966
N        0.07218194       9.33040074       5.51931512
O        2.01547845       9.89044065       7.42697795
O        6.98689804       7.72404221       6.00482461
O        7.90088148       0.56781594       7.92973515
O        9.91131491       8.35908201       7.59824036
124
Lattice="9.92562 0.0 0.0 0.0 10.6806 0.0 0.0 0.0 12.4552" Properties=species:S:1:pos:R:3 material=LiPON model=NEP89 temperature_K=1200 phase="NVT production" display_name="LiPON｜NEP89｜1200 K｜NVT production計算" report_figures="23_LiPON_lithium_MSD; 24_LiPON_transport_comparison; 25_LiPON_temperature_RDF" source_frame_index=1649 relative_time_ps=164.9 pbc="T T T"
Li       7.17405284       0.30249994       8.77050441
Li       8.47800232       9.54275451       6.03800685
Li       0.24515471       7.39595502       6.87801407
Li       9.28862876      10.37990922       9.55608494
Li       3.83700765      10.20083629       0.68346901
Li       1.41843321       7.17385958       2.63978176
P        4.37897525       4.98057433      12.04466657
P        4.09513407       6.03891783       4.52532364
N        9.52064476       3.04878634       5.82370773
O        7.00095009       9.68341710       2.29370175
O        4.96998386       5.37342038       0.85406770
O        5.35417037       0.73125376      12.34754186
O        5.62249377       4.14685881      11.39964494
O        5.59470554       6.72724286       4.64286023
O        1.93188046       6.44006907       0.54019574
O        3.10349844       4.14701138      11.97865217
Li       4.07357286       7.29145039       1.41767869
Li       5.74168906       8.36343633       5.21973251
Li       6.47023455       8.63181644      11.39920579
Li       5.01309420       3.01407970       6.42272910
Li       9.33481013       1.23148783       2.05023882
Li       9.28409058       6.81264793      10.47133949
P        3.66830489       4.02067719       8.05038732
P        8.55443813       4.26152033       5.41439448
O        4.06360479       4.48157361       4.55751680
O        1.83415220       1.89083924       3.41411078
O        3.15025890       3.55771595       9.40665024
O        7.19405899       0.32589308       5.52637955
O        5.24078036       4.34591822       8.05393075
O        7.10042217       3.78003512       5.46920562
O        9.42352322       8.38570934       4.78381412
O        2.89628009       5.46097065       7.84511867
Li       4.17085894       7.35961038       7.27404119
Li       6.13813777       5.48978933       6.49828783
Li       3.19598432       9.20830652       4.01760645
Li       1.79196176       9.32494288       1.43284483
Li       5.33677504       2.50615923       0.50963946
Li       9.90950155       7.28364033       0.41571032
P        6.02652727       8.52668912       2.07875917
P        2.57834876       7.27688157      11.88393860
O        9.62994120      10.58622205       3.54387827
O        8.12020858       2.05955215       3.36594901
O        5.41463344       8.67840630       0.70740649
O        7.55731033       2.07066362       0.99668440
O        6.99405396       7.21789328       1.94894559
O        2.76437240       8.78865476      12.41602124
O        3.30525845       6.64601096       5.72302362
O        4.82158481       8.59499396       3.23092900
Li       5.42882689       0.71480102       2.77758189
Li       2.47833332       3.52369628       3.96681964
Li       0.47081505       4.69231784      12.44530223
Li       4.39622171      10.57130392       8.03399319
Li       9.73217919       1.58856542      11.20433604
Li       9.09475651       1.63804937       4.63980277
P        2.66733077       1.54550759       2.20410825
P        0.54866258       9.49388207       4.30429611
O        4.10469146       6.58700549      11.64568490
O        3.30784350       3.03771247       6.97506889
O        3.56481107       2.85143746       1.89155328
O        7.46180854       9.28150336       8.52051532
O        3.55805440       0.25230322       2.42355455
O        1.52610653       8.75169804       3.28768829
O        0.69931061       3.61155779       5.64439466
O        1.71579167       1.56753492       0.93465330
Li       8.17649716       7.11194304       5.28013790
Li       1.90618751       1.74599809       8.97415825
Li       2.65037534       4.59372975       2.04821450
Li       8.59603939       8.10126457       2.70486872
Li       2.00227230       5.24076548       9.90406485
Li       6.12955323       5.27433357       9.45901004
P        9.64360233       5.03418963       2.58782411
P        4.91334227       0.66662456      10.80185037
O        4.95559250       1.30460813       4.97243850
O        0.29645089       9.37538547      10.67432048
O        3.64580040       6.29181688       2.92738698
N        8.83035117       4.97858388       3.98769920
O        3.27682891       0.96651691      10.69072002
O        8.90466434       4.04585371       1.58819971
O        9.70795186       6.53713831       2.09014862
Li       2.36996643       2.30637483      11.88664684
Li       6.71248806       5.63589944       3.59889999
Li       6.35265104       2.74888727       8.36779354
Li       2.26922903       5.07263611       6.24941001
Li       2.19268082      10.24375564      10.82221238
Li       1.34333482       8.52100673       9.31584402
P        9.13608703       3.90628665       9.82193397
P        5.78216318       0.43436045       5.99833479
O        4.99920835       9.91343269      10.14240230
O        0.30127959       0.74403989       7.23067040
O        0.31095850       2.71495946       9.77573840
O        8.67082736       5.45728379       6.32062044
N        8.62012499       4.27606423      11.26475000
O        5.02202586       9.79435557       6.14901132
O        7.38512877       6.71573748       9.04402010
O        8.11843922       3.53338908       8.74742835
Li       2.95152751       1.04964081       5.26245600
Li       4.66434277       4.54522067       2.45333927
Li       7.72787380       0.12360291       3.67653669
Li       5.77898107       2.93324422       3.90597299
Li       4.28825514       3.04497701      10.64568692
Li       4.59329425       8.10308825      10.41491977
P        9.14759911       9.37960228      11.80880430
P        7.67634957       2.91172000       2.15922252
O        5.32905411       7.75922028       8.53295044
O        1.15288602       4.54093672       2.99292193
O        8.23434071      10.47748177      11.39715313
O        1.80372512       7.04766823      10.49503254
N        8.44595397       8.06440068      11.67215091
O        6.39824161       3.79273365       2.35605010
O        5.78419497       1.62849702       9.89026502
O        9.68679188       9.35446679       0.74798755
Li       8.50799817       5.77650376       8.07034440
Li       7.15668759       5.81965321       0.02847789
Li       9.79634514       2.44688273       7.57464803
Li       7.13307884       2.73783244      11.44596713
Li       6.99307483       0.22307208       0.28209152
P        1.37225867      10.28886933       6.79870291
P        6.82478209       7.86650616       8.24675587
O        9.81888112       5.25355276       9.28912598
N        1.48288986      10.36026635       5.18585613
O        0.76721455       8.91414499       7.51738890
O        7.21871046       7.50409421       6.81956258
O        5.63876716       1.22148567       7.35210372
O        2.70498340       0.11187620       7.21495303
124
Lattice="9.92562 0.0 0.0 0.0 10.6806 0.0 0.0 0.0 12.4552" Properties=species:S:1:pos:R:3 material=LiPON model=NEP89 temperature_K=1200 phase="NVT production" display_name="LiPON｜NEP89｜1200 K｜NVT production計算" report_figures="23_LiPON_lithium_MSD; 24_LiPON_transport_comparison; 25_LiPON_temperature_RDF" source_frame_index=1679 relative_time_ps=167.9 pbc="T T T"
Li       7.58728881       9.73328820       8.56161638
Li       5.47080586       4.23106799       9.11891941
Li       1.10078255       8.65348111       9.71185000
Li       9.69537728       6.91775032      11.37573285
Li       4.80689519       9.79684678       0.71228271
Li       0.56587848       7.07147566       4.95752653
P        4.52914102       5.09454050      11.76718649
P        3.53713565       6.19296541       4.66282284
N        8.22931003       3.88791171       5.89877082
O        8.48642569       8.13500542       1.73769655
O        5.83276529       4.97817839      10.95923916
O        6.07815815      10.53540477      11.61124936
O        3.34328424       4.43033631      11.00805694
O        2.07438052       5.84929899       5.08458758
O        1.83396630       6.68782621      11.72547246
O        4.85455670       4.83150001       0.75877884
Li       4.51672454       6.37166553       1.89187088
Li       8.13130315       9.99758973       2.99835834
Li       7.12202029       8.75791880      11.16871814
Li       2.43886428      10.65026660      12.21467017
Li       6.68908858       0.53127811       0.66936185
Li       5.46460743       8.30145602      10.57049667
P        3.37772087       3.37033027       7.14981599
P        8.56141266       5.41652977       5.35564130
O        4.06860902       6.94062024       5.89363896
O        2.99419366       2.47498817       2.91624884
O        2.63093399       2.62959984       8.18461030
O        5.98892737       9.53455317       4.43911120
O        4.94849076       3.59090801       7.32319337
O        7.24043040       6.10770404       4.98519416
O        9.05668983       8.79447358       4.75633142
O        2.70398453       4.83378602       7.34469770
Li       5.34437676       9.61708351       7.70872988
Li       3.32274150       9.04679987       5.68228629
Li       5.72520125       6.26416527       6.20180023
Li       2.36386053       9.15147765       2.90486412
Li       4.78286150       2.73619721       0.18878690
Li       1.03410688       5.07136289      12.25677512
P        6.96303256       7.85874862       1.42447750
P        2.98783522       7.74726758      11.81035080
O        0.17589738      10.56582964       3.44175834
O        7.77387726       1.40274295       2.75477068
O        6.58222628       7.63042901      12.42234685
O        6.72309949       2.44009320       0.75244471
O        6.22905827       6.97338697       2.50390947
O        2.91406157       8.63196149       0.71221881
O        4.31009490       4.89615078       4.11793043
O        6.69489566       9.36915714       1.82040875
Li       5.94558170       0.49601848       3.27325185
Li       4.30365603       2.89116444       4.27592944
Li       9.89322861       1.16939021       2.03279288
Li       2.51829964       0.43003994      10.14149452
Li       1.07827374       1.74054306       8.18026341
Li       1.87836698       3.04121877       4.40631437
P        3.11014725       1.03322655       2.40541448
P        0.45455739       9.72448391       4.66902270
O        4.26530406       6.79861404      11.66170081
O        3.10718075       2.71410380       5.81718200
O        4.52485173       0.90182162       1.89693942
O        6.30702425       8.02616563       7.17465009
O        3.08204730      10.60483030       3.43322515
O        1.71956019       8.91346027       4.50699120
O        8.60168739       2.60199062       6.36875204
O        2.03920058       0.86718281       1.31362695
Li       8.22778027       7.03206058       3.50684289
Li       3.75800169       1.01435122       8.17766523
Li       1.03797535       5.24143267       6.47097436
Li       0.45150327       8.14941928       0.93914154
Li       1.96955878       6.11065884       2.06613211
Li       9.23415297       7.25226498       8.07370495
P        9.75541003       4.23077491       2.96889050
P        5.30466347       0.83583884      10.58328689
O        5.76439743       1.44167056       5.20756332
O        9.16828709       9.04223233      11.52442599
O        3.27303294       6.97678542       3.31325066
N        9.46714282       5.57579351       3.81457168
O        3.92380506       1.17558260      11.40602281
O        8.43246845       3.95730571       1.99816015
O        0.95725955       4.55966060       2.03526056
Li       1.35981650       2.23014797      12.27199182
Li       6.06015710       5.29611853       3.37771023
Li       6.46185476       1.78480403       7.64842429
Li       7.72672401       8.88673869       6.41481609
Li       3.67337066       9.19653150       8.84347507
Li       1.75836813       5.86530641       9.40130309
P        9.22795473       4.55903185      10.06318512
P        5.85833270       0.01826603       5.63488784
O        4.68152437       0.19339525       9.35551093
O        1.86264247       8.44140586       7.17982764
O        0.60079974       3.90309926      10.13101368
O        9.19770481       6.25578892       6.45777794
N        8.43477391       4.75515245      11.42059276
O        4.50264334      10.22372097       6.37444110
O        6.93401000       7.92786387       9.51070480
O        8.16916986       3.86441590       9.08733924
Li       4.84326199       8.49641997       3.64866282
Li       4.15792186       4.26375078       2.35847278
Li       2.50832595       0.84567381       5.42361916
Li       8.16408246       2.44907185       4.59324253
Li       2.38708352       3.03673742      10.03336561
Li       3.52685823       6.84413256       7.63216163
P        9.38650584      10.63556282      11.31233894
P        7.27079720       2.79641447       2.22159763
O        4.61420253       7.79474210       8.77111785
O        0.29632236       3.30513942       4.04418912
O        1.06498272       0.16312383      11.06092756
O        2.88728707       8.70889913      10.61449082
N        8.74729765       0.54938832      10.02231448
O        6.23094331       3.43996966       2.96995149
O        5.92277318       2.19457280       9.93448833
O        8.89622437       0.65358921       0.16159950
Li       8.78718312       0.76289350       6.29827474
Li       7.20597577       6.19624696      10.73028004
Li       6.23947187       3.79283676       5.37627569
Li       6.75154977       4.25916352      12.34458437
Li       8.56400912       2.75307161      11.99091123
P        0.92567067       9.62679223       7.47593061
P        6.02765312       7.25077754       8.44145232
O        9.55015292       6.12508077       9.73364649
N        0.64654162      10.41995645       6.08265155
O        1.66245932       0.04228100       8.44627373
O        5.97252460       5.70751531       8.26352973
O        6.95534673      10.67851753       6.74542846
O        9.57670686       8.97584074       8.14691605
124
Lattice="9.92562 0.0 0.0 0.0 10.6806 0.0 0.0 0.0 12.4552" Properties=species:S:1:pos:R:3 material=LiPON model=NEP89 temperature_K=1200 phase="NVT production" display_name="LiPON｜NEP89｜1200 K｜NVT production計算" report_figures="23_LiPON_lithium_MSD; 24_LiPON_transport_comparison; 25_LiPON_temperature_RDF" source_frame_index=1709 relative_time_ps=170.9 pbc="T T T"
Li       9.51231926      10.37893234       0.64480869
Li       4.74170155       5.33614773       8.71843645
Li       1.53678830       8.31901118       9.27531381
Li       0.06166245       7.50929788       1.18654417
Li       2.20004671       0.16254041      12.31845329
Li       1.27000135       6.32295742       3.87810906
P        3.73611592       4.82259032      12.08970281
P        3.89165292       6.36536878       4.08424900
N        9.16548661       3.07046130       5.88251099
O        8.50432472       8.59204497       1.10697911
O        3.85401542       4.42837418      10.51889761
O        4.50331746       0.37668252      12.13138468
O        2.40457336       4.52207325       0.28271240
O        3.03796752       6.40037784       5.42139559
O        2.97153235       8.92472188       0.50873876
O        5.13184443       4.37402536       0.33920265
Li       5.51916240       9.32111801       4.05024216
Li       6.23548785       2.46345850       7.99830008
Li       7.51456030       8.42278265      10.45587180
Li       0.23365515       1.55130449       2.62837011
Li       7.80098373      10.16463597       2.87619000
Li       7.21554282       5.32643151       0.39282565
P        3.03939353       3.62607384       7.51459021
P        8.39700189       4.61525348       5.52677193
O        4.95317886       7.47652169       4.17201847
O        2.67488405       1.73062752       4.14527266
O        2.49653581       2.52577764       8.46266108
O        6.78686267       0.01538271       4.56208897
O        4.54371117       3.69118119       7.42583608
O        7.07328122       4.73217694       6.39732506
O        8.64111483       8.73593464       3.99390188
O        2.68632316       5.00202649       8.24488644
Li       2.91625474       8.68097692       5.10652526
Li       6.51543391       4.05421130       3.87744242
Li       4.81763279       7.70035715       5.99288321
Li       4.94545615       9.78034967       0.85968540
Li       4.97406863       1.93783629       0.64544566
Li       9.49533849       7.51400973      11.28952170
P        7.00883031       8.13770235       1.15856423
P        2.66948129       7.75999539      12.03427865
O        9.79715393       0.24494477       4.54884697
O        8.63759385       0.99910670       1.74870573
O        6.30835867       8.35374120      12.26327264
O        6.92861290       2.16440165       0.28489040
O        6.87792567       6.66284761       1.49708772
O        2.48441780       8.24451025      10.60103195
O        4.71253649       4.98692500       4.00357716
O        6.21189284       8.88639791       2.10980458
Li       5.22578786       1.39191006       3.21791995
Li       5.56626980       4.02813554       5.94245283
Li       1.09480546       2.07390858       4.82869151
Li       3.87803356       9.98436300       7.78514958
Li       0.84156898       1.09137453       7.62913111
Li       6.49576951       0.27503598      11.48413429
P        3.01285025       0.91463383       2.70318962
P        0.10774480       9.41047048       4.15618777
O        3.87036937       6.65744921      11.88819165
O        2.23328039       3.54786909       6.15458688
O        3.92818673       1.98318877       1.92181204
O        6.43523550       7.93723183       6.76075336
O        3.87411643      10.42413646       2.80809848
O        1.10415238       9.07450262       3.05638839
O        9.04740881       2.11980764       6.69090723
O        1.72484470       0.59428483       1.73325537
Li       2.70238158       8.36523597       2.25698982
Li       2.37402034       0.52560846       9.61129246
Li       1.43517941       5.95315333       6.55594434
Li       8.39636273       1.79219309       4.70140423
Li       2.27905424       5.50212941       1.63886227
Li       7.87699974       5.07839242       8.06955977
P        9.40728311       4.36842375       2.83192987
P        4.23291235       1.07776269      10.76988188
O        5.33363065       2.05684885       4.94270125
O        9.63311435       8.81977800      10.21263861
O        3.09923135       6.54679770       2.70467701
N        8.34717294       4.80603179       3.90824114
O        2.76780317       1.64399774      11.02115561
O        8.62998066       3.75072093       1.44185103
O        0.13817979       5.72885019       2.45297706
Li       2.52889470       2.44607960       0.32528021
Li       4.86602718       6.28501606       1.91663875
Li       8.09708645      10.59737704       6.00046988
Li       7.56556377      10.11970941       8.52799074
Li       4.40605332       9.09641526      10.35701385
Li       0.38303815       2.34072269       9.90967141
P        9.34946273       4.79465782      10.30576124
P        5.83167161       0.71313332       5.62154827
O        3.99785737       0.14864616       9.55617141
O        0.98853832       7.81982405       7.72590967
O        9.55572493       5.77744419       9.21543178
O        9.39253320       5.62175461       6.09414953
N        0.81825639       4.17470625      10.56121149
O        4.58559285      10.47716082       5.72833118
O        6.25877316       8.97411400       9.20389111
O        7.95707257       3.86433141       9.88634231
Li       7.85859222       8.00963791       5.75557566
Li       4.56799715       3.87819328       1.96958093
Li       3.37356578       1.38819880       5.70292683
Li       3.56688107       3.61206571       4.64520494
Li       2.22323836       5.55451746      10.05513866
Li       3.08007028       6.75132921       7.61248423
P        9.58285036      10.33522404      10.41577667
P        7.73934528       2.31821405       1.57089582
O        4.32074844       7.69504304       8.33074828
O        0.37490914       3.23523178       3.33518743
O        0.45213176       0.57671345       9.50710822
O        1.38648399       7.08503274       0.13384462
N        8.12671800       0.04070242      10.57646865
O        6.88376649       2.45783610       2.87358453
O        5.47997417       1.74796981      10.28233345
O        0.40320954      10.57662791      11.68884945
Li       9.32609180       7.58670413       8.30560613
Li       6.84482249       3.32227950      11.32673291
Li       2.49481605       3.53100121      10.11832584
Li       8.33254541       6.55252601       3.26041747
Li       0.52515598       5.26452752       0.41624176
P        0.63937304       9.01762180       6.80538868
P        5.84706910       7.72304618       8.17490229
O        9.26595491       5.65888687      11.62664813
N        0.87379027       8.45155638       5.24968702
O        1.88082493       9.98806322       6.97801426
O        6.48656257       6.45594257       8.78372013
O        6.69258980       0.92087393       6.86733721
O        9.19569092       9.60420231       7.12963898
124
Lattice="9.92562 0.0 0.0 0.0 10.6806 0.0 0.0 0.0 12.4552" Properties=species:S:1:pos:R:3 material=LiPON model=NEP89 temperature_K=1200 phase="NVT production" display_name="LiPON｜NEP89｜1200 K｜NVT production計算" report_figures="23_LiPON_lithium_MSD; 24_LiPON_transport_comparison; 25_LiPON_temperature_RDF" source_frame_index=1739 relative_time_ps=173.9 pbc="T T T"
Li       9.40749586       0.52958343       0.09651075
Li       1.74277606      10.13834958       9.30214109
Li       2.71607931       1.08612845       7.97404205
Li       0.06670342       7.64472099       1.96659951
Li       1.58905077       9.62376822       0.34890178
Li       5.53878765       5.07058236       6.56356763
P        3.28676417       4.88891455      11.97307006
P        4.16566853       6.29739458       3.91819216
N        9.63029239       3.30270349       6.11042039
O        6.90132320       8.49529348       2.58726661
O        4.56552546       4.91890111      11.31374731
O        5.23528202      10.06731050       9.80946864
O        2.52877075       3.55064600      11.85266658
O        4.57454063       7.14981233       5.17406849
O        3.84454018       7.70273426      11.86349369
O        3.65832976       5.12731255       1.08161017
Li       5.01112253       8.83575590       2.99731261
Li       6.69630758      10.61196931       8.29305202
Li       7.05838060       0.29818256       0.32121490
Li       0.62190901       1.62480149       3.76664987
Li       7.79636242      10.18992313       3.07118717
Li       6.01644226       5.26392103       2.00787431
P        2.78107856       3.83342306       7.60092828
P        8.76102685       4.65250016       5.85340614
O        3.82729757       7.38925126       2.75016839
O        2.65114944       0.77546387       3.89511767
O        1.98525932       2.67949809       8.28325457
O        5.53137221       9.87027680       4.43891383
O        3.43871526       4.35337280       9.05862331
O        7.12502657       4.11495513       6.16256130
O        8.36035808       8.52657346       4.99710383
O        2.10452305       5.14452931       7.12759927
Li       4.00470201       8.85475979       5.28777792
Li       0.63216338       4.10961233      12.12453045
Li       4.06055909       9.30552099       7.77447818
Li       2.42171211       8.63885337       3.06603018
Li       5.08723107       2.86251580       0.57342366
Li       9.88846862       7.23098761      12.06588365
P        7.02592497       8.18875058       1.05188374
P        2.35523503       7.54346894      11.82513166
O        9.55683899       0.01747952       4.28684477
O        9.36277697       2.14937705       1.12329280
O        8.54762179       8.23999168       0.62840928
O        7.00515989       2.97020237       0.43546986
O        6.52321640       6.60768784       0.86910299
O        1.57625375       8.51408116      10.78522632
O        5.24071898       5.18381448       3.71993121
O        6.09178022       9.08128435       0.05885933
Li       4.44377562       9.52431132      12.31620733
Li       6.81112590       8.92317516       5.92492329
Li       3.26863349       1.91517312       5.00926592
Li       7.87458247       8.11340100      10.81190142
Li       8.02125795       1.23650728       5.06113196
Li       0.12344167       8.36824179       9.51753860
P        3.10674078       0.85335566       2.48155253
P        9.68758646       9.16413248       4.64461953
O        2.26474681       6.01766194      11.16322608
O        3.76720792       3.43912102       6.46492158
O        4.02703076       2.20150648       2.27856002
O        6.56236571       8.40073922       7.92859017
O        4.11389688      10.39628094       2.34175038
O        0.69785468       8.50947158       3.64759021
O        0.73477440       2.39159970       5.90362636
O        1.83836984       0.82784452       1.51610027
Li       2.36963367       5.83362042       2.21327292
Li       5.98030241       2.86022655       7.07627477
Li       0.79721768       6.00487348       8.26269844
Li       1.04775082       0.54694134       5.79482894
Li       1.40939574       6.57371931       5.31138953
Li       5.33822342       4.66924310       9.37103489
P        9.59728415       4.46370760       3.03546182
P        4.57175801       0.79565140      10.22364305
O        5.29170442       1.93364547       5.03593475
O        8.63732295       9.75729458       9.55844898
O        2.79295824       5.59854061       4.14100900
N        9.13810679       5.40706100       4.44264861
O        3.00116708       0.54750341      10.16995775
O        8.15835831       3.78600748       2.53679521
O        0.25555163       5.44814566       1.87900873
Li       1.20914437       2.74386565       9.93656388
Li       4.65374977       6.78012110       0.91312098
Li       8.55165077       7.48163670       7.77885557
Li       7.18548416       2.56630460      10.16312405
Li       5.47449689       8.37530313      11.14906892
Li       9.17421312       3.41405132       8.21076037
P        8.67167982       5.41541334      10.33295573
P        5.45089594       0.40213920       5.58057424
O        5.16330628       2.03508649       9.46747455
O        2.52478132       8.18573217       6.33602100
O        8.72026885       6.88006832       9.70356301
O        9.01767734       5.80006200       6.84293989
N        0.06473412       4.70064804       9.73787106
O        4.21452903       0.11342602       6.47541611
O        6.19334293       7.13439082      10.19347235
O        7.48504695       4.40198568       9.97303526
Li       7.60919332       4.99077355       8.43100012
Li       6.24666321       3.43432476       4.63140626
Li       2.89260699       3.42187626       1.76015460
Li       5.37637805       0.96198728       2.91179510
Li       2.90032339       3.89201354       4.63844793
Li       3.41187125       6.80832801       7.16231697
P        8.82705164       0.54985750       9.89195944
P        7.96239288       2.47779506       1.42862873
O        4.19923610       7.45642843       8.73296335
O        0.66902954       3.52279159       3.46966461
O        8.18636744       1.61075027       8.93931036
O        1.62907021       7.77309682       0.81105266
N        8.27623079       0.37555357      11.33019159
O        7.42379593       1.33238487       2.35763887
O        4.68046371       1.13125273      11.72537871
O        0.38187694       1.10785988       9.80881999
Li       6.57018153       5.87421504      11.58272810
Li       3.34990657       6.35050601       9.91326253
Li       3.78754059       3.09892154      10.38419563
Li       7.68272339       6.79019097       3.84420119
Li       2.53565891       1.93309634       0.06822000
P        1.33380100       8.73678928       6.98429735
P        5.75117502       7.21160666       8.71473551
O        8.99721162       5.61609730      11.86988649
N        0.10625569       9.15731317       6.13555467
O        1.77595120      10.10514023       7.49661613
O        6.01931262       5.80578017       8.11135007
O        6.85287068       0.35915404       6.40933146
O        0.73165379       7.82290935       8.04277153
124
Lattice="9.92562 0.0 0.0 0.0 10.6806 0.0 0.0 0.0 12.4552" Properties=species:S:1:pos:R:3 material=LiPON model=NEP89 temperature_K=1200 phase="NVT production" display_name="LiPON｜NEP89｜1200 K｜NVT production計算" report_figures="23_LiPON_lithium_MSD; 24_LiPON_transport_comparison; 25_LiPON_temperature_RDF" source_frame_index=1769 relative_time_ps=176.9 pbc="T T T"
Li       7.41601942       3.20155712      10.23739854
Li       1.90102159       9.68041508       8.76456803
Li       5.03508063       3.79629501      10.16361819
Li       8.69304639       6.02478850       5.52947116
Li       0.56418645       6.55281357       3.65800125
Li       7.36673745       4.97843164       8.56770167
P        3.51832404       5.07591427      11.89580569
P        4.14068030       5.89043469       3.83310071
N        9.13500691       2.29167039       5.57104174
O        6.53354944       9.05778714       2.21233146
O        5.17710232       5.04226507      11.86498103
O        5.37042849      10.31574034      10.02982932
O        3.08711236       3.76270598      11.16754541
O        4.50170738       5.92762725       5.27762485
O        4.27732018       8.58551215       0.05025343
O        2.77617656       5.27210833       0.81349055
Li       9.00039523      10.31397145       1.86847528
Li       5.30162207       8.31132169      11.14137930
Li       4.40143392       2.07279393       0.16859253
Li       1.90174969       2.87579934      12.31001652
Li       1.44505864       8.94145908       1.85283473
Li       5.08914976       1.21355019       2.92967554
P        2.96251121       3.92354954       7.56950816
P        8.29224617       3.68458734       5.43892358
O        2.48692971       5.78935802       3.89048642
O        1.95612622       0.82420248       3.65209053
O        1.87030329       2.99607082       8.28958936
O        4.87611770       9.44638123       4.89585561
O        4.42752171       3.84067252       8.08242896
O        6.80391394       3.55340769       5.35211287
O        8.16387454       7.68113761       4.55411523
O        2.58737419       5.34470731       7.96688670
Li       2.74137584       6.19965407       6.24945639
Li       2.19424181       6.86114780       9.07079921
Li       4.57571405      10.21985149       8.41510424
Li       1.40287741       0.25446453       5.39572372
Li       6.45199519       7.16594878       3.38500103
Li       1.18137732       6.06552636       0.80890340
P        7.18864137       8.40265366       1.04467586
P        2.89626525       8.10167380      11.88711922
O        8.83698463      10.06917208       3.93370527
O        8.27135805       2.38625664      12.36929012
O        8.74916147       8.33918381       1.09718023
O        6.01173418       2.60505605       1.42959212
O        6.58617942       6.81538598       0.94213055
O        2.46327322       9.04096171      10.52616529
O        4.50810850       7.13829409       2.95188855
O        6.82298639       8.70398174      12.01597796
Li       5.06035363       9.13011803       3.22107386
Li       7.14289179       0.83372891       8.81057032
Li       9.75928704       2.96134888       7.94348117
Li       8.13754457       0.62318609      12.04625252
Li       0.07944488       1.43473068       3.65685102
Li       2.87198397       8.29825214       3.53082603
P        2.47032103       0.74890626       2.20474675
P        9.34322619       8.80955402       4.38814480
O        3.15933408       6.66137134      11.06116532
O        3.04294480       3.59143482       6.10007825
O        1.52134457      10.55521469       1.33370696
O        7.28669958       9.01463378       8.69032177
O        2.69736048       2.08322788       1.32115867
O        0.74586071       8.21669631       3.78234242
O        9.83958374       1.59935864       6.46885884
O        3.84416578      10.66181812       2.23308409
Li       8.62040846       5.85657663       0.87461885
Li       5.24344156       2.38400107       7.36087715
Li       3.95783973       8.35270056       6.18789425
Li       9.12694655      10.17393981       7.13685041
Li       2.08131288       4.00675189       4.45841386
Li       4.86380235       3.68846700       5.07657130
P        9.20996461       4.53975543       2.93195386
P        5.24654437       1.08413944      10.55019755
O        4.87104580       1.36542386       4.66511072
O        9.24694705      10.57928500      10.60569228
O        4.52828913       4.52870769       3.18697359
N        8.78655290       4.81738971       4.40542226
O        3.75179562       1.33020755      10.78847784
O        7.95309762       3.82783227       2.13161054
O        9.53667978       5.94940831       2.33951204
Li       1.91184050       1.61689268       7.07343159
Li       4.90963441       6.85528598       0.83744833
Li       9.05966381       8.76888129       9.37114322
Li       4.16327659       5.81240836       9.22403788
Li       5.01340265      10.06132648       0.73193207
Li       0.74832232       5.42409798       7.61260975
P        8.95421241       6.12823388      10.66522500
P        4.54553741       0.10528626       5.70087475
O        5.92147788       2.11733343       9.56597173
O        0.34888795       6.45686884       6.28581152
O        8.83802784       7.62973181      10.74129765
O        8.59989292       4.42295063       6.89352394
N        0.01014980       5.83396552       9.48326116
O        3.18697502       0.25225363       6.19322165
O        5.51256492       7.22078485       9.62026913
O        7.63989648       5.28477641      10.66740728
Li       0.17948624       9.20310413      11.97694809
Li       7.12530615       1.03115144       5.27799543
Li       0.05025335       3.73591954      11.56952821
Li       8.70220987       6.81040888       8.12254636
Li       2.54229192       4.10158940       2.13744265
Li       5.47447037       5.54385958       6.68609352
P        0.03875659       1.12029014       9.94196759
P        7.52630864       2.38806120       1.33722262
O        5.24549758       8.28899523       7.36130278
O        0.46475492       3.72590129       2.71473203
O        8.95759310       2.19826473       9.45629181
O        1.80556138       8.10114439       0.47086025
N        0.87617818       1.82398951      11.01652505
O        8.34337186       1.36940486       2.21635984
O        5.94305233       1.04492367      11.97332506
O        0.92762956       0.45638719       8.79597445
Li       7.11711788       9.26133649      10.57299915
Li       5.90521305       4.39369352       1.51953227
Li       2.32176200       2.51512555       9.98623923
Li       6.40520008       6.50467857      11.54396706
Li       2.00046825       0.43330471      11.37263194
P        0.72990191       8.07703185       6.53581547
P        6.20983865       7.76979511       8.36803327
O        9.88628758       5.71152687      11.81119985
N        9.83342457       9.23457702       5.85728238
O        2.23520047       8.32632920       6.32685252
O        6.92130945       6.53089495       7.63030777
O        5.58050118       0.30935177       6.84424020
O        0.24481927       8.21009701       8.00325580
124
Lattice="9.92562 0.0 0.0 0.0 10.6806 0.0 0.0 0.0 12.4552" Properties=species:S:1:pos:R:3 material=LiPON model=NEP89 temperature_K=1200 phase="NVT production" display_name="LiPON｜NEP89｜1200 K｜NVT production計算" report_figures="23_LiPON_lithium_MSD; 24_LiPON_transport_comparison; 25_LiPON_temperature_RDF" source_frame_index=1799 relative_time_ps=179.9 pbc="T T T"
Li       0.22752011       2.66506969       7.70270396
Li       9.10243354       6.92273740       7.85399457
Li       6.85908893       3.29427438       8.97459894
Li       6.38632891       9.30110424       3.74625567
Li       9.15640402       6.30009007       2.85612081
Li       5.83244310       5.92651125      10.11760764
P        2.86143311       4.75811193       0.30044357
P        4.22752965       5.75480721       4.42737463
N        0.37560273       3.17604612       5.51620863
O        6.27561169       8.90067033       1.89316371
O        4.39063308       4.80184368       0.13906372
O        5.18875018      10.30798672      11.50726066
O        2.10990144       3.52629628      12.25664518
O        5.62098458       5.77274193       5.20976834
O        2.91659236       7.81072817       0.93755062
O        2.43845786       4.83789358       1.73306244
Li       0.39311086       8.58980240       1.97736305
Li       3.66253717       7.33849838       6.97392913
Li       3.51209393       2.30437467       0.76057731
Li       4.86923117       3.54065479      11.18261614
Li       1.98913157       6.50529756       2.69377527
Li       5.71273133       3.95633664       5.65426296
P        3.98000498       4.32527512       8.39784908
P        9.18831769       4.45774095       5.51249462
O        3.69217978       4.25585883       4.44143368
O        2.71943269       1.58686699       3.76478018
O        3.35565560       2.96606902       7.90141200
O        6.27289879      10.26853300       5.03717272
O        4.05635251       4.34956132       9.93267412
O        7.87652029       4.04629485       6.30882752
O        7.71847068       8.20066356       4.55101743
O        3.16183489       5.69047790       7.88251492
Li       2.39200066       1.46718601       8.11578937
Li       1.97800900       9.64633430       9.85039219
Li       7.70758999       0.70824405       2.86308138
Li       4.31490723       8.62250235       1.98841712
Li       6.87908931       6.36083629       3.30953984
Li       9.13380709       6.18087363       0.59577845
P        7.02014829       7.73803982       1.05670377
P        1.99542973       7.56582187      12.14277347
O        9.16472179      10.07599908       3.19844817
O        6.58654830       2.99581403      12.01198145
O        7.85389780       8.23598721      12.28801319
O        5.05169479       2.49954620       1.63752619
O        8.00589765       6.96682708       1.93673979
O        2.61375894       8.47890424      11.10782793
O        3.17859869       6.61523399       5.26653307
O        5.87962290       6.80763796       0.21597368
Li       5.70155161      10.42542407       0.80999837
Li       4.45650588      10.01303329       7.85107302
Li       1.96639102       2.05209876      11.07369840
Li       7.47284287       1.87975220      10.81079252
Li       0.36002891       3.96431516      11.50276148
Li       2.87332140       9.02948087       4.90607525
P        3.00557510       0.35131361       2.78580782
P        9.12848056       8.88835566       4.25206970
O        2.26736571       5.94967737      11.97609345
O        5.54266668       4.41200558       7.64306433
O        2.50612846       0.82790672       1.35617754
O        6.95169626       9.61365251       8.92801102
O        4.52110465       0.06567388       2.35093166
O        0.11746815       7.63332808       3.70285725
O        1.45751478       2.97360276       6.11208474
O        2.33186554       9.81965388       3.40607821
Li       6.50879182       5.01241585       0.03624218
Li       2.72997334       1.66446688       5.78943826
Li       8.57248733       9.89573812       1.08343095
Li       0.71894580       1.54417837       4.37415527
Li       5.14165638       1.46079013       3.06450861
Li       1.49756379       7.07139286       5.00945226
P        8.60806894       3.69567460       2.70593269
P        4.62910784       0.73174426      10.52882427
O        5.62903327       2.08993800       4.87904196
O        9.01006457      10.18665626      10.33066267
O        4.40744494       6.33053270       3.03108747
N        8.67883621       4.70321858       4.03968282
O        3.71161278      10.64577437       9.58753200
O        7.24137205       3.76565990       1.93213321
O        9.87415142       4.27799532       2.03048825
Li       8.71317121       0.80680283       5.82855092
Li       4.95781484       4.19370191       2.45048680
Li       8.48804671       8.64639455       9.17062978
Li       7.24634755       5.19107840       7.54227984
Li       4.70358615       7.93479238      11.27210576
Li       2.17829997       4.85652624       6.38268843
P        8.75018895       5.47865517      10.12525611
P        5.75517587       0.74842234       5.76331878
O        5.78680644       1.51051241       9.93542976
O        1.45588328       0.22415303       6.94979209
O        9.02546050       6.95994624       9.61085852
O        0.13207021       5.72720122       5.84010213
N        0.04262223       4.64398420       9.76297272
O        4.34880402       0.61776080       6.42775316
O        5.82525310       7.61297361       9.74910938
O        7.40005511       4.96780978       9.64827208
Li       9.30216085       8.01829630      10.99034127
Li       7.18208501       0.83807533       8.75926483
Li       1.64512162       6.17900655       9.36785695
Li       6.61976749       7.25790572       5.73045096
Li       9.17810370       1.92447224       1.04903391
Li       8.01919065       9.89074612       7.25027468
P        9.65911063       0.86943383      10.04129479
P        6.50251840       2.53211531       1.09086679
O        5.18701606       8.28436675       7.60091221
O        8.93133219       2.25647927       3.22368418
O        8.79185784       1.64772478       8.92915384
O        0.56222017       7.75678047       0.03810287
N        9.59045240       1.86011877      11.23474450
O        7.23422426       1.20781541       1.08555039
O        3.85524071       1.68109221      11.56347822
O        1.29064121       0.74550466       9.79681266
Li       6.90723811       9.69186676      10.87217505
Li       2.40288423       3.49896399       3.38647813
Li       5.37726254       2.34860369       7.55016570
Li       4.18850989       6.46126345       1.36050778
Li       3.21940599       0.02373389      12.23900020
P        0.84677403       9.52761026       6.83031612
P        6.42081400       8.30704680       8.45227865
O        8.61085198       5.30279996      11.64961356
N        9.64147869       9.57176742       5.62534591
O        0.42820112       8.91157423       8.15735487
O        7.39487634       7.52401774       7.59215959
O        6.87480748       0.96176484       6.74313925
O        1.90367096       8.62291864       6.19159486
124
Lattice="9.92562 0.0 0.0 0.0 10.6806 0.0 0.0 0.0 12.4552" Properties=species:S:1:pos:R:3 material=LiPON model=NEP89 temperature_K=1200 phase="NVT production" display_name="LiPON｜NEP89｜1200 K｜NVT production計算" report_figures="23_LiPON_lithium_MSD; 24_LiPON_transport_comparison; 25_LiPON_temperature_RDF" source_frame_index=1829 relative_time_ps=182.9 pbc="T T T"
Li       3.87337009       1.49754193       9.11152081
Li       8.23829812       8.19801416       8.84619651
Li       5.26261682       4.61134774       6.80121768
Li       0.82168112       0.47655161       4.36763901
Li       9.41902512       9.45657625       2.03710286
Li       6.11035558       6.02826233       9.36192147
P        3.05492929       4.53766107      12.27268168
P        4.45350059       5.75606542       3.90859620
N        9.46122260       2.86220506       6.17424759
O        7.99850477       8.62017811       0.67817208
O        4.47270874       5.17481241      11.94278030
O        5.32678668      10.33536825      11.94361997
O        2.27095503       3.72660072      11.19209097
O        5.47323450       5.64220288       5.18612641
O        3.87066630       7.84954759       0.51440146
O        3.16838179       3.54340138       1.00568417
Li       1.95640482       8.37285028       3.64445370
Li       0.44989990       6.68142910       4.46226719
Li       4.25668627       1.75299698       1.21726927
Li       6.78091942       4.77585897      12.31611515
Li       4.32891832       9.85379974       0.93822752
Li       6.60222417       3.51291394       4.32370447
P        2.90352114       4.12762547       8.32782214
P        9.75887977       4.33088890       5.18431636
O        4.02859506       4.32430888       3.98068375
O        2.93750021       1.12392398       4.60881329
O        2.44408023       2.63807245       8.71173874
O        6.35244707       0.11973342       5.67658794
O        4.25908942       4.65800314       9.03721531
O        9.62887659       5.57763071       5.94144521
O        7.80387878       8.12687739       5.07226844
O        1.72005898       5.09573883       8.83771041
Li       0.78513528       6.32780792       8.06338916
Li       3.13392012       6.39691856       9.85607979
Li       9.16983399       0.94539686       1.85669235
Li       6.23654660       0.33891614       3.65669715
Li       6.81197199       8.29845274       2.02448880
Li       6.39415505       9.26267753      10.67882747
P        8.05833741       7.54071462      12.04848830
P        2.46896942       7.50397960      12.40880200
O        8.39410466       9.99836073       3.37679530
O        6.02912864       3.30023679       0.98559612
O        9.21241359       6.53504649      12.34744260
O        6.28093809       2.35004118       3.29466443
O        6.73909657       6.67074494      12.10258541
O        2.20785767       7.73576428      10.91676551
O        3.54703399       7.02754624       4.26947039
O        8.13704635       8.01074596      10.64244949
Li       7.20085454      10.54986087       0.21909509
Li       6.03868118       8.91966098       5.14167489
Li       4.83107319       3.87023779      10.63695087
Li       6.60324735       2.08250020      11.79717918
Li       0.53662769       5.05069719      12.16765942
Li       1.72333242       9.77365480      11.54258473
P        3.40312673      10.66215917       3.73154142
P        8.82990599       9.03610111       4.46945422
O        2.18625483       5.92993094       0.35759803
O        3.38156735       3.97088786       6.86504638
O        1.94421498      10.09785192       3.23323522
O        6.22895015       9.57498281       8.59474643
O        4.40842887       0.51722135       2.78903220
O        9.91682989       8.20218371       3.55808398
O        9.27990955       1.69785062       6.38380923
O        4.21391448       9.47318658       4.38644240
Li       0.09281328       7.17251078       1.44654377
Li       4.82426335       4.19469219       2.16120411
Li       6.41008969       0.52133132       9.38059062
Li       2.02684930       2.77717631       3.59668765
Li       3.76779452       3.33031409       5.31257190
Li       7.49649167       6.63418375       4.01996219
P        9.54491626       3.83394244       2.67305615
P        4.10769230       0.57973969      11.41570563
O        5.65839553       2.58911856       6.07526498
O        9.89368902       0.29014884       0.29742539
O        5.23976915       6.08592717       2.68593477
N        8.74269016       4.14079846       3.99875861
O        3.34000679      10.32687173      10.50862925
O        8.18731242       3.66389653       1.77772190
O        0.31066712       5.03759389       2.17447497
Li       7.96373090       2.91781416       7.08025845
Li       4.89471198       6.12733177       0.97952534
Li       9.90737462       1.20275826       8.46460976
Li       4.41206109       6.64050533       6.18011903
Li       5.34024661       6.95538700      11.05392863
Li       2.45793059       1.06388231       7.25516062
P        7.85585399       4.13899937       9.28704138
P        5.77439870       1.20896725       6.72240659
O        4.81386407       1.88045432      10.77085850
O        1.04112312      10.59104986       7.43550486
O        8.75275361       5.27103279       9.67173277
O        1.34169685       4.17664370       4.90484648
N        8.79286558       2.93655391       9.21583919
O        4.41898069       0.80498261       7.50482974
O        4.90342174       7.59878512       9.29899747
O        6.93598582       4.14196647       7.93714627
Li       3.09859479       8.81910023       9.59290901
Li       3.80542570       9.66168394       6.06297328
Li       0.35807891       7.01359941      10.66422821
Li       7.94214833       6.07197844       6.98716495
Li       1.45272522       2.07452793       0.82300015
Li       7.38111849      10.12554850       7.40850163
P        9.58396534       0.52197811      11.30687941
P        6.88255055       2.45397155       1.92955034
O        4.61868602       8.25870847       6.88560003
O        0.59366268       2.64788209       2.60335418
O        8.04540794       0.55069700      10.96536668
O        1.44742421       8.35806121       0.84123254
N        0.24984158       1.94281199      11.09553654
O        7.38228521       1.09626199       1.54168952
O        2.87065529       0.71337456       0.27024397
O        0.42844749      10.27387975      10.43265332
Li       1.87512489       1.66772398      10.54568230
Li       2.34805526       4.85433740       3.18251711
Li       0.58119112       3.60596651       9.80963501
Li       3.78489328       7.81457294       2.61054603
Li       1.72841401      10.51061598       1.47152786
P        0.64991278       9.32210095       6.72309534
P        5.59766931       8.11139339       8.10546229
O        6.89562056       3.81350056      10.39848691
N        9.54787201       9.90118749       5.59524578
O        9.57761000       8.67899428       7.73683305
O        6.92118310       7.32058843       7.80241457
O        6.91652539       1.47744682       7.62211566
O        1.62819072       8.60788064       5.92539790
124
Lattice="9.92562 0.0 0.0 0.0 10.6806 0.0 0.0 0.0 12.4552" Properties=species:S:1:pos:R:3 material=LiPON model=NEP89 temperature_K=1200 phase="NVT production" display_name="LiPON｜NEP89｜1200 K｜NVT production計算" report_figures="23_LiPON_lithium_MSD; 24_LiPON_transport_comparison; 25_LiPON_temperature_RDF" source_frame_index=1859 relative_time_ps=185.9 pbc="T T T"
Li       3.46378391       1.12900900       6.46040264
Li       9.32820057       5.85492979       7.30167706
Li       4.93143782       6.79783659       6.48625037
Li       3.37958036       8.45199093       7.26806613
Li       2.12462377       8.72591113       3.15298947
Li       6.44187642       5.70993381      11.39450511
P        3.27207357       4.46755320      12.12881927
P        3.99796264       7.26413691       4.11463064
N        0.09942594       2.36293279       5.82887890
O        5.71236005       8.98742812       0.63300248
O        4.39675024       4.15614521      11.18313052
O        3.36457253      10.03204713       9.56968202
O        2.22434589       3.24275144      12.20044246
O        3.28398802       6.06812653       3.48249559
O        2.93226739       8.37766236      12.16287705
O        3.83110252       4.69693866       1.15313554
Li       2.00559270       6.54178203       5.89360615
Li       3.48954636       8.16016930      10.06090713
Li       4.05418113       2.56862273       1.53666618
Li       6.90812886       3.45981928       4.86370656
Li       5.74647634       9.90197850       3.76823640
Li       0.20880940       9.50059135       2.07946670
P        3.98725476       3.66347956       7.29738887
P        0.20307731       4.05611670       5.14400303
O        3.13777763       7.93399265       5.41269115
O        2.59032783       2.07244263       2.59747284
O        3.89806728       2.98273744       5.91588457
O        6.45110494       1.71251094       5.82114002
O        5.07467079       2.82597998       8.16909930
O        8.92086050       4.60334851       5.82555004
O        8.31985641       7.66646384       4.77176169
O        2.56210371       3.64467554       7.89822376
Li       7.21652734       7.09125944       3.08903229
Li       0.87251008       5.99251313       9.71348148
Li       6.77729803       0.18259875       1.15145486
Li       5.01614127       1.93169569       4.72015397
Li       8.54049227       7.18931075      10.29289303
Li       4.59641752       7.19156942      11.66991684
P        6.70777805       7.83711716       0.58569358
P        1.75836081       7.48956870      12.23444029
O        9.72745762       9.63328345       4.07447952
O        5.98213102       2.21297399       0.88188804
O        7.58586215       8.25596842       1.91115303
O        5.94864645       3.34859532       3.10156056
O        6.14245044       6.29967207       0.62650064
O        0.60281418       7.77286758      11.23677931
O        5.22885105       6.64010524       4.69618932
O        7.75155974       7.85168132      11.83159386
Li       3.81957573       9.15071301       1.54361969
Li       7.97488764       8.74610809       6.49792685
Li       5.90594011       4.61526856       8.29620394
Li       5.89663948       2.44273912      11.26215334
Li       9.19134622       6.65817989      12.43181854
Li       7.96926905       9.23187959      10.60091433
P        3.04780382       0.80794094       3.42029199
P        9.71155981       8.30520636       4.69804220
O        2.10041501       5.82393646      11.87704275
O        4.53471128       5.13101991       7.12671838
O        2.62475357       0.69184620       4.89095134
O        6.58017876       8.70136814       9.57881828
O        2.49257328      10.34713543       2.60322980
O        0.80509119       7.48608694       3.88060489
O        9.86660945       1.84484242       7.03437181
O        4.74036168       0.82519461       3.32242305
Li       1.08805296       6.12207848       2.53619064
Li       6.85326553       6.89268307       5.22827046
Li       5.37418708      10.06916745       8.70632788
Li       2.27618559       4.10554761       1.91818489
Li       8.22035107       0.54303791       4.33976935
Li       0.96320943       1.93422515       3.47507485
P        9.16177316       4.51337454       2.37676615
P        3.72429212       0.62543202      10.32760606
O        7.17544660       0.00656151       7.59363751
O        9.82818906       0.75223682      12.44410368
O        4.41550976       8.55279146       3.33714872
N        9.86153588       3.99940048       3.60167748
O        2.78259711       1.69407789       9.61521616
O        8.18541823       3.43547575       1.79394529
O        8.39478747       5.81800303       2.73025485
Li       8.12009730       2.21526089       6.60678916
Li       4.13789131       5.59895601       9.02776484
Li       8.38865510      10.24586176       8.70593388
Li       0.83053273       3.29339015       8.18226936
Li       0.94077602       9.12196180      10.09370537
Li       3.51192837       4.41742070       4.30316879
P        8.70043924       3.78162226      10.00124253
P        6.22061104       0.28165211       6.46423881
O        5.19331068       0.98370560       9.91002786
O        9.50288048       8.37431395       8.66970833
O        0.17057575       4.22506575       9.45261621
O        1.60095471       4.55609446       5.21858436
N        9.40033012       2.45358862      10.71873072
O        4.85321198      10.57496031       6.93336074
O        5.60696399       6.33563053       9.82441992
O        7.74769410       3.66419207       8.83494244
Li       1.01285107       0.48362139       8.81218420
Li       0.83560339       0.29817123       5.68287876
Li       5.59514346       9.80164071      11.08819485
Li       1.39284680       2.41014172      10.81584187
Li       0.31742821       3.91613113      12.19239531
Li       3.93667324       9.76491743       5.03400329
P        8.88428486       0.88557685      11.23478280
P        6.84690183       2.29681865       2.19329794
O        4.72867535       7.76050241       8.02393524
O        0.47726746       4.48880929       1.46742668
O        7.49734889       0.23532688      11.32993682
O        0.88091523       7.59406727       1.05506146
N        8.11149344       2.49759370      11.04094323
O        7.37991316       0.94386703       2.57682147
O        3.58488018       0.56368803      11.83298173
O        9.54177228       0.07323153      10.03228157
Li       3.84730948       3.39791720       9.49930008
Li       6.47285051       4.74583901       1.99408283
Li       7.10918993       1.80069550       8.66736672
Li       4.37338192       6.54210561       1.67625818
Li       2.23680003       0.58004594       0.61268803
P        0.72197619       8.43991867       7.58267154
P        6.05903096       7.40203696       8.73150281
O        8.32691471       4.95402301      10.91714542
N        0.31939783       8.37569380       6.12655439
O        1.97687382       7.48072198       8.13151648
O        7.05762531       6.82525468       7.63871535
O        6.61311448       9.87784489       5.38297182
O        1.33097975       9.88057283       7.50442176
124
Lattice="9.92562 0.0 0.0 0.0 10.6806 0.0 0.0 0.0 12.4552" Properties=species:S:1:pos:R:3 material=LiPON model=NEP89 temperature_K=1200 phase="NVT production" display_name="LiPON｜NEP89｜1200 K｜NVT production計算" report_figures="23_LiPON_lithium_MSD; 24_LiPON_transport_comparison; 25_LiPON_temperature_RDF" source_frame_index=1889 relative_time_ps=188.9 pbc="T T T"
Li       9.52020194       1.44218999       2.89657832
Li       2.89210915       5.59525185       5.82248981
Li       1.82698591       2.65264242       5.44924841
Li       2.21225786       8.74634267       2.96069193
Li       2.31611873      10.55512131       0.07207090
Li       8.41388590       3.35418316       0.47198138
P        3.65180669       5.13663082      12.40751142
P        3.82893896       6.78643793       3.87430834
N        9.89107103       2.59451005       6.03406026
O        5.44402240       8.49517725       0.07662154
O        3.43573311       4.69194068      10.95722365
O        4.29963267       0.52345298       0.17101411
O        3.39022241       3.74205150       0.76235975
O        2.65126874       5.92546595       3.21013085
O        2.88509291       7.70168368      10.51267129
O        5.04761711       5.63040729       0.29267117
Li       3.36964158       7.27668048       7.34986842
Li       5.92685930       6.73493251      11.60301812
Li       6.57010269       2.85603057      11.04394763
Li       4.52796025       2.27255353       4.98108327
Li       6.82733545      10.56467777       3.53760356
Li       8.36601888       9.42729748       8.79246509
P        3.86030200       3.76695477       7.68251750
P        9.04485417       4.06899334       5.76986356
O        3.38736452       7.42064833       5.19647824
O        4.23279271       0.73480041       2.60566454
O        3.21395271       2.67126207       8.47750195
O        6.15908220       1.65145710       5.81722039
O        5.43056894       3.62713395       8.00735762
O        7.60762116       4.18135439       6.34684672
O        7.98841185       7.69892321       4.58602649
O        3.50575041       5.22375664       7.85055500
Li       8.97454100       7.06634187       2.66643099
Li       6.96864623       4.90810613       8.24151967
Li       8.68008005       7.14503556      10.85936774
Li       4.53031429       1.34803549       8.65979453
Li       9.13408735       6.32065888       7.78654716
Li       4.64367900       7.25776003       1.32319996
P        6.79913796       8.47850029       0.82397322
P        1.92704934       7.58885425      11.74718326
O        8.95117533      10.21913493       4.39381468
O        6.52385287       2.60501015       1.11752244
O        6.77189137       9.74698248       1.78901640
O        5.32977364       3.27493285       3.20660971
O        6.64160198       7.36275960       1.96574538
O        0.45133035       7.33983133      11.42760815
O        5.34306571       6.04560015       4.05871908
O        8.09828992       8.25816923      12.43034811
Li       2.18117002       8.83590101       9.12553757
Li       6.26305051       7.93195078       3.62797470
Li       2.63091299       0.89449735       6.61582651
Li       5.03770492       9.97713446       1.25602274
Li       0.33936766       5.75529431      12.30755055
Li       7.70457193       9.86562180      11.63924818
P        2.89762530       1.02385982       3.30652493
P        9.18551987       8.67036630       4.38408084
O        2.37403850       6.17207898       0.13660279
O        3.63958149       3.41646480       6.10211299
O        2.55573276       2.53489190       3.64541853
O        7.26150377       8.18587098       9.76073544
O        1.82928326       0.23487368       2.54141283
O        0.03471322       8.62522238       2.95243155
O        0.18935713       1.40197225       6.43784292
O        2.90249400       0.39464372       4.65748519
Li       1.10197879       6.73286164       4.59531723
Li       6.60144008       0.04898817       9.60832053
Li       5.30158811       3.86603923      10.16814952
Li       3.15980709       4.21100856       3.16940835
Li       5.96723765       4.37258687       4.80658243
Li       9.77546946       9.47183074       0.71961247
P        9.39647612       4.32915274       2.77555032
P        5.02366568       0.78212279      11.20117372
O        7.12883814      10.56424111       7.53905254
O        1.28881272       0.91036348      11.62292497
O        4.10196406       8.08773041       3.03894591
N        9.21633494       4.04677804       4.24227017
O        4.37967673      10.44894873       9.99657985
O        7.70026712       3.98723236       2.26362714
O        9.85320426       5.55276076       1.98606067
Li       8.24685054       0.93793434       5.82722332
Li       4.06339458       6.08199724       9.78725993
Li       7.67401338       8.74132719       6.63451898
Li       1.88613887       5.91228215       8.66257638
Li       9.90848375       0.31561045       8.18753604
Li       0.72092553       0.06732323       5.21285424
P        9.00462804       3.95019454      10.20066443
P        5.89438584       0.26379855       6.54393811
O        6.52838297       0.37191576      11.33245245
O        9.35787652       8.51415441       7.73215454
O        0.23531762       4.63782943       9.44638672
O        0.05736874       5.01068918       6.41090496
N        0.18708847       2.45129252      10.48166259
O        4.33558666       0.41180415       7.05775480
O        7.00685140       6.78321318       7.47862221
O        7.96173508       3.51533942       9.24044177
Li       4.66274845       9.85098822       8.33234616
Li       7.22029549       0.78981900       0.36033507
Li       4.40259151       8.70248499      10.84094749
Li       1.33584196       3.17557483       8.09699678
Li       1.85324531       2.65369491       1.27829173
Li       3.99291579       9.45381562       5.58556374
P        9.77062526       1.08579321      11.16985743
P        6.74341041       2.76082007       2.59045771
O        6.18099704       5.92195665       9.88261297
O        0.28298534       3.16392306       2.48373177
O        9.09959502       0.62776380       0.09272328
O        2.07219150       8.82765567       0.26046148
N        8.93115072       2.50289646      11.04089986
O        7.40024408       1.49764268       3.23629443
O        4.92135354       2.24915233      10.74453319
O        9.26850352       0.17058891      10.06330335
Li       3.02845010       2.51685627      11.06859720
Li       6.62870006       6.46279211       5.47271685
Li       6.75970083       2.60788240       7.41473932
Li       6.29826880       5.70240138       2.34971203
Li       4.57756234       2.25229552       1.68630939
P        0.83853161       8.59265577       6.97234285
P        6.26711989       7.06542567       8.93430814
O        8.58816807       4.67658329      11.55483787
N        0.39180178       8.41557454       5.47613415
O        1.58866956       7.43620904       7.61957179
O        4.90373320       7.59668865       8.72394292
O        5.80654752       9.72860909       5.47558335
O        1.67660063       9.85670244       7.02828750
124
Lattice="9.92562 0.0 0.0 0.0 10.6806 0.0 0.0 0.0 12.4552" Properties=species:S:1:pos:R:3 material=LiPON model=NEP89 temperature_K=1200 phase="NVT production" display_name="LiPON｜NEP89｜1200 K｜NVT production計算" report_figures="23_LiPON_lithium_MSD; 24_LiPON_transport_comparison; 25_LiPON_temperature_RDF" source_frame_index=1919 relative_time_ps=191.9 pbc="T T T"
Li       1.39728769       0.35057492       3.31722884
Li       8.93977582       7.36202934       2.54010311
Li       1.84891424       3.12561123       5.07382742
Li       2.57991767       9.34390543       4.28972977
Li       2.39264239      10.18009088       0.42231936
Li       1.03482181       2.40207892       1.72441420
P        2.35499199       4.63184142      11.89499925
P        4.03745927       6.64768586       3.49065582
N        9.04700834       3.05671494       7.29900023
O        5.40657411       7.39406334       0.31389564
O        1.70746998       4.60434218      10.48592842
O        3.79410713      10.42716189      12.00620798
O        1.83664638       3.46523445       0.38005320
O        3.04080291       6.47611873       4.65679815
O        2.91000780       7.53828909      10.80051849
O        3.92834015       4.91657735      12.13503661
Li       5.28665044       4.82667183       6.05261285
Li       3.74804016       5.62838662       9.57787563
Li       7.53813703      10.64815281       1.42686521
Li       4.67110886       2.97609924       4.24774472
Li       2.85229242       0.92916139       7.72306389
Li       4.53501179       9.66122623       6.88030270
P        3.43940891       3.94923833       7.35275656
P        9.09210704       4.53346938       6.51929304
O        5.59561535       6.44050597       4.04145517
O        4.74680235       0.38193362       2.38622060
O        2.56646718       2.98791003       8.05449963
O        7.36526618       1.27596456       5.56059783
O        3.56206043       3.82967268       5.74045468
O        7.48289176       4.84862783       6.39222000
O        8.56604519       8.02936181       4.78243480
O        4.95649858       3.83611474       7.94267038
Li       8.75266322       4.89492566       0.88758855
Li       6.61864699       4.57110327       8.48509133
Li       6.41155191       7.80847095       5.40447781
Li       4.79356701       3.10087991       9.52602180
Li       8.57191687       8.71413326       6.83934995
Li       4.11283087       9.25482917       1.30069580
P        6.81197272       7.69328274       0.85847008
P        1.72559021       7.39689104      11.67562587
O        9.79834640      10.32117248       4.00337470
O        6.16374610       3.77066715       1.65476003
O        7.33654355       6.40117593       1.77339718
O        6.29308796       3.41342014       3.95264138
O        7.82752917       7.92902898      12.18345802
O        0.53452327       7.58525935      10.73122771
O        4.03758183       5.40765828       2.48730494
O        6.99823887       9.03484420       1.67683087
Li       8.70666517       6.62773320      10.51868252
Li       8.87396101       1.38082926       3.69568287
Li       2.19030297      10.41167490      10.51629479
Li       7.60688917       9.33202608      11.10093584
Li       1.42324739       2.75208557       9.87349861
Li       4.42660325       8.62336788      11.32403779
P        3.42397888       1.25184543       2.67534199
P        9.92322050       8.78711106       4.29660101
O        1.61230942       5.85030522       0.07679962
O        3.08859484       5.42007671       7.85254398
O        3.71998009       2.63484674       2.78903371
O        5.36591459       8.62791896       9.24807094
O        2.41581464       0.90485621       1.53472142
O        0.50399011       8.17007288       3.05881089
O        9.23283550       2.10486793       8.16336760
O        2.83757852       0.81726804       3.98795672
Li       7.33979175       5.36056969       4.38412116
Li       9.18237436       9.90517204       8.99558985
Li       5.37244190       1.61443190       1.22197717
Li       2.53718527       3.94912260       2.09447363
Li       7.12769599       2.75354958       6.37323210
Li       5.99826076       4.67768234      11.33877292
P        9.90161973       4.02308053       3.53640766
P        4.75329850       0.71816615      11.30631390
O        7.30323830      10.08669265       7.21841257
O        1.16210978       0.97415642      11.11846061
O        4.01313202       7.93242457       2.76763217
N        9.80742852       4.49426916       5.08349589
O        4.52310493       0.87071616       9.87526222
O        8.63565119       3.72361613       2.65994446
O        0.73129861       5.14672046       2.79563993
Li       9.83164228       0.87701279       6.27014655
Li       3.99551851       6.46879194       0.76706516
Li       6.55953711       0.14367850       3.68523873
Li       4.35097079       0.31214605       4.91986953
Li       3.32096443       8.26236726       9.11033217
Li       1.36577538       4.64703337       8.83202297
P        8.26943330       3.73218820      10.74783770
P        6.40044909       0.13562142       6.24963609
O        6.10506301      10.59728904      11.41509609
O        0.29895375       9.81192724       7.55134466
O        8.95154194       4.45579884       9.62071571
O        9.85172936       5.68854814       7.16639774
N        8.88291777       2.47233737      11.96495348
O        5.23333057       0.96258192       6.65747408
O        5.72891725       6.15531852       9.44634538
O        6.91924845       3.37105998      10.22457921
Li       3.71397113       6.86453591       6.67131258
Li       9.69512228       8.74494521       0.76020044
Li       6.03296570      10.28130643       8.98711929
Li       0.27331386       6.99873586       8.48307008
Li       1.71141192       6.63173154       2.45405925
Li       5.74271123       8.81991603       2.95065040
P        9.62968170       1.04712367      11.63845422
P        7.05527354       3.07526649       2.76862491
O        5.59524987       7.23097847       7.13264023
O        0.68744902       2.61311141       3.64892486
O        9.43226161       0.83787186       0.61308885
O        1.78739620       8.24324163       0.51380907
N        9.47276542       2.46010946      10.73029459
O        7.09114668       1.46519623       2.35072626
O        4.91944131       2.03757175      12.08982214
O        8.81838803       0.02825353      10.76562941
Li       2.69621860       1.67974698      12.37686550
Li       0.35503608       6.52227007       5.65340559
Li       7.07861838       1.19923959      10.71681151
Li       5.97761583       5.33170910       2.47999533
Li       4.54676084       3.71787255       1.04841020
P        1.54609973       9.25852714       6.92386442
P        6.07311274       7.39344638       8.63279472
O        8.05692464       4.96575738      11.81897199
N        0.78146308       8.73581477       5.64319173
O        2.04525181       8.01646794       7.60596839
O        7.59297911       7.72733736       8.90146792
O        5.98635151       9.75243719       5.13762198
O        2.84593613      10.13113080       6.77303530
124
Lattice="9.92562 0.0 0.0 0.0 10.6806 0.0 0.0 0.0 12.4552" Properties=species:S:1:pos:R:3 material=LiPON model=NEP89 temperature_K=1200 phase="NVT production" display_name="LiPON｜NEP89｜1200 K｜NVT production計算" report_figures="23_LiPON_lithium_MSD; 24_LiPON_transport_comparison; 25_LiPON_temperature_RDF" source_frame_index=1949 relative_time_ps=194.9 pbc="T T T"
Li       5.58844056       1.73718668       8.87905723
Li       7.92653988      10.24108767       3.52010552
Li       0.49382036       3.52205642       7.41807846
Li       2.91790586      10.34913729      12.28891687
Li       0.24680942       0.10571521       1.74029609
Li       6.59098068       4.90385312       0.67645775
P        2.89617597       4.82939781      12.09628451
P        4.10715444       6.93744645       3.94076712
N        9.43238870       3.11793705       5.34895251
O        6.81271023       6.52835327       1.83234599
O        2.84304303       5.21949347      10.67645942
O        5.98958658      10.42451778      11.52487455
O        1.73825298       3.76976422       0.13304660
O        3.11329532       6.77662125       5.13848311
O        2.72246448       8.41386752      11.37345945
O        4.30586247       4.16265633       0.15719816
Li       5.64010219       5.72591744       5.78694627
Li       3.80445021       5.65096070       9.09397553
Li       3.47277434       1.25836245       6.19816118
Li       5.36180567       3.03470670       5.83137620
Li       7.37969638       2.36693739       6.61010343
Li       3.22928746       7.01077562       7.17501434
P        3.44270591       3.67673234       7.19109126
P        8.50553783       4.41849620       5.32055693
O        5.63820292       6.75146807       4.40887909
O        4.58025378       0.44760269       2.66598219
O        2.96148813       2.44141750       7.86889329
O        6.82895611      10.34336266       7.75166444
O        3.71356119       3.75526736       5.53011732
O        7.07472772       4.15867668       5.85740281
O        8.53482687       8.36835533       4.99936318
O        4.78198494       4.08748555       7.96172719
Li       0.23484556       5.49798153      12.29202986
Li       6.80072864       4.43129761       8.14177523
Li       5.77806574       9.01002345       4.40822033
Li       3.23590245       9.50359551       9.51116142
Li       8.13498211       6.82393058       6.86723420
Li       8.30888374      10.22069613       0.14378617
P        6.82972928       7.88570624       1.15802172
P        1.72563087       7.66609790      12.26561689
O        0.17068809      10.00013430       4.02508603
O        6.39462676       3.12000116       1.00554898
O        6.89629530       8.95076723       2.38077696
O        6.82354458       2.99217697       3.43420346
O        8.14436153       8.23031344       0.19278377
O        0.55119312       7.10224691      11.30413035
O        3.80828593       5.77085759       2.89100620
O        5.60274432       8.01125521       0.31094903
Li       0.88997199       8.79086617      10.39780875
Li       8.50975204       9.84526024       6.25566355
Li       4.83711094       8.12700149      11.12904554
Li       0.13018506       2.77579788       0.51290402
Li       2.67128721       1.87948561       0.43247764
Li       8.53418902       6.42778510      10.63920383
P        3.12192677       1.00333644       3.07556395
P        0.13538556       8.57697616       4.41572809
O        2.58624996       6.19083827       0.56145994
O        2.36721116       4.80833578       7.52575227
O        3.28695698       2.56414647       2.90804349
O        7.13853642       7.81131508       9.52253198
O        2.02223714       0.39205771       2.11802966
O        0.23061542       7.41787786       3.29520472
O        0.60302875       2.52746126       5.66236514
O        2.89635841       0.71225117       4.62133047
Li       9.49356654       7.51032166       1.25119404
Li       1.32594084       6.15568148       9.65681920
Li       1.37624546       0.45956967       5.41655617
Li       2.85887951       4.09357112       3.84537031
Li       2.41928823       1.12016676       9.02098723
Li       7.37131769       1.98641831      11.89762776
P        9.65683523       4.77903787       2.74359641
P        5.06974294       0.82860782      10.95972702
O        5.10821437       9.75770653       6.15487953
O        1.28321906       0.19213722      10.00223740
O        3.84811030       8.31723937       3.29176024
N        8.44931892       5.04736983       3.76653372
O        4.51816623       0.53976942       9.49502800
O        8.89398662       3.34422467       1.96398473
O        9.75698768       5.60074401       1.46578439
Li       8.26293159       9.36534173       8.80986864
Li       4.53352099       6.84391698       1.33866597
Li       5.77291928       1.08000905       4.02495492
Li       6.45122277       5.01698652       3.76228259
Li       0.19317461       6.05495106       7.76708154
Li       2.27645374       4.03146677       9.49789516
P        9.10679361       3.62487372       9.86659221
P        6.07191271       0.23640021       6.47172940
O        5.63119683       2.40391937      10.61626080
O        9.80522752      10.27701099       7.43609711
O        0.24660011       4.44201849       9.22162131
O        9.43888686       5.30511027       6.42725881
N        9.31765526       2.23538978      10.84362401
O        5.27578202       1.50424202       6.85175826
O        5.80326263       5.79406572      10.04232484
O        7.72894079       3.51173763       9.23896384
Li       3.52645334       8.99088914       5.26840650
Li       7.36865794       8.87095914      11.08177926
Li       5.07585500       9.18610012       7.95867934
Li       5.12848312       3.92851307      10.99593439
Li       2.10036095       9.31303807       2.63627372
Li       5.70689151      10.16015899       1.98196627
P        9.89782409       0.57848849      10.74646525
P        7.32863313       2.53068951       2.02630896
O        4.57562034       7.79572192       9.07676112
O        1.02274453       4.56558566       3.49514417
O        0.10886473       0.79999432      12.25471493
O        1.21666151       8.50267397       0.98901423
N        9.72848576       1.82645867       9.71806743
O        7.65564122       1.07221169       1.59178563
O        4.02272740       0.97807999      12.10223145
O        8.70225848      10.27332656      10.39955850
Li       1.99379573       6.60669386       2.26100208
Li       1.25952787       6.33472101       4.82115410
Li       4.76289748       2.40828600       0.35248109
Li       8.04680354       6.67646571       4.28834203
Li       4.70212590       4.36784249       2.14083446
P        0.81098224       8.90853267       7.36349790
P        5.93177650       6.94325726       8.99729643
O        8.70519814       4.42741735      11.17622467
N        0.98118601       8.57356320       5.76473423
O        9.92354625       7.93216438       8.29757526
O        6.24755102       6.56690630       7.47994635
O        7.08160834       0.61273050       5.24756921
O        2.35573193       8.95471118       7.75244227
124
Lattice="9.92562 0.0 0.0 0.0 10.6806 0.0 0.0 0.0 12.4552" Properties=species:S:1:pos:R:3 material=LiPON model=NEP89 temperature_K=1200 phase="NVT production" display_name="LiPON｜NEP89｜1200 K｜NVT production計算" report_figures="23_LiPON_lithium_MSD; 24_LiPON_transport_comparison; 25_LiPON_temperature_RDF" source_frame_index=1979 relative_time_ps=197.9 pbc="T T T"
Li       2.39643211       0.94272780       9.11990545
Li       6.94830211       6.21351510       6.30410738
Li       2.12211306       6.00629267       7.28699790
Li       4.35560505       8.11998246       1.15871237
Li       9.59076555       1.16446140       2.00425460
Li       8.89724094       7.18197593      11.24081538
P        3.67659911       5.27002818      12.01453950
P        3.95818668       5.96115978       3.81591978
N        8.73199678       2.20716795       6.03919976
O        6.63627121       6.87031973       0.43535994
O        4.98284522       5.02075066      11.23151670
O        6.64837714      10.41759786      10.50401699
O        3.10614247       3.88525620      11.98542691
O        5.55109475       5.81440804       3.77530756
O        2.52796859       8.81319031       0.20658340
O        3.91441129       5.59256439       1.03853311
Li       3.67448861       7.62396416       6.15853542
Li       9.61392203       5.60188935       7.62583180
Li       5.87728090       6.00232617       1.75076229
Li       6.95563993       4.39119053       3.93249094
Li       1.74955509       8.42853260       2.33786051
Li       4.13741425       6.48142920       9.56023975
P        3.55862422       3.65873441       7.41422086
P        9.10639105       3.78246854       5.89357943
O        3.32141773       4.57127303       3.37424851
O        4.04970915      10.05725266       2.84834799
O        3.04591209       2.28224732       7.86731215
O        5.30315371       0.96117181       5.88137130
O        2.57036726       4.12983461       6.08150596
O        7.88330890       4.64968260       5.83837867
O        8.36535831       8.03535453       5.36579636
O        5.12156788       3.41606220       7.05609193
Li       0.75025539       5.19597590       0.59353979
Li       5.62078059       3.90802871       9.22654307
Li       4.40847572       8.66954903       4.10623317
Li       3.23591035      10.33245954      11.68546802
Li       0.80441297       9.59848837       9.96491442
Li       5.54948750       2.17984442       0.03658439
P        6.85629314       8.30239646       0.82318977
P        1.75916269       7.60048237      12.23874705
O        0.37726844       7.84965916       3.89802803
O        6.20295974       3.47135369       1.25012530
O        6.82004532       8.23740290       2.46146995
O        6.00419153       2.72591574       3.69891914
O        8.29721935       8.77213843       0.60419074
O        0.63701662       7.86185406      11.20419282
O        3.21586880       6.30973916       5.18868650
O        5.83850958       9.24417180       0.25405924
Li       7.92339679       9.14694992      10.11373140
Li       4.30327929       2.78720733       4.79098430
Li       5.83538631       9.66529255       8.54514185
Li       9.40057478       6.91643871       2.21487763
Li       1.93859047       2.78597456       1.15466698
Li       2.31068028       0.52401947       6.43685445
P        2.93914006       0.52476260       2.88796481
P        0.00237511       7.67976110       5.36743122
O        2.82541812       6.37476972      11.47422299
O        3.38337738       4.80290999       8.50187698
O        3.42005973       1.67989826       1.98603816
O        7.30359876       7.59513188      10.13992103
O        1.50827997      10.56236596       2.51946009
O        0.64338958       6.51022112       6.09585530
O        8.92009652       1.19758042       6.74154900
O        2.84109584       0.97043514       4.42106954
Li       2.38725032       5.68767495       2.17695004
Li       1.11207279       6.99381809       9.34221548
Li       0.12091300       1.70950395       8.12891441
Li       1.83944143       5.33017410       4.88281118
Li       0.78065951       1.16969065       4.09322699
Li       5.02717876       0.04177140       1.03234047
P        9.31575942       4.08589976       2.91277695
P        5.37993692       0.73017700      10.26715713
O        4.97297718       9.20920044       5.73229963
O        1.75694853       0.59820804      11.04471643
O        3.57862926       7.28200017       3.10956217
N        9.85497421       4.07443447       4.36585490
O        4.54188301       0.02530678       9.15325732
O        8.35038746       2.79093386       2.70476449
O        8.39755299       5.30589180       2.79234755
Li       5.05833429       1.54241292       7.60866332
Li       5.67579025       8.56542937      10.98228416
Li       6.28503928      10.18397487       3.15988940
Li       8.12921871       5.33444749       1.10306241
Li       7.46698577       0.89859025       9.06094229
Li       2.32297020       4.33962700       9.99909398
P        9.42466978       4.14316347      10.10556194
P        5.97620349      10.31314056       5.84990196
O        6.06662748       2.03722442       9.84098989
O        9.81314983       8.58001448       8.61922345
O        0.60816769       4.92242083       9.49086239
O        0.17687473       4.15216423       6.83319052
N        0.49285494       2.67936339      10.18573134
O        7.00161133      10.52609957       4.61565088
O        6.06856556       5.71555500       9.24942750
O        8.21042817       3.69075339       9.28076003
Li       8.30480557       9.49729444       3.98231442
Li       3.56263101       9.25252757       8.19471055
Li       8.03751885       8.77191015       6.88724272
Li       6.59678138       5.71388142      11.36424835
Li       6.87283973       1.69934997       5.16413055
Li       7.75252552       0.49166675       0.25693411
P        0.36153549       1.24989526      11.15218066
P        6.73627420       2.42426952       2.32885546
O        5.36268279       7.85231226       8.44834404
O        0.82280034       3.96321211       2.02423509
O        0.05687627       1.29776949       0.23765253
O        1.10938803       6.86790373       1.15729770
N        9.76851825       2.92244650      11.23464245
O        6.67767004       0.91680747       1.80350966
O        4.63317632       1.08835933      11.54944207
O        9.44197217       0.08337787      10.53173474
Li       0.06292766       9.89767288       0.80836514
Li       6.87918099       3.57364671       7.20717007
Li       3.06009741       2.05646066      11.38055437
Li       7.02551272       7.29428649       3.83685328
Li       4.30676339       3.49289639       2.48886857
P        1.04350140       8.93070939       7.67266422
P        6.58552162       6.96181523       8.90504592
O        8.87758016       4.90794878      11.37053191
N        0.76410990       8.87138030       6.14530559
O        2.10064566       7.82660842       7.94881081
O        7.59827911       6.89583240       7.79598378
O        6.77472092      10.31808375       7.11330597
O        1.69411030      10.34581845       7.89991356
124
Lattice="9.92562 0.0 0.0 0.0 10.6806 0.0 0.0 0.0 12.4552" Properties=species:S:1:pos:R:3 material=LiPON model=NEP89 temperature_K=1200 phase="NVT production" display_name="LiPON｜NEP89｜1200 K｜NVT production計算" report_figures="23_LiPON_lithium_MSD; 24_LiPON_transport_comparison; 25_LiPON_temperature_RDF" source_frame_index=2009 relative_time_ps=200.9 pbc="T T T"
Li       2.61967156       2.03371982      10.09794316
Li       2.99117752       5.62753045       7.61484173
Li       1.68794642       4.32452989       5.48756748
Li       0.82821182       8.97599514       0.63218245
Li       1.67525538      10.50023040      11.09896444
Li       9.07514506       9.42317551      10.37006637
P        3.02251659       4.44111295      11.53693349
P        4.55941290       6.26229046       4.59077949
N        9.17025651       1.35843471       4.41100046
O        7.30579987       8.16509047       1.77087498
O        1.90952606       3.80437760      10.68665394
O        4.93591478       9.65563647      11.79937722
O        3.36458654       3.60055385       0.31910391
O        6.00632504       5.87057249       4.96274961
O        4.17186325       7.29732255       0.63872462
O        4.38959653       4.35026385      10.82469874
Li       7.04137763       7.63782151       5.81391073
Li       9.15966812       6.97749467       7.58516554
Li       1.08502156       9.24856070       3.62291102
Li       3.48268595       8.95585618       1.25736507
Li       2.26409602       8.08383140       5.81691545
Li       4.52525294       0.22376968       8.09595604
P        3.45415293       2.89930719       6.91930479
P        9.19213199       2.81697627       5.16816635
O        3.53182096       5.25565487       4.04434859
O        4.63743707      10.22791717       2.73668561
O        3.19626223       1.70298498       7.87953342
O        6.19522238       0.91506055       5.39606245
O        3.58878884       2.64334383       5.37692260
O        7.76115848       3.36859232       5.28045440
O        8.50278396       7.04330050       5.39584206
O        4.91338118       3.52714809       7.31057751
Li       9.72251634       4.90835725       0.55064552
Li       5.47043928       5.33639806       7.00015493
Li       4.37446300       8.18591946       7.24484054
Li       1.97144046       0.41654735       8.67883556
Li       9.31666011       1.29142350       2.28677877
Li       6.66894864       2.53890196      11.17625294
P        8.26948883       9.32219259       1.37866401
P        2.72846657       7.31460052       0.07935418
O        1.03520658       7.45638779       4.27510875
O        6.28048016       4.90371300       1.18347552
O        9.43216183       8.95539749       2.41484108
O        5.95252355       3.27896908       3.06390064
O        8.92271491       9.32795172      12.42153848
O        2.22648787       8.49050168      11.64795198
O        3.86284832       6.84004245       5.90180813
O        7.74649608       0.10398823       1.51750019
Li       3.43828347       8.12241823       9.80142452
Li       4.42852380       3.89262105       4.26921373
Li       6.88859088       0.05157529       9.09312668
Li       0.15526012       7.17589864       2.28508270
Li       4.30284749       2.08815442      12.14578105
Li       3.77340877       0.90902550       5.20696973
P        3.18170584       0.05510476       2.94198129
P        0.14332816       7.10437525       5.46461036
O        2.39070560       5.95454699      11.71122845
O        2.29406653       3.82560997       7.35029174
O        3.00442840       1.72643714       2.79423421
O        6.23099009       7.14189537      10.67033469
O        2.28363771      10.04432789       2.00568565
O        0.60024833       5.74090776       6.10588857
O        9.27798789       0.12868212       4.68569263
O        2.67215388      10.14989075       4.36292349
Li       2.34393875       5.38894491       2.18241917
Li       9.37242634       6.83611653      10.24658699
Li       0.15369338       1.70381749       8.11139591
Li       1.99156489       2.34285809       4.17954006
Li       1.50206005      10.35492956       5.75609729
Li       4.87898735       9.03707435       4.25222208
P        9.78451098       4.19338852       2.80440455
P        4.35682571       0.03412709      10.76047946
O        4.69982534       9.78379223       5.98727133
O        0.78937219       1.22303145       9.88829813
O        4.47335323       7.44067624       3.46551659
N        0.19119239       3.74610035       4.26837653
O        3.75381448      10.02258919       9.52935006
O        8.32914506       3.07567696       1.98356472
O        8.99316153       5.48623806       2.75913387
Li       5.92659260       5.13254064      10.88961284
Li       6.99236279      10.24089196      11.74234510
Li       8.18854832       9.17710856       3.85775787
Li       5.10183379       6.48258640       1.66752125
Li       6.53948750       2.19058890       7.40489853
Li       5.62042100       7.97485784      12.02577056
P        8.37202377       4.18755464       9.96817671
P        6.15309716      10.34160886       6.16707959
O        5.58849727       1.07726553      10.35827253
O        0.28083344       7.81293106       8.96087113
O        9.32476237       4.99092086       9.08911737
O        9.88015703       2.61084257       6.49484308
N        9.46897801       2.89943549       9.91430704
O        7.10618710       9.25263375       5.84819459
O        5.04131807       7.94561808       8.73762764
O        7.07181897       3.79488177       9.35338902
Li       2.18152476       2.31578378       1.24809000
Li       9.07307859       4.32623054       7.27261989
Li       8.47752261       9.50426763       7.12193587
Li       7.80262772       6.80622209       0.43718111
Li       6.86359130       1.92673595       3.90695190
Li       5.66574795      10.30712616       1.17947527
P        9.67211762       1.54627335      10.96991730
P        6.74458376       3.37576856       1.67022574
O        7.55304643       8.78201270       9.19668181
O        0.96650021       4.13486185       1.77472158
O        0.51929087       1.18661519      12.33104024
O        1.74757341       7.28041349       1.43524020
N        8.59823462       2.77750442      10.84162967
O        6.18106378       2.27860185       0.64483847
O        3.22551842       0.76799741      11.47429589
O        8.40192547       0.57413511      10.94692982
Li       8.05236219       1.75312389       0.41242077
Li       4.97170263       3.26823125       9.13193310
Li       1.36085203       3.70143028       8.99836879
Li       7.82470769       5.68150376       4.05248343
Li       4.75235577       1.93180621       1.94596340
P        1.10887912       8.46023127       7.91477838
P        6.50079476       7.63490357       9.10238273
O        8.30065737       4.90222590      11.43743868
N        0.53699358       8.17734167       6.50752393
O        2.58520916       7.92539324       7.79421000
O        7.00547343       6.40804652       8.24090684
O        6.40549520       0.26624583       7.55754909
O        1.15646999       9.99355947       7.66705628
124
Lattice="9.92562 0.0 0.0 0.0 10.6806 0.0 0.0 0.0 12.4552" Properties=species:S:1:pos:R:3 material=LiPON model=NEP89 temperature_K=1200 phase="NVT production" display_name="LiPON｜NEP89｜1200 K｜NVT production計算" report_figures="23_LiPON_lithium_MSD; 24_LiPON_transport_comparison; 25_LiPON_temperature_RDF" source_frame_index=2039 relative_time_ps=203.9 pbc="T T T"
Li       1.93685970       2.66223212      10.34055361
Li       4.63600653       6.07618715       8.25217848
Li       3.00263167       4.01150044       2.78680755
Li       9.89364874       9.78588186       3.80432268
Li       9.43444314       4.28338829       0.14085417
Li       7.19639277      10.29523268      11.59351498
P        3.19474270       5.22427693      12.37225017
P        4.50969380       6.18533764       4.44042313
N        8.78224652       1.60124692       4.69871093
O        8.25552957      10.00090466       2.62273596
O        3.46358328       4.22598676      11.06548528
O        5.35323543       9.92293118      11.94983648
O        3.19243371       4.38706884       1.18509426
O        6.01985150       5.83973960       4.74586989
O        2.29083664       8.58913116      11.81979172
O        4.17996768       6.37383050       0.30121800
Li       6.88690553       4.27755436       8.16942213
Li       1.56496026       5.44482528      10.28548035
Li       1.34596336       5.68444394       1.54569570
Li       2.55528458       9.13666967       9.86652297
Li       3.19589559       1.33359329       6.29229735
Li       8.14813014       9.68500922       8.87682189
P        3.67418285       3.85805695       7.41542640
P        9.04044562       3.20905734       5.54368745
O        3.51130079       4.99448818       4.33258582
O        3.01993494       1.41837048       3.94873173
O        3.10805020       2.59973378       8.29160011
O        5.91473270       1.19541289       5.10773820
O        3.94384256       3.17557343       6.15366645
O        7.96596419       3.57910109       6.58964011
O        8.61993511       7.28101368       5.39938151
O        4.91570894       4.32516355       8.28698073
Li       7.59559317       5.17062057      11.08237971
Li       0.76261060       4.96414854       7.18742178
Li       2.32537807       6.90047066       6.80463877
Li       2.57488899       0.61980354       8.78440563
Li       1.18068853       2.25251400       1.59799211
Li       6.86353125       1.95543746      11.04459484
P        7.22526783       9.11379931       1.86581901
P        1.21323493       7.59369239      11.67357715
O        0.64116646       7.30306229       3.67016220
O        6.84311308       5.01989915       0.63659840
O        7.65344572       8.68911800       0.51830888
O        5.85117869       3.95930555       2.79086343
O        7.11693255       7.81138615       2.70777212
O        0.80065174       7.14509920      10.27659021
O        4.11934965       6.97260689       5.81355737
O        5.94978829       9.87001982       2.01830210
Li       5.67491689       9.83373606       8.46149038
Li       3.78591892       8.91240036       7.12289911
Li       7.82243282       9.01215885       6.45181395
Li       4.91047840       8.92755001       3.54259024
Li       7.41219884       0.96190401       3.89735531
Li       2.15745904       4.57287514       5.37384443
P        2.76570164       0.41982617       2.85177145
P        0.15956238       7.32332696       5.11488506
O        1.90639036       6.14060996      12.27143835
O        2.56961143       4.83462646       7.24752254
O        3.38701116       9.64494924       3.26392766
O        6.17504191       6.13541828      10.17820857
O        1.25261627       0.38636845       2.72616057
O        0.74354272       5.96233967       5.62074657
O        9.39817178       0.59814361       4.93590620
O        3.41252336       1.01422096       1.26632195
Li       4.01808472       2.58556992       0.04524969
Li       8.39119209       1.26148414       1.36259237
Li       1.24439598       1.74454835       4.75335738
Li       5.15024330       2.37551768       4.17265254
Li       2.15302856       7.86990807       3.22187560
Li       6.96313220       7.55555256       4.71453515
P        9.43700553       4.09733653       2.80680219
P        5.03862714       0.13504253      10.74516151
O        4.45142014      10.37878571       6.48116407
O        0.87314621       2.20752000      12.12683225
O        4.27710638       7.08633462       3.20635887
N        8.77457577       4.19801151       4.21202890
O        4.10991481      10.02718448       9.73272141
O        8.48416079       3.21220166       1.93232203
O        9.48648039       5.62783386       2.12104223
Li       5.35154060       4.70846918      10.89563151
Li       7.79874847       6.51867651       0.89932807
Li       9.64155568       7.99603644       2.05788960
Li       5.59679341       6.61856271       1.58975805
Li       9.28105340       7.36761419       8.70693204
Li       4.68649677       7.24367210      11.09904328
P        8.98316292       3.61611023       9.66274542
P        5.93191022      10.55770780       6.01077146
O        6.42046652       0.52767238       9.91862306
O        9.52416191       8.97636957       7.60700789
O        9.65624858       4.25767417       8.49358768
O        0.57167018       3.06126982       6.09325459
N        8.96182706       1.92261823      10.12184550
O        6.42718132       9.26905877       5.15904911
O        5.43096530       7.71294954       8.20214313
O        7.40074842       3.46612788       9.57565275
Li       2.41339223      10.30231298       0.00995152
Li       7.71488192       5.42892969       6.26158710
Li       5.94867074       6.93363834       6.58299217
Li       7.34386576       5.44683545       3.10979729
Li       8.16044809       1.52026933       7.90966354
Li       4.27493316       9.33312384       0.81067716
P        0.21442666       1.17235489      11.25513440
P        6.74581597       3.72688470       1.43108107
O        7.66977495       8.02475825       9.64593023
O        1.05575961       3.50546193       2.90876452
O        8.91288227       0.53399316      12.04754232
O        0.05380160       7.82317633       0.09280200
N        0.24563125       2.31638786      10.00689026
O        6.24709365       2.39419334       0.67264542
O        4.40705617       1.57858908      11.07816756
O        0.98667254      10.67750385      10.72540905
Li       9.12287571       9.29272594      11.89591764
Li       4.54573982       2.33816192       9.09340580
Li       1.25419942       2.58677694       7.93002098
Li       6.04555460       2.76639112       6.23708127
Li       5.60890165       0.84718052       1.28516748
P        1.03820282       9.21385171       7.29063717
P        6.72247386       6.91767426       9.03028423
O        9.33653977       4.59906650      10.80221994
N        0.91608237       8.51121929       5.76105889
O        2.03963857       8.27258842       7.81726882
O        7.41507119       5.96234898       8.10258550
O        7.04464545      10.66244608       7.09054756
O        1.51878931       0.02746405       7.16548512
124
Lattice="9.92562 0.0 0.0 0.0 10.6806 0.0 0.0 0.0 12.4552" Properties=species:S:1:pos:R:3 material=LiPON model=NEP89 temperature_K=1200 phase="NVT production" display_name="LiPON｜NEP89｜1200 K｜NVT production計算" report_figures="23_LiPON_lithium_MSD; 24_LiPON_transport_comparison; 25_LiPON_temperature_RDF" source_frame_index=2069 relative_time_ps=206.9 pbc="T T T"
Li       3.41082015       2.08993810      10.88694868
Li       6.12667989       2.52884853       9.79667494
Li       2.93793776       8.22688529       4.49967232
Li       9.77377442       1.55325131       2.40096419
Li       7.12534313       9.33933848      10.69584995
Li       7.86753341       6.86701249       0.55640093
P        2.42870685       5.76034688       0.04383460
P        4.64019808       6.16873799       4.33580407
N        9.44417523       1.53203965       4.30121808
O        9.37934594       8.89969747       2.15539430
O        2.74189103       4.45521428       0.67312828
O        4.04371463       9.36397565       0.06444056
O        2.27039862       6.81736099       1.22301829
O        6.13095475       5.67950377       4.79420843
O        0.83176029       8.17376931      11.86428825
O        3.43602988       6.34880067      11.39922786
Li       9.55788865       0.39314227       6.88742525
Li       1.90838090       5.42425818       9.38922299
Li       7.57778030       4.93948670      10.35525770
Li       1.23353628      10.11147810      10.60940332
Li       4.46732354       1.97253625       6.19367294
Li       9.34920654       8.92115049       9.61201156
P        4.04722104       3.75224525       8.21393715
P        9.18551219       3.28139984       4.61623017
O        3.66471993       5.04032879       3.71343670
O        3.42953397       1.84636092       4.52740488
O        4.46445095       3.34309050       9.71383321
O        5.14616319       0.28689522       6.93754411
O        3.07834818       2.82542219       7.65113643
O        8.15877578       3.48252829       5.78847756
O        8.81126188       7.76433810       5.23704970
O        5.43579169       3.69197003       7.42458051
Li       5.60026559       7.21630261      12.22294138
Li       2.24457303       1.85352133       5.96729159
Li       0.24450972       4.63390705       6.66297397
Li       3.68186036       0.92075904       8.25118934
Li       1.70675972       2.94339612       0.68328707
Li       9.85814494       9.16440549       0.34237863
P        7.88966681       9.02798665       1.92896513
P        0.42438305       6.92321194      11.07248145
O        1.22418941       7.33046082       4.28849742
O        6.20507475       4.12086992      11.87703573
O        7.30384063       8.71009727       0.54232845
O        5.89016349       5.67109917       1.40639927
O        7.18262311       8.03768294       2.85586015
O        0.58759943       6.90008856       9.49579290
O        4.04866604       6.72915703       5.62944485
O        7.26805356      10.38857781       2.37799391
Li       7.75273000       0.36950692       9.14807363
Li       3.79608423       6.78737702       9.39346621
Li       7.95850955       8.86759800       6.84802648
Li       5.22586053       8.94135070       3.52297160
Li       6.04952452       1.00818011       3.27233118
Li       2.60525168       4.55333271       5.24732126
P        3.03823336       0.88050597       3.34559208
P        0.35539558       7.59608345       5.58132421
O        1.32973117       5.49015821      11.40511135
O        3.61636475       5.33518324       8.27436623
O        4.38034068       0.31479135       2.80762090
O        6.60049321       6.71311671      10.10456962
O        2.26031418      10.32557002       3.74856046
O        0.72442198       6.37122936       6.44254491
O        9.08523010       0.32767763       4.65844921
O        2.28232767       1.73580187       2.29709962
Li       4.18050635       2.40095013       1.62296666
Li       0.78813432       7.39622671       2.39255575
Li       0.74365114      10.10417223       4.59655281
Li       1.87306634       3.34884747       3.06527594
Li       4.81924151       9.49798251       9.03120941
Li       6.70000779       7.30219450       5.75325203
P        9.14533474       4.65827602       1.99407921
P        4.47638158       0.10158994      11.89303007
O        6.42995057       9.12545550       5.61657059
O        1.38356781       0.96336384      11.49732800
O        4.57954350       7.30980564       3.29907311
N        8.70940386       4.00059095       3.29175013
O        4.07681992       0.32794558      10.37563062
O        8.26526045       4.35500066       0.79175258
O        9.30651945       6.25338210       2.12932831
Li       7.14449196       1.62085843       0.78795166
Li       3.48338101       8.69507797       1.50666799
Li       7.15378191       6.42063582       3.51041321
Li       1.81176241       5.51449848       2.77163270
Li       9.32810466       6.31755112       7.87783334
Li       2.59632202       8.05839389      11.53965928
P        9.14995602       3.10357698       8.78742078
P        6.39962855      10.62320154       6.12411094
O        6.10780430       0.35217600      11.91674437
O        2.21243173       0.24413433       7.17126141
O        0.20238252       4.22737357       8.44002569
O        0.68010698       3.65352964       4.98489772
N        0.18724658       2.58324030      10.32367376
O        6.58569083       1.00700903       5.09517721
O        5.12993649       7.58993243       8.26722835
O        9.06551098       1.90931139       7.90880078
Li       5.74975422       9.87471924       0.98135629
Li       7.27720262       4.87396097       7.46430763
Li       5.13812806       6.20923172       6.92267552
Li       3.98656875       5.97484713       1.99270037
Li       7.84653431       9.31668692       4.61195815
Li       2.23355777       0.29125379       0.51216672
P        9.80182666       1.21530068      11.34695239
P        6.59680588       4.27245605       0.93836249
O        6.96739235       9.05172706       8.89929134
O        0.67735791       3.88312955       1.91932554
O        9.34029586       1.54582379       0.33895404
O        8.92617641       6.35046662      11.40505257
N        8.80710581       2.32638612      10.33457145
O        6.30743587       2.97738373       1.69469181
O        3.73511906       1.39653646       0.15977245
O        9.13665997      10.66053269      10.84834759
Li       2.70442461       6.69112032       7.44173931
Li       7.30279757       2.11186570       6.80286581
Li       0.98715010       1.53492305       8.48870816
Li       6.74555408       3.78442153       4.56944515
Li       4.56442730       4.59977072      11.02893601
P        1.67816004       9.44183097       7.62145684
P        6.59287802       7.50634591       8.81801583
O        7.65870664       3.74118563       8.84423347
N        0.95250508       8.77648126       6.43559388
O        0.42292044       9.85685474       8.50609055
O        7.44954644       6.71782033       7.82226553
O        7.62985702       0.03335564       7.08933973
O        2.71459394       8.60981545       8.21530940
124
Lattice="9.92562 0.0 0.0 0.0 10.6806 0.0 0.0 0.0 12.4552" Properties=species:S:1:pos:R:3 material=LiPON model=NEP89 temperature_K=1200 phase="NVT production" display_name="LiPON｜NEP89｜1200 K｜NVT production計算" report_figures="23_LiPON_lithium_MSD; 24_LiPON_transport_comparison; 25_LiPON_temperature_RDF" source_frame_index=2099 relative_time_ps=209.9 pbc="T T T"
Li       1.39610000       4.00739383       0.75342280
Li       6.45777081       4.78901596       9.26422412
Li       7.21565617       7.87057605       4.31744095
Li       6.17114625       2.11594577      11.64240505
Li       6.51929612      10.07483611      11.58273159
Li       6.91184186       5.94640397       0.09637779
P        3.11538854       6.35573333      12.41210613
P        4.35489843       6.69135359       4.76350065
N        9.12447311       1.74410135       4.74371669
O        9.30622797       8.98613904       1.40251624
O        2.50498998       5.49755927       1.23662440
O        4.41677751       9.01120094      10.44448062
O        3.49289354       7.81868183       0.61838420
O        5.95622163       6.41553366       4.93952830
O        2.69874446       7.33900499       9.66985964
O        4.32035935       5.99583994      11.50673604
Li       9.41616428       1.37801725       6.57428864
Li       2.46580205       1.39641729       8.42827397
Li       8.89830068       5.06571836      10.52360865
Li       8.84893283       9.62715432       9.29691606
Li       3.84704840       8.82195266       5.74489638
Li       0.25932196       9.74871851      11.60900587
P        3.88776463       3.70070608       7.94472162
P        8.84175385       3.50845966       5.06027088
O        3.53608822       5.50251631       4.10593190
O        3.03999356       0.45574036       4.40622790
O        4.64453403       3.46877950       9.26665092
O        5.90182670       1.58807227       6.39100559
O        3.13277531       2.52749760       7.32081655
O        7.95942767       3.85016429       6.29832725
O        8.62734284       7.83761831       5.24013131
O        5.03353771       4.24468652       7.09709155
Li       4.20619639       5.72531546       9.71973634
Li       2.66639290       5.45767440       6.40686393
Li       5.27095078       7.53827953      10.97891566
Li       1.98868388       2.56447765       4.49786583
Li       0.97604172       1.88867000       2.11976089
Li       9.23909050       7.33740150      12.42558996
P        7.67856473       9.19754267       1.29255443
P        1.34305996       7.06598989      10.28329481
O        0.65863925       7.40778629       3.85709997
O        5.33155886       3.22745064       0.31810246
O        6.96222443       8.21296269       0.14759678
O        5.66111096       5.33904600       1.56232188
O        6.90346906       8.85192502       2.55384284
O        0.56643321       6.12794204       9.35721356
O        3.96549430       7.02386963       6.22395588
O        7.27755112      10.64192183       0.90772135
Li       6.40778596      10.57036676       8.66752687
Li       5.53475748       6.15658618       6.82995257
Li       7.82662159       8.35705112       7.23877516
Li       5.48554730       9.27472405       3.65496922
Li       5.52656510       1.13244652       3.66622740
Li       2.34608551       6.74596862       7.66489496
P        3.17307758       0.58097350       2.87386109
P        0.21711539       7.64238249       5.31312387
O        1.79169508       6.17999231      11.61569593
O        2.89777379       4.90974657       8.02625732
O        3.00317072       1.99057852       2.63349273
O        7.37239730       6.23278161      10.44234403
O        4.58574610      10.56430530       2.69182908
O        0.80474631       6.56196539       6.23775170
O        9.59567757       1.01564405       3.75688643
O        2.15827915      10.35619715       2.05016542
Li       5.49115917       1.36502606       1.41001492
Li       3.95311981       1.20809689       6.26911923
Li       4.66305552       8.54107644       8.65176979
Li       8.38418894       1.37906651       1.00120503
Li       2.70188874       9.64018069       0.45177797
Li       9.74409407       7.34735703       2.29360688
P        8.70955916       4.50080631       2.34909915
P        4.35432240      10.63867308      10.79203549
O        5.22041018      10.11888452       7.22246649
O        1.45087959       0.34995223      11.76546763
O        4.19028591       7.98399214       3.87313159
N        8.24617982       4.38956490       3.90489561
O        3.39418252       0.52449550       9.89318074
O        7.72536047       3.48429916       1.54342751
O        8.35374038       5.96281303       2.05965173
Li       5.18196294       1.92424173       9.11914329
Li       2.68045528       7.46706171       2.88851604
Li       5.95219537       6.20804377       3.31056394
Li       0.84479462       5.28911495       3.87435089
Li       9.51676633       4.43097393       7.31580331
Li       3.43723197       1.98691862       0.33243667
P        8.59897878       2.31657536       9.60582802
P        6.40628573       0.03112094       6.31528215
O        5.64496094       0.75533762      10.44023106
O        0.93720601       0.40137276       7.20265711
O        9.09467316       2.53895549       8.24537743
O        0.40168514       4.02334518       5.37472519
N        0.37708857       2.34305392      10.28185558
O        6.34425405      10.28554990       4.78999262
O        5.67468347       6.55117951       8.87671521
O        8.07020509       0.70190744       9.85010726
Li       4.89467096       8.36148355       1.83208330
Li       7.60783473       5.68355302       5.54630734
Li       1.34667785       3.87631075       9.36490148
Li       3.63449443       4.49462756       2.53070039
Li       8.63457294       9.56850373       4.96509611
Li       1.10257899       9.10054736       3.18307135
P        1.05601788       1.86986115      11.62159852
P        5.98527218       3.86912022       1.67823630
O        7.25866051       8.60659386       9.19007723
O        0.28619691       4.23324607       2.15011003
O        2.24255123       2.89174361      11.77991409
O        0.40058743       8.19853615      10.79190688
N        9.30185646       1.87389627      11.04246858
O        5.62635067       3.29347157       2.98282303
O        4.09218934       0.26228745      12.33750138
O        0.32498524       2.29665643       0.45256753
Li       9.65428094       7.31674645       7.91318596
Li       6.56268256       3.12634748       7.30919651
Li       2.37550926       9.32240040       9.53950137
Li       5.76608333       3.78221960       5.08012462
Li       3.83325254       3.66342995      10.80359959
P        1.01174288       9.61913244       7.03417281
P        7.00901237       7.03759712       9.17596319
O        7.66632084       3.38759770      10.02238234
N        0.85859374       9.03439763       5.55871979
O        9.71508319       8.98440145       7.60465999
O        7.90798005       6.55940701       7.96162704
O        7.79762984      10.44483387       6.88277224
O        2.36613713       9.09402751       7.54887425
124
Lattice="9.92562 0.0 0.0 0.0 10.6806 0.0 0.0 0.0 12.4552" Properties=species:S:1:pos:R:3 material=LiPON model=NEP89 temperature_K=1200 phase="NVT production" display_name="LiPON｜NEP89｜1200 K｜NVT production計算" report_figures="23_LiPON_lithium_MSD; 24_LiPON_transport_comparison; 25_LiPON_temperature_RDF" source_frame_index=2129 relative_time_ps=212.9 pbc="T T T"
Li       1.78339156       4.11989660       9.95894098
Li       6.39315255       4.28781712      10.69732540
Li       8.30242954       6.08994800       5.80692163
Li       8.26123123       3.31135818       0.13210966
Li       5.00553211       6.01529330      10.31738399
Li       7.59803710       6.52940839       0.37871597
P        2.57372846       6.93666717      12.22925796
P        4.11415171       5.22993455       4.04167731
N        9.00088507       2.09410972       4.17525240
O        8.71798650       8.68058381       0.70736986
O        3.63781194       7.92869248       0.50386734
O        4.08828202       9.79519271      11.07310031
O        3.24230111       6.03507491      11.06411964
O        4.73357495       3.86498439       4.21029557
O        0.55363344       6.48447108       9.38005892
O        1.75471533       6.01580166       0.84001482
Li       8.45922989       1.49706863       6.55770174
Li       4.19224926       2.18403296      10.10795496
Li       8.69347644       5.75506398       9.76251554
Li       0.46901325       9.97689832      10.16215531
Li       6.21404629       7.15165595       5.80107310
Li       2.29878421       8.12829325       2.52806590
P        4.20128390       3.90388011       8.27001848
P        8.97252613       3.71659811       4.92514627
O        2.68168709       5.12597028       3.92512208
O        2.11815043       0.61166130       3.45109210
O        5.22017508       4.14645872       9.34449850
O        6.00767517       0.52893425       3.91514171
O        3.12947958       2.84844019       8.72890645
O        7.79723039       4.10592019       5.73924018
O        9.46503984       7.57771173       6.41472772
O        5.02889325       3.19814196       7.16769721
Li       0.66207242       4.89747635       8.05035755
Li       1.00762081       5.67589231       3.32968978
Li       4.81174447       6.67599197       1.15845492
Li       1.08853945       1.31105024       8.43076350
Li       7.19429715       2.26491527       3.80209513
Li       0.73913053       1.76618718       2.51967816
P        7.89466400       9.49042379       1.81456361
P        0.15696650       7.13510722      10.69036171
O        1.07553230       7.74885477       4.34697638
O        6.87745703       2.62391618       1.03601281
O        6.54398220       8.82515633       1.79249983
O        6.03730644       4.90378609       0.26455111
O        8.41910312       9.48587420       3.25744520
O        9.19570529       6.12821221      11.50788859
O        4.62634339       6.02965692       5.31176448
O        8.03814904       0.27045593       1.19531076
Li       3.89543973       1.31521957       7.68238748
Li       5.61151078       4.60208658       6.04314365
Li       6.64961402       0.73118430       8.59125125
Li       5.28887696       8.89507856       0.33404012
Li       5.24392297       9.98470900       2.68393041
Li       3.94254273       6.89418630       6.79497491
P        2.82640942      10.31596121       2.54079056
P        1.04531653       7.75520974       5.86101517
O        1.31046453       7.85074122      11.54005352
O        3.63055884       5.13677299       7.62927580
O        1.64216405       9.60001582       1.71467091
O        6.89725552       6.87067725       9.97790785
O        4.15079176       0.49791451       1.96243168
O        1.71051533       6.52561985       6.54993066
O        9.52324555       0.99520621       4.16304339
O        3.39346624       9.14497374       3.42868665
Li       7.94419882       0.43021899      11.99115175
Li       2.51324799       4.85813929       6.04979682
Li       8.37236526       9.53299789       9.19512091
Li       0.32499706       9.86250031       3.14668739
Li       0.48918585       9.60643792       0.30851396
Li       9.67702623       6.91361979       0.79262127
P        7.97657946       5.19155907       2.86009801
P        5.06423307       0.11859384      10.69668729
O        4.59944819       0.27582057       5.82529131
O        2.31625758       1.17503511      11.08134394
O        4.61731371       6.00689007       2.87802751
N        9.21753112       4.53943557       3.60560788
O        4.93966493       0.47425786       9.27233339
O        6.55093058       4.41554460       2.68377174
O        7.42664778       6.27471131       3.73136784
Li       4.64951678       9.30310273       8.34834402
Li       3.35258827       4.65697665       1.27961312
Li       6.13616902       7.18900781       3.28891279
Li       1.13695273       1.65777282       4.90936563
Li       9.25002688       8.04853336       8.06809802
Li       3.70453108       1.61177220       0.50593354
P        9.08015850       2.74109800       9.71752292
P        5.91514856      10.31641297       5.26166008
O        6.47475961      10.25988095      11.11041359
O        1.62044168       0.67081817       6.70299949
O        9.31762491       3.95469592       8.82367114
O        0.31632992       3.62359584       5.92563143
N        0.24918033       2.93449044      11.03122725
O        5.75788994       8.82769068       5.03314107
O        4.98535585       7.24829912       8.31795869
O        8.66394831       1.49716663       8.72021681
Li       6.01879078       0.60280394       1.00952215
Li       8.29038131       9.50680382       6.79307004
Li       2.55979116       6.76614739       9.34908940
Li       4.34048974       2.00703697       3.15628640
Li       9.02290598       7.51568714       4.17887822
Li       3.23907842       9.26522782       5.32170679
P        1.02118794       1.54674067      11.78770022
P        6.07771177       3.82598903       1.30527645
O        7.14842516       8.72564814       8.13215315
O        8.67081244       5.41786168       1.55331481
O        1.18755024       2.44838923       0.55644294
O        9.23699603       8.45115507      10.30781042
N        0.56463069       2.04173450      10.17516313
O        4.60708776       3.25845882       1.44705802
O        5.04042649       1.45435675      11.50008168
O        0.01810177       0.34161127      11.99957157
Li       7.54075332       8.42719566      11.48014145
Li       7.20133231       4.11433788       7.64025626
Li       2.69057224      10.13290830      10.35297295
Li       4.95765435       2.24858733       5.30458071
Li       0.40912961       4.94894959       0.09665288
P        1.45381607       9.98722586       7.40792270
P        6.52686980       7.27361823       8.52930239
O        7.87073368       3.06268626      10.57218007
N        1.95709016       8.85357655       6.55023458
O        0.08336427       9.88345251       8.15251473
O        7.02422372       6.31725053       7.49140189
O        7.08355502       0.15548601       6.13677962
O        2.45608596      10.10740353       8.59661604
124
Lattice="9.92562 0.0 0.0 0.0 10.6806 0.0 0.0 0.0 12.4552" Properties=species:S:1:pos:R:3 material=LiPON model=NEP89 temperature_K=1200 phase="NVT production" display_name="LiPON｜NEP89｜1200 K｜NVT production計算" report_figures="23_LiPON_lithium_MSD; 24_LiPON_transport_comparison; 25_LiPON_temperature_RDF" source_frame_index=2159 relative_time_ps=215.9 pbc="T T T"
Li       2.25540661       6.95479220       7.74331282
Li       2.58183866       0.27740161      12.16221043
Li       8.93803821       7.66348060       3.35855713
Li       0.10915195       9.74741840       0.25836960
Li       0.89161484       4.00246202      12.12052457
Li       8.57289747       5.72023512      10.03504869
P        3.52509322       5.65780947       0.34037753
P        4.69611175       6.42487929       4.62888147
N        9.57753923       2.10602806       4.26433428
O        8.46402833       8.50931760       0.22857807
O        2.98322563       6.84526776       1.46105595
O        4.71529486       9.50313106      11.41724681
O        4.71607154       5.82730061      11.92800139
O        5.96290135       6.15933713       5.59011072
O        2.36416823       7.75189654       9.75397698
O        3.31000929       4.31961078       1.01338690
Li       0.89271617       2.36674620       7.22555146
Li       2.27945624       1.65420606       9.50567393
Li       9.58349886       7.88920121       8.65771107
Li       3.61251163       8.69140833       8.60363647
Li       3.96834851       9.47581249       5.66001477
Li       1.40413241       7.65847441       1.70617135
P        3.46041411       4.09728966       8.47479942
P        0.32453775       3.50330023       4.67889403
O        3.83627830       5.04072423       4.65264749
O        3.24745147       1.21970572       2.41142676
O        3.73889200       3.93239705       9.92787879
O        4.40896285       1.48882020       5.76483710
O        2.47329132       2.96726098       8.15213510
O        9.43502027       3.94787802       5.84608273
O        8.41215894       7.21173946       5.52786031
O        4.88270581       4.18513140       7.82740243
Li       8.52519476       5.54982601       6.53955847
Li       2.34216331       5.70041915       3.33311730
Li       6.60579085       5.86653223       1.77258762
Li       3.14022371       1.30056189       7.39639369
Li       7.64374298       2.53647834       4.34598936
Li       5.58135895       0.25309240       8.36624358
P        7.36698892       8.79495756       1.34535978
P        1.49961407       7.25538988      10.93634209
O        0.67979769       7.59489545       4.19017582
O        6.26084507       1.99824558       1.61141519
O        6.45952931       7.58514471       1.07749722
O        6.67161656       4.47550021       0.62203483
O        7.95634363       8.97827421       2.71630105
O        0.09131509       6.83782869      10.45740293
O        3.89308603       7.74328299       5.05069864
O        6.48202145      10.02213213       1.10738686
Li       3.82834605       2.31733458       4.24520063
Li       7.13742769       4.31562270       7.98372611
Li       1.03710828       5.07682238       8.27625234
Li       3.34610617       3.15165753      11.89227983
Li       2.22433314       8.49213254       4.48168733
Li       2.24878395       4.56787045       6.23259985
P        2.64447396      10.44267629       2.34073053
P        9.92015771       7.58203708       5.58538097
O        2.16724818       5.82495291      11.72089447
O        2.87702747       5.45505782       8.00891769
O        1.36826458      10.66794457       1.37623096
O        7.01735770       6.89578940      10.58208675
O        3.69406521       9.50732249       1.69151582
O        0.50622751       6.42353903       6.56254899
O        9.02879359       1.02421825       3.68036053
O        2.60664097      10.16481760       3.78847930
Li       6.43121363       0.99426408       0.01815217
Li       5.10258035       4.05684834       5.88771616
Li       7.33289641       8.60851615       6.94997054
Li       8.36580602       2.56821667       6.62926629
Li       4.97425994       0.47323715       1.61830070
Li       8.86337785       6.10462451      12.23188380
P        9.20565497       4.83135741       2.44974424
P        4.66093074       0.09404464      10.70829488
O        5.39504339      10.03917011       6.47070318
O        9.88432307       2.32488654       0.53470431
O        5.47582145       6.69933378       3.32321683
N        0.44598924       4.70423670       3.62077905
O        3.69603834       0.00936240       9.45761828
O        8.44944191       3.54707672       2.26754051
O        8.39706931       6.06614313       3.01995410
Li       4.81801434       6.41477998       7.05476056
Li       0.15642941       1.39738294       2.22873327
Li       6.35439563       4.36430154      11.28202070
Li       4.43329596       4.45208525       2.55665241
Li       8.19105521       0.30670975       9.27737877
Li       3.13695946       8.52958112       0.35000700
P        8.73465904       3.11703461       9.33961524
P        5.67147928       0.53526043       5.46767205
O        6.10962172       0.67271574      10.11828525
O        1.29871254       0.53388555       6.88513468
O        9.45939918       4.16743663       8.55780112
O        1.78617890       3.39586583       5.08704351
N        8.87259974       2.08434417      10.55347256
O        5.69961772      10.55298382       4.01340321
O        5.14094971       7.22952188       8.65235690
O        8.34230230       1.98891522       8.43954430
Li       4.80606623       7.77690206       1.77928719
Li       5.69452807       8.88417822       3.54708590
Li       4.04663935       5.96613769      10.12424029
Li       7.27093764       6.28212186       4.47744143
Li       0.02058514      10.16088438       3.89878583
Li       1.82923642       1.11532893       4.99706621
P        0.03764304       1.67315438      11.67568558
P        6.62175380       3.43684585       1.90660096
O        6.90751467       9.00494301       8.79665450
O        0.08234526       5.15186345       1.04469189
O        9.37212696       0.28264136      11.66023996
O        1.53671580       8.30183104      12.11612841
N        9.61116828       3.10946737      10.78775627
O        5.83110957       3.90614354       3.11240208
O        4.10988704       1.28339764      11.69795168
O        1.38378065       1.62565191      11.24901756
Li       7.91006450       8.80083787      10.83500133
Li       5.44153319       2.74726011       9.30155200
Li       5.58794553       7.65849783      11.78376839
Li       7.28760267       0.65459547       2.64858373
Li       1.68979241       3.17694967       2.17252950
P        0.97377335       9.67967037       7.19267071
P        6.63337703       7.48051651       9.08684777
O        7.35040206       3.99744330       9.66733307
N        0.14970802       9.17892291       5.92406370
O        9.87118326       9.58288083       8.39792990
O        7.68690531       6.66548410       8.10073974
O        6.95901439       1.37126775       5.50494316
O        2.18184287       8.76656041       7.28306728
124
Lattice="9.92562 0.0 0.0 0.0 10.6806 0.0 0.0 0.0 12.4552" Properties=species:S:1:pos:R:3 material=LiPON model=NEP89 temperature_K=1200 phase="NVT production" display_name="LiPON｜NEP89｜1200 K｜NVT production計算" report_figures="23_LiPON_lithium_MSD; 24_LiPON_transport_comparison; 25_LiPON_temperature_RDF" source_frame_index=2189 relative_time_ps=218.9 pbc="T T T"
Li       1.75718486       6.64907421       8.31509044
Li       2.27631745       0.51203120      11.91250617
Li       7.98240006       5.54546231       6.30524972
Li       2.57227640       8.51130928      12.44994818
Li       0.25482068       7.22539384       1.69136749
Li       8.43877302       4.32674290      12.03002741
P        2.59559765       5.88113952       0.27247764
P        5.11184796       6.22073478       4.53722348
N        1.18771444       1.38922933       4.40661374
O        9.50868537       8.77840871       2.09345952
O        1.88839700       6.30577925       1.64145040
O        3.70251555       9.95002481      11.27816554
O        3.76242894       6.85857924      12.39221478
O        6.55140871       5.84730938       5.05576569
O        0.71891189       8.45106872      11.17595041
O        3.22507184       4.46104605       0.40108871
Li       8.02456433       2.39384506       5.91933612
Li       2.07789488       9.42400195      10.18804675
Li       8.18358308       6.26586764       0.80701459
Li       8.09205155       9.64610424      11.59943134
Li       2.72036695       2.09685690       9.58621650
Li       7.79685506       6.88409858       3.42612717
P        3.34765262       4.34267074       8.47103775
P        1.66828096       2.92908144       3.82518774
O        3.89437185       5.17783333       4.86921211
O        4.25535937       0.63001645       1.78686960
O        4.89223149       4.46928740       8.76932919
O        5.61230556       2.27732382       5.94150710
O        2.64802122       4.44620146       9.88791225
O        1.84168742       3.60309007       5.18055957
O        9.17596383       8.02025225       4.68581949
O        3.02457229       2.82704132       7.98887459
Li       0.34101109       3.77056485       6.08879660
Li       3.29727195       7.31929291       2.53859561
Li       3.95695397       4.61665344       2.19133673
Li       1.57303178       1.55635520       7.62358932
Li       6.66975861       4.07430673       4.76029601
Li       5.77025553      10.50931115       8.88031281
P        7.92844936       8.98561151       2.01666452
P        0.34141346       6.96444710      10.95222922
O        1.47561360       6.60939368       4.51022264
O        6.38838080       2.60955564       0.16183310
O        7.59676207       8.13954950       0.70200266
O        6.86526886       5.13891069       0.77746602
O        7.01683501       8.48272823       3.13204277
O        0.18958042       6.45572924       9.50152515
O        4.69330043       7.60037266       5.14589513
O        7.76712622      10.48208875       1.68256448
Li       4.54743239       1.87744606       3.42520293
Li       5.68738551       8.15333031       7.07331907
Li       0.51323796       4.68011163       9.92009278
Li       2.75953328       3.15146642      11.87778957
Li       2.41389055       5.43957170       5.85603909
Li       8.80049498       6.97738544       8.39090009
P        3.69771184       9.89896782       1.92349320
P        0.34868201       7.40087453       5.38833995
O        1.61002637       5.98942007      11.37492340
O        2.92488301       5.30802999       7.39786025
O        2.38554739       9.78706447       1.08595628
O        6.25927258       7.62139599      10.66236409
O        4.86746809       8.90635835       1.46101255
O        9.70162258       6.39650936       6.54240578
O        0.34290880       0.67291948       4.96518916
O        3.30492335       9.83437551       3.41537846
Li       5.94990924      10.61651252       0.86211088
Li       3.98426265       3.39821040       6.09492948
Li       8.13463590       1.02775026       0.60943131
Li       6.67038009       5.13031985       8.45847702
Li       7.12098602       1.32701470       3.32813368
Li       4.51793675       4.17706857      10.96173758
P        9.07179126       4.23130426       2.95895846
P        4.49178450       0.52883539      10.92237241
O        5.55164462       0.38262320       4.20759182
O        9.44642112       0.56053624      11.64150051
O        5.09209351       6.35372012       2.98236292
N        0.64858881       3.83205877       2.94014393
O        4.30802089       0.93039286       9.39688670
O        8.33625051       3.31672132       1.85596997
O        8.48708592       3.90278811       4.32824509
Li       3.33407165      10.66753017       8.11311784
Li       7.45019735       1.80160472      11.11205968
Li       4.79819882       2.29339451       1.04012073
Li       1.75551413       5.11648329       3.24943335
Li       7.71945912      10.28425169       7.43560667
Li       0.53746789       9.93619039       0.04419927
P        8.31401244       3.18990927       8.83039218
P        6.04697477       0.83519076       5.57589069
O        6.10247555       0.30867694      11.18303563
O        2.15592665       8.70851517       8.28735481
O        7.69664497       4.33357123       9.68144066
O        3.06392164       2.88324620       3.08048078
N        9.84176847       2.85077144       9.63192353
O        7.55046952       0.59648154       5.64030463
O        5.12257134       8.52473601       8.57829216
O        8.77320001       3.57978068       7.37558918
Li       5.09265540       7.97368316      11.80186112
Li       3.00930583       7.59757755       6.23701893
Li       7.00108777       5.89490936      11.13226763
Li       5.02275846       8.97712871       3.66078129
Li       1.06546867      10.23954192       2.99603212
Li       2.81132373       0.10930702       4.91395920
P        0.17400548       1.72955762      10.89183073
P        6.84984500       3.67963458       1.26242774
O        7.33849241       9.40717122       9.11820100
O        9.10194982       5.77307311       2.37131977
O        1.45278870       0.84069589      10.23684708
O        9.08758727       6.24582857      11.74158588
N        8.88156908       1.96468457       9.74354619
O        5.92708389       3.40867864       2.53118994
O        3.93171440       1.82878084      11.74530221
O        0.48711698       2.85493525      11.86694962
Li       9.47298553       9.70998714       9.61428957
Li       5.39149318       2.12045543       7.81366230
Li       6.01684393       7.02738887       1.07264500
Li       7.79749405       9.53296128       4.43182445
Li       0.69399524       4.90137437       1.31414347
P        1.20868661       9.49591238       7.18278012
P        6.53127907       8.07166159       9.22137564
O        7.22224611       2.05689113       8.47469188
N        1.13788584       8.54203612       5.95441311
O        2.10762677       0.08157593       6.98963133
O        7.05585100       7.00868328       8.39263859
O        5.47958881      10.47151314       6.65266695
O        9.76335979       9.89752132       7.69342491
124
Lattice="9.92562 0.0 0.0 0.0 10.6806 0.0 0.0 0.0 12.4552" Properties=species:S:1:pos:R:3 material=LiPON model=NEP89 temperature_K=1200 phase="NVT production" display_name="LiPON｜NEP89｜1200 K｜NVT production計算" report_figures="23_LiPON_lithium_MSD; 24_LiPON_transport_comparison; 25_LiPON_temperature_RDF" source_frame_index=2219 relative_time_ps=221.9 pbc="T T T"
Li       1.94559066      10.13805536      10.36215936
Li       4.79161002       3.64987261      11.78424435
Li       7.34746844       6.31044856       3.56524011
Li       3.26360215       1.61513702      12.37124863
Li       1.32040620       7.10057208       1.86283979
Li       6.81701832       2.07772822      11.51941461
P        3.19352998       5.50020760       0.62415975
P        4.74955049       5.58081017       4.70446690
N        0.05949372       1.31846941       4.00591341
O        9.33108842      10.17346033       1.95397253
O        2.66454319       6.19431839       1.91562575
O        4.98494785       9.81568106      11.34632708
O        4.51489343       6.08493805      12.35848466
O        3.51886643       4.81540197       4.21703311
O        2.61514643       8.11040338      10.63608768
O        3.61856223       4.08297981       0.93930027
Li       4.03755429       6.89931543      10.64784410
Li       9.57656486       8.60862416       9.83002387
Li       6.29275795       2.45936384       8.91805554
Li       0.02662836       1.81143721       2.13582997
Li       3.62876960       8.92388422       8.95007543
Li       6.91483808       6.76127309      11.89360074
P        3.60759584       3.90177712       8.41617303
P        1.25896130       2.72355427       4.29086108
O        4.47921791       6.56203314       6.03793744
O        4.28010256       0.66086037       1.91370404
O        3.02518571       2.64013117       7.84604563
O        4.61447762       0.11713754       6.44823275
O        3.17178684       3.70674479       9.91033941
O        1.05680463       3.15490254       5.65785290
O        8.73820805       7.45912239       4.90920829
O        2.90893410       5.11362648       7.67106674
Li       9.45170951       6.75864878       8.45746767
Li       9.65205268       8.20617468       3.02528170
Li       3.70721008       3.37540460       5.34197531
Li       1.20172989       4.69876870       6.77026002
Li       6.33450916       3.10281085       4.26833691
Li       5.84342683      10.37713758       8.04608291
P        8.05596033       9.49843602       1.50859041
P        1.38209015       7.37585847      11.24605673
O        1.47938423       7.36034756       4.71037860
O        6.55142068       3.58928756       0.08961211
O        7.78359456       8.46035263       2.64847037
O        6.62006951       5.40392780       1.48893250
O        7.11540920       0.10861945       1.50916232
O        0.49417983       7.02279576      10.08472256
O        5.66768402       4.47399918       5.22204911
O        8.16540709       8.82497324       0.25289895
Li       4.01383636       2.48653489       2.43363223
Li       2.53555104       7.99007407       3.51995172
Li       2.03431648       6.80277134       8.61741483
Li       1.00507121       2.24307665       7.16867875
Li       1.78429557       4.39042282      10.83878969
Li       5.55529529       5.62483890       7.25489957
P        3.43987326      10.08182201       1.89283647
P        0.25873374       7.52005262       5.56241451
O        2.08800149       5.74466735      11.83660620
O        5.13207214       3.95719371       8.27510248
O        2.56319589      10.20243389       0.65657815
O        7.76433314       8.21592311       9.49770118
O        4.46489058       8.77923463       1.54433524
O        0.02478403       6.35461740       6.64011481
O        8.91856199       0.89273754       4.47279061
O        2.71132637       9.80289153       3.09693856
Li       5.56076025       0.05447880       0.38511623
Li       2.65233103       6.72195052       6.49083153
Li       0.64669780      10.33100212       3.29650783
Li       6.62261922       3.41360683       6.72867869
Li       6.26811993       1.14984945       2.53788606
Li       3.76054072       8.80886508      12.17063337
P        9.25605822       4.37409866       3.00309701
P        4.84949384       0.29325791      10.38582084
O        5.34015442       2.04443590       5.19928743
O        8.73661289       1.62289705      12.38318229
O        5.28057991       6.36877960       3.50833550
N        0.55300687       3.47648504       3.01308865
O        3.73336766       0.17597953       9.41299549
O        8.34344652       3.71762806       1.85099285
O        8.33198012       4.49220493       4.12599901
Li       6.97224586       7.73584785       5.52247512
Li       8.48331598       0.13959769       8.57457831
Li       2.37561328       2.05277451      10.15461428
Li       1.70180947       5.47682144       3.38065056
Li       6.54718134       5.28598627       9.79015893
Li       0.63253244       9.85379839       0.05255319
P        8.93326698       3.31732086       9.07667894
P        5.82076075       0.67196050       5.81272869
O        6.21616254       0.47406692       9.74637794
O        2.48962770       8.44571644       7.59968741
O        7.42934078       3.70418567       9.56702645
O        2.53118399       2.31400010       3.71603111
N        8.83121260       2.37944372      10.53492144
O        7.01184711       0.80192549       6.84528798
O        5.24557919       7.69243996       9.06049679
O        0.10964520       4.29899567       9.31272520
Li       7.27089043       9.28226414      11.15060612
Li       4.43352198       8.59271041       6.51648566
Li       8.21218958       4.24692251      11.84636936
Li       5.97568245       9.13417603       3.09449012
Li       8.46916815       5.58747944       5.76776336
Li       3.01681668       0.24223182       5.57444475
P        9.82127357       1.38648588      11.36810464
P        6.77088066       3.92788066       1.54433974
O        6.37895394       8.65664342       7.14999393
O        9.55689541       5.78176209       2.52046488
O        0.12923322       0.02111256      10.91367236
O        0.80856252       7.79427261       0.16372785
N        9.65904930       1.95814910       9.71358225
O        5.89443819       3.18106368       2.67219804
O        4.74379606       1.45943815      11.37634947
O        1.21896833       2.10027689      11.61730833
Li       8.95643369       2.37991041       5.64605925
Li       3.26520796       0.59204737       7.69347320
Li       5.12570508       6.84220520       1.74941078
Li       8.13504133       9.95888323       5.45529643
Li       1.48798417       3.38262558       1.38213807
P        1.25047554       9.36669923       7.38307540
P        6.69571662       7.74284302       8.58609348
O        8.82764608       2.82939856       7.69346854
N        0.33454860       9.10564377       6.05015427
O        1.63801737       0.16817880       7.09767927
O        7.22730226       6.35832261       8.12565068
O        6.16200068      10.36853874       4.62778274
O        0.17364916       9.24394471       8.48866126
124
Lattice="9.92562 0.0 0.0 0.0 10.6806 0.0 0.0 0.0 12.4552" Properties=species:S:1:pos:R:3 material=LiPON model=NEP89 temperature_K=1200 phase="NVT production" display_name="LiPON｜NEP89｜1200 K｜NVT production計算" report_figures="23_LiPON_lithium_MSD; 24_LiPON_transport_comparison; 25_LiPON_temperature_RDF" source_frame_index=2249 relative_time_ps=224.9 pbc="T T T"
Li       9.48977623       8.12289116       9.05091104
Li       4.04647574       2.79955312       0.47722369
Li       8.14676022       7.33708818       4.17487495
Li       2.65338060       0.44028345      11.96677959
Li       6.63630043       6.53713208       1.88963314
Li       7.57053143       1.23342598       2.77885163
P        2.62204769       5.81101159       0.51329981
P        4.98869690       6.62810204       4.37039934
N        9.77243104       1.92758111       3.73976282
O        8.68533780       8.89444311       2.83158540
O        1.90910628       6.68030287       1.51602688
O        3.58165657      10.23333081      10.94372844
O        3.71608489       6.58188884      12.15697855
O        4.62493841       5.18232849       4.93417427
O        9.34064428       6.83801409      11.88373108
O        3.29060327       4.42187636       0.83028089
Li       1.57313704       6.22194976       8.03541172
Li       5.18772590       5.60999230      11.04534478
Li       6.42638672       2.42704892      11.38711787
Li       8.26132388       9.90553934       4.39637259
Li       3.30828047       7.27555457       9.96669002
Li       5.78794720      10.61414022       0.82753738
P        4.12535034       4.53815523       8.49760155
P        0.99718812       3.04869007       3.86222222
O        4.11973112       7.68134628       5.19132147
O        3.16430016       0.86253624       1.34458838
O        2.85316243       3.72792516       8.33239203
O        5.62628435       1.26364969       6.76068305
O        4.94922652       4.03127446       9.77807120
O        1.68732254       2.79960346       5.26895247
O        9.17088382       8.04727010       5.71371599
O        3.79924178       6.06831330       8.67699483
Li       9.03688354       4.87697603       8.67019832
Li       0.86581339       7.99141625       1.36520549
Li       1.79780020       0.72176685       4.91187374
Li       0.44187622       4.26372663       6.26659789
Li       5.82524818       3.53689731       4.11389227
Li       6.50165772      10.12706299       8.59383751
P        7.93400543       9.36097641       1.61730797
P        0.67080968       6.70619013      11.14433714
O        1.20566648       8.10295306       4.07375070
O        7.18421448       2.42207382       0.66026778
O        6.92113617       8.32808212       1.20094069
O        6.82248308       5.03299333       0.69245257
O        6.90711708      10.37898741       2.40290668
O        1.74667784       7.95940016      11.28629002
O        6.43104456       7.05083100       4.73641456
O        8.72312850       9.70583290       0.32772229
Li       3.87857311       4.79992342       2.50974930
Li       2.94744254       7.37895048       2.89217194
Li       1.45342731       4.09806215       9.91941164
Li       1.60015582       2.00880893       8.26659307
Li       4.17305509       2.16157885       9.77076085
Li       4.32611488       7.03067814       7.03510316
P        2.63764551      10.23866960       1.88157303
P        0.74793299       8.03869542       5.51924517
O        1.61792104       5.44799419      11.70619342
O        5.04186210       3.98934481       7.21473906
O        1.38584723       9.77967816       1.17813116
O        7.55887848       8.47347961       9.19564176
O        3.74814108       9.14589395       1.91231303
O        1.33568054       6.87903818       6.37171637
O        9.48127309       0.84366363       3.12207818
O        2.08906767      10.43680326       3.44929121
Li       0.24225143       0.73916080       1.06646133
Li       3.16660417       3.40677576       5.97085673
Li       3.23963436       9.56721665       5.04305676
Li       6.68311432       4.77032317       8.99962713
Li       0.47811017       9.31968078       3.19139184
Li       7.18796041       8.25113040      11.25539001
P        8.63474100       4.63858544       3.72176347
P        4.91103248       0.30818446      10.82072861
O        6.88387377       1.91535213       4.74375337
O        0.15452176       2.37349669      12.18832181
O        4.93326879       6.73191894       2.80497894
N        0.27339742       4.50094506       3.94639980
O        5.20850643       0.79858131       9.33987745
O        8.12469824       3.49173566       2.48417472
O        7.73197294       4.35473167       4.93470158
Li       8.50399858      10.19017618       7.25280618
Li       8.71835593       1.97746316       5.99574306
Li       2.15881222       9.44553608       9.83461502
Li       0.74689892       6.13223623       2.96803870
Li       8.69525960       4.66585238      11.90074119
Li       0.31916443       9.51410666      11.94533120
P        8.53854398       2.22791012       8.74971504
P        5.99580864       0.73896611       5.36421838
O        6.07680909      10.10561628      11.20107570
O        2.62458661       8.77364930       8.20351606
O        7.71041087       3.24226737       9.46626565
O        2.08931907       3.31937929       2.84788989
N        0.12308889       2.16296093       9.43822672
O        6.91052076      10.16745452       5.75565466
O        6.23435548       6.40877795      10.05400330
O        9.25499894       2.95023895       7.59000575
Li       7.90912733      10.67293420      11.01839169
Li       4.10178264       0.83734583       7.89682296
Li       1.68680211       3.31179051       0.93451722
Li       5.87799419       8.68455636       3.01848779
Li       7.77822341       6.59944806       5.92677223
Li       4.16573574       1.34209518       2.85816450
P        0.69723059       1.63078991      10.88436698
P        6.78919225       3.67243085       1.46174354
O        5.75521617       8.12436224       7.97867440
O        8.55984402       5.97231070       3.02670416
O        0.77025798       0.10975076      10.99514616
O        0.53870705       6.17754726       9.62534989
N        9.04645187       1.49427664      10.10825000
O        5.34323711       3.55669928       2.24864495
O        4.90867893       1.54388403      11.78720415
O        2.16078536       2.06934043      10.46522613
Li       6.37950012       4.70231478       6.28667535
Li       5.82354524       2.35516351       8.35111609
Li       4.95331482       7.79390141       1.20956916
Li       6.07030079       8.54038207       5.98715477
Li       3.06813150       8.64845110      12.15283617
P        1.54771695       9.70625312       7.49927082
P        6.76594671       7.22288715       8.85426117
O        7.91492777       1.03682681       8.15543549
N        1.27001631       9.43870150       5.95385227
O        2.29054232       0.39616183       7.41310532
O        7.63163774       6.31508412       7.84389917
O        4.81237716       0.32262597       4.53169316
O        0.06339185       9.51843457       7.90564726
124
Lattice="9.92562 0.0 0.0 0.0 10.6806 0.0 0.0 0.0 12.4552" Properties=species:S:1:pos:R:3 material=LiPON model=NEP89 temperature_K=1200 phase="NVT production" display_name="LiPON｜NEP89｜1200 K｜NVT production計算" report_figures="23_LiPON_lithium_MSD; 24_LiPON_transport_comparison; 25_LiPON_temperature_RDF" source_frame_index=2279 relative_time_ps=227.9 pbc="T T T"
Li       0.71838979       5.31566494       7.31284312
Li       4.07521262       2.84013155       0.74777796
Li       0.93194833       9.32958467       2.63562809
Li       2.84186428       1.24402738      12.01008901
Li       4.15753785       4.30564924       2.60705715
Li       2.32710244       0.21701769       4.58497104
P        2.90935202       5.63563570       0.46119127
P        4.91773073       6.57912698       4.60529360
N        0.93656226       1.10142694       3.85915755
O        9.38455159       7.88299048       2.26395164
O        1.76110947       6.35642146       1.50704101
O        3.53148478       0.16913939      10.84603181
O        3.97767016       6.80298231       0.20719280
O        3.62595669       5.55306516       4.26351566
O        9.39093438       6.19281652      11.93323700
O        3.38341505       4.30827795       1.05584193
Li       1.58431937       2.46194934       7.75305219
Li       5.22305420       6.03513880      11.08127622
Li       6.83049615       1.95840360      11.78431774
Li       8.02136027       4.50368003       6.02197958
Li       8.28919918       7.42400756      11.87210623
Li       5.60655685       7.74270100       0.48716844
P        3.54893628       4.13936142       8.10628332
P        1.53360937       2.78396794       3.94572202
O        4.23136854       7.45754968       5.66147002
O        3.47637111       0.96860836       1.31819944
O        2.65564511       3.25208879       9.07175230
O        7.99402953       0.73256998       5.11792068
O        4.77692748       4.72242492       9.05215443
O        1.23637661       3.36504824       5.36068187
O        8.91795961       8.44278359       5.45404664
O        2.72040186       5.44188267       7.69801580
Li       5.86805746       3.45661031       9.91819105
Li       9.61276198       7.00364770       3.96827681
Li       4.11880371       1.24966069       2.97555500
Li       8.90203184       2.52620942       6.10766471
Li       6.23482849       4.10083625       4.32745135
Li       7.05758843       0.79512009       9.40149415
P        8.24215423       8.65904414       1.36397595
P        0.82430317       6.43408880      11.17625930
O        1.18114562       7.42724227       4.66454731
O        6.07786094       2.22521137       1.09185671
O        7.26198444       7.48601080       1.12189521
O        6.80442179       4.49086560      12.26671126
O        7.46426849       9.82063638       2.19332746
O        1.43260714       7.97113830      11.18905722
O        6.08775598       5.78820362       5.36042674
O        8.83162996       9.17915700      12.41786124
Li       4.03103777       3.54333517       4.97361915
Li       3.02170685       7.84519772       2.87731389
Li       1.10757248       4.13101813       9.27147628
Li       9.44321398       0.15328361       5.71997199
Li       3.14143554       3.49452499      10.61730499
Li       4.90398933       9.21261743       6.55598216
P        3.20987704      10.09994470       1.43192391
P        0.46474014       8.05742481       5.78062127
O        2.10292795       5.31465791      11.40552711
O        4.15576655       3.35285442       6.97938367
O        1.91103718       9.63479678       0.72363825
O        7.28134129       9.61649339       9.37991591
O        4.43006443       9.41027113       0.94620317
O        0.69489216       7.26133170       7.00261590
O        0.13229234       0.21209552       3.40868721
O        2.82534118       9.68554456       2.84729564
Li       8.40492471       1.18317958       2.99539872
Li       1.79627632       5.59575311       3.28348488
Li       4.54989496      10.39472294       8.24386797
Li       1.40429043       7.89210003       8.93700525
Li       0.50342100      10.12998169      12.11835451
Li       7.58937358      10.21754439      11.79550772
P        8.78591908       4.03566423       3.10559136
P        4.78563067       1.04508508      10.67830384
O        5.69832497       2.01238847       5.60383277
O        8.83808275       1.48196003      12.21756817
O        5.39831623       7.19809844       3.31425017
N        0.53032704       3.54266832       2.88091141
O        5.26986695       1.22344093       9.18367124
O        8.14223186       3.68101730       1.58825281
O        7.99978795       3.62379771       4.31979619
Li       9.07409939      10.20742597       9.30082454
Li       8.31331921       9.23794189       3.71531169
Li       2.98153536       9.15035243      11.68977233
Li       9.72192141       5.91574766       1.39152963
Li       8.25522635       4.84543893      11.24513855
Li       1.11065516       7.97550723       0.65022983
P        8.48163601       3.40735833       8.73279981
P        6.38348998       0.69036665       5.33578566
O        6.09311357       0.54349111      11.52614572
O        1.59938504       9.58730405       8.54665683
O        7.64993401       4.25012914       9.66744973
O        3.01968676       2.82627589       3.53730691
N        9.73319222       2.86513110       9.75564265
O        5.80653484       0.36713671       3.97558363
O        6.66595604       7.44132986      10.74154329
O        9.25768947       4.30193787       7.63941701
Li       5.58623874       0.16471805       0.72400914
Li       2.17510641       0.60438138       9.53209423
Li       0.88585763       3.38662924       1.15671839
Li       5.42617740       9.39942108       2.60656362
Li       8.68795710       6.22241280       9.00215461
Li       3.85600747       1.62029377       6.34931813
P        9.85263214       1.86072646      11.19829168
P        6.58191700       3.65951048       1.15035791
O        5.07663889       8.35890154       8.81312628
O        8.84660199       5.54807802       3.17281925
O        0.97788114       0.78582125      11.04328911
O        0.51634948       6.17740903       9.60820722
N        8.63096863       2.24777263      10.08745325
O        5.90168972       4.56133010       2.29563809
O        4.47365692       2.54529421      11.30008864
O        1.05870183       2.95069178      11.67510412
Li       5.26224540       6.25738115       8.19837253
Li       5.58690590       2.27893523       7.72314790
Li       6.70966462       6.10240892       2.04360587
Li       7.13602128       6.83764405       6.16513511
Li       2.77221858       6.03954347       5.94466650
P        1.85182448      10.13683460       7.22468702
P        6.61189949       8.08728496       9.22611724
O        7.86180359       2.47125602       7.72593481
N        1.26482598       9.39853505       6.01976408
O        3.31712447      10.39777871       6.77303220
O        7.21629576       7.26476862       8.04662054
O        6.09700285      10.38206229       6.52470941
O        1.15933305       0.81810095       7.00955749
124
Lattice="9.92562 0.0 0.0 0.0 10.6806 0.0 0.0 0.0 12.4552" Properties=species:S:1:pos:R:3 material=LiPON model=NEP89 temperature_K=1200 phase="NVT production" display_name="LiPON｜NEP89｜1200 K｜NVT production計算" report_figures="23_LiPON_lithium_MSD; 24_LiPON_transport_comparison; 25_LiPON_temperature_RDF" source_frame_index=2309 relative_time_ps=230.9 pbc="T T T"
Li       0.49803914       1.52970917       5.96987127
Li       2.87081646       2.48493672      10.23545574
Li       9.79903027       1.45651756       2.32688250
Li       4.78511812       1.84271693       3.23833858
Li       4.48607723       4.49692415       2.06133443
Li       1.78035802       7.81740603       0.80014517
P        3.31668345       5.54826188       0.09721214
P        5.10035127       7.37981059       4.57877401
N        0.45224433       2.20435723       4.01129472
O        8.38362759       8.91839847       2.33210946
O        2.13269933       6.01750590       1.01599599
O        3.65265369       0.90754396       9.34724394
O        4.45807544       6.53906372       0.24864281
O        4.06630003       6.41898670       3.99471836
O        9.54152060       6.53490284      11.79272360
O        3.75248495       4.09594807       0.22986197
Li       2.94151614       1.65002588       7.86673184
Li       5.80303840       6.84747124       1.98891760
Li       8.09740478       0.20281636      10.50457958
Li       4.66520360       7.33076664       7.48544252
Li       8.55350469       4.86098432      10.30330520
Li       5.37530380       6.58680372      10.88645868
P        3.97103363       4.43829789       7.92891884
P        1.50931286       3.49147056       3.85661635
O        4.33873997       8.38551159       5.61329130
O        3.83813482       0.66148592       1.80311372
O        2.97413421       3.57417039       8.65935439
O        5.69028548       0.92732442       4.39319380
O        4.96268112       4.79525505       9.05576646
O        2.04628977       3.39182534       5.26451125
O        8.88787957       7.91885286       5.06956507
O        3.42725280       5.83175787       7.44649779
Li       6.38965680       2.89726357      11.62153939
Li       7.50287740       8.69972231       6.00098735
Li       3.38968138       1.70797506       4.69418475
Li       8.54599485      10.24125852       4.08306307
Li       8.89880534       2.87124430       5.34429253
Li       6.68653627       5.12436394       8.50696379
P        7.61428972       9.13519897       1.12072295
P        0.97120315       6.87837143      10.93216132
O        1.29045649       7.50015798       3.69784498
O        6.49389286       2.04781246       1.91357064
O        6.92356701       7.70942008       0.76360385
O        6.98852957       4.20767821       0.59177677
O        6.41781614      10.32969283       1.27652655
O        1.49219786       8.29563630      11.49778607
O        6.13563041       6.61212280       5.43194894
O        8.56896480       9.67880532      12.41007802
Li       4.36282107       4.71360999       4.59719189
Li       3.13759536       7.88693871       3.05560014
Li       1.65774300       5.06591618       9.29730471
Li       4.20095606       9.90406025       7.32983609
Li       1.14474857       9.90207870       9.85104704
Li       3.15075199       9.49481666       5.24477330
P        2.83227378      10.19521956       2.00623174
P        0.59928428       7.65826262       5.02871344
O        2.49283545       5.61279242      11.05193047
O        4.48878127       3.83784232       6.66587098
O        1.33094897       0.00555847       1.65612372
O        8.01751581       8.80987954       9.52947917
O        3.14705484       8.81588345       1.34355531
O        1.01975865       6.56122721       6.09107290
O        0.01472183       0.94744977       4.31553867
O        3.07590790       9.88367387       3.54334385
Li       7.85947940       0.91429933       1.26412361
Li       2.43020292       5.74025951       2.79645244
Li       5.32703945       9.14651095       0.08632483
Li       0.80084437       4.60245533       6.48512885
Li       9.86950941      10.60884897       0.65183533
Li       7.99764709       8.22564514      11.53801893
P        9.15324072       4.79577540       3.39382610
P        4.86982592       0.85647291      10.46799347
O        7.02536908       2.21259235       6.22624774
O        1.72098545       2.13847364      11.64019101
O        5.86338825       8.22945941       3.48443728
N        0.75577742       4.68855696       3.13073401
O        6.21593008       0.86119130       9.72050703
O        8.59221652       3.43097398       2.76614274
O        8.90610087       4.90194037       5.00835270
Li       6.43072922      10.21794748       8.48023696
Li       8.73326503       0.04301597       7.20570609
Li       7.69530955       6.01407915       0.23307150
Li       0.27099204       5.75301416       0.87946225
Li       9.39259515       7.39814369       7.80190289
Li       7.91236669       7.10547728       3.50494332
P        9.15718666       2.78997045       8.78065847
P        6.27486713       0.84470270       5.79606898
O        4.67233406      10.23836964      11.32517376
O        2.65549952       9.04923930       7.85293205
O        7.78671386       3.31969509       8.88099262
O        2.87650580       3.41008688       3.11984486
N        9.66945879       3.14915609      10.30577357
O        5.21586668       0.65183141       6.92995549
O        6.95832849       6.45993550      10.23793276
O        0.33357928       3.62762418       8.10852716
Li       5.35363229       1.21297645       0.64338122
Li       3.83798659       8.68182625       9.62401906
Li       3.17253938       2.38123419       0.55119287
Li       5.34851819      10.23729139       3.18105579
Li       7.83165562       6.29728460       6.00889983
Li       0.31761946       9.11525699       2.97983751
P        0.24240619       2.64754718      11.82197023
P        7.06390197       3.53811868       1.92965645
O        5.63339988       8.28281234       8.67068684
O        8.80408324       6.02806888       2.51407014
O        9.85655323       4.00510019      12.25662242
O        0.63198275       6.70341151       9.44355098
N        9.58229454       1.93778026      10.26174644
O        6.13530313       4.24101824       2.91054530
O        4.68487403       2.20760090      11.20418256
O        9.07828849       1.79180741       0.08754602
Li       2.92633769       7.35515196       5.51406232
Li       6.28260337       2.43942141       8.49171612
Li       2.91766801       9.22966436      11.82749925
Li       6.10499941       3.92159236       5.84604163
Li       2.03481550       7.32245390       8.18510934
P        1.48452308       9.87741668       6.98134046
P        7.01180373       7.67375503       9.17840795
O        9.28059330       1.36127928       8.31375288
N        1.24590581       8.91913474       5.67486590
O        1.96619702       0.67767712       6.66051177
O        7.59866471       6.77937740       7.98186042
O        7.50750754      10.41709619       5.83425792
O        0.30453852       9.71813998       7.77256098
124
Lattice="9.92562 0.0 0.0 0.0 10.6806 0.0 0.0 0.0 12.4552" Properties=species:S:1:pos:R:3 material=LiPON model=NEP89 temperature_K=1200 phase="NVT production" display_name="LiPON｜NEP89｜1200 K｜NVT production計算" report_figures="23_LiPON_lithium_MSD; 24_LiPON_transport_comparison; 25_LiPON_temperature_RDF" source_frame_index=2339 relative_time_ps=233.9 pbc="T T T"
Li       1.14149889       2.26787782       7.03133474
Li       5.30146990       3.65004238      10.61086551
Li       0.47808797       0.12763929       2.04766886
Li       5.62652682       9.63285401       3.43085002
Li       6.72703728       8.39825337      11.55320627
Li       1.15664531       5.29061008       2.27825305
P        3.34985655       6.05030960      12.30413804
P        5.04143934       7.13676800       5.34296392
N        0.63025565       1.99208773       3.41164774
O        8.73746953       9.36851109       2.57911976
O        3.31767692       5.43890472       1.39388595
O        4.58117448       0.63014995       8.66868649
O        4.06658194       7.44189499      12.20586751
O        4.25970383       6.63277913       4.01185336
O        0.41840265       6.42121248       9.68619805
O        4.01134274       5.35950831      11.20956602
Li       5.70283284       2.64539038       7.77029678
Li       9.15945625       6.12553178       0.22456146
Li       9.29159823       0.48484672       9.04796662
Li       5.81675586       5.76105276       7.89598939
Li       8.61163457       5.85233011       9.48131471
Li       5.19850741      10.22354492       6.89403633
P        3.19028528       4.02339210       8.02583035
P        1.10506135       3.37314762       4.34885673
O        4.15516125       7.92937628       6.28662237
O        3.94177134       0.80789052       1.64860913
O        2.37792448       3.36959265       9.14961983
O        4.77254930       0.92907058       5.23136400
O        4.69429432       4.31494669       8.35687783
O        0.50097049       3.32126333       5.71801187
O        8.87754882       8.60648384       5.29441229
O        2.74478488       5.57780688       7.59374004
Li       5.42007934       1.37104408       0.56841068
Li       0.84537124       7.19417300       7.95669200
Li       3.65025035       4.54571744       2.98667661
Li       8.04418051      10.27308551       4.29797608
Li       0.69719723      10.66223240       4.28669705
Li       7.93535751       1.09727241       1.98689934
P        7.61022024       9.33806678       1.47713570
P        1.55308756       7.03425169      10.50327515
O        1.14863967       8.03864338       3.62944855
O        5.34634441       3.67630767       2.56868491
O        6.44258504       8.47801052       2.06978951
O        6.58207394       2.69633109       0.82607753
O        6.94348656       0.04164074       1.02215273
O        1.09506736       8.55794649      10.95280843
O        5.74926394       5.85790657       6.05640112
O        8.14254476       8.36261057       0.30081553
Li       4.20582743       3.72644401       5.32827074
Li       3.01299290       9.01179058       5.16220203
Li       2.90257567       3.63216200      11.24538401
Li       7.73794482       6.78572940       5.95071481
Li       1.52521335       9.91241922       9.78612731
Li       5.27092026      10.03579239       0.94608261
P        3.04169662      10.22708846       2.31697323
P        0.43921338       7.98968949       5.10967817
O        1.75425160       6.36435538      11.90946477
O        3.23456339       2.97690394       6.89032771
O        1.88896271       9.77792814       1.35045419
O        7.67102692       9.14831048       8.42986556
O        3.94879932       8.89478429       2.08750398
O        0.62709671       6.82553912       6.14593938
O        9.63469003       1.22293175       3.48933036
O        2.86130380       0.00675635       3.75454407
Li       6.81187685       4.52035451       5.26736873
Li       2.03180920       5.44310577       5.87079695
Li       2.80921802       8.68724508      12.04096674
Li       9.78369960       4.94714023       7.14322200
Li       0.77618814       9.97083185      12.08037031
Li       9.17542881       8.99388107      10.65823198
P        8.78141715       5.30832936       3.28447392
P        4.58268212       0.33905866      10.22455671
O        6.46836701       2.77035922       5.56798087
O        0.62296571       0.68035489      10.65472217
O        6.20746363       8.17082265       4.80092625
N        0.09018374       4.38037920       3.65022522
O        5.94501441      10.23983690      10.63186781
O        7.86272552       4.28863215       2.45819895
O        7.93679932       5.88019738       4.42936008
Li       6.61859663       0.08559069       8.90688450
Li       8.35300001       9.88795167       6.70943682
Li       4.37774852       6.09344142       9.51590613
Li       4.60054693       1.55750681       3.27593511
Li       0.99581607       4.69415426       9.61469336
Li       0.16807210       8.41050044       2.08150149
P        8.27828250       3.36696558       9.63295563
P        6.21015032       1.20347356       5.20960877
O        3.33882323      10.05990857      10.67999414
O        2.41349302      10.58841337       7.04995237
O        7.54093239       4.35299146      10.39639258
O        2.54767091       4.09348328       4.15903285
N        8.80378440       2.37357770      10.92073959
O        7.03845068       0.37360771       6.39617557
O        7.82023197       7.59758604      10.31764753
O        9.36847601       3.98237679       8.58354070
Li       4.20599712       8.43590196      10.38836818
Li       2.62684280       1.38180140       9.08611919
Li       7.60855003       0.56476738      11.63336580
Li       5.30573882       7.40633983       1.28496945
Li       6.94116449       7.24752659       3.51965269
Li       2.83345608       7.28699410       2.99000043
P        0.53062784       1.82763204      11.63438564
P        6.51442584       3.99765412       1.62633938
O        5.53027806       7.59503017       9.11668643
O        9.23851183       6.43529219       2.30986390
O        1.79285028       2.56803924      12.10397888
O        2.70495171       7.15551960       9.46981862
N        9.74668426       3.07335696      10.58644982
O        6.17698969       5.18928484       0.71847799
O        4.33502214       1.55561311      11.20305613
O        9.40593138       1.60260411       0.33563415
Li       3.26735967       1.12659421       6.28701165
Li       8.23137124       2.23866153       6.90779491
Li       2.87994279       0.66781217      12.28974995
Li       6.22806574       5.88812611      11.51635983
Li       3.07823877       7.71603578       7.58759937
P        1.01156702      10.05053672       7.11508038
P        7.16854077       7.76079327       8.95863753
O        7.56532397       2.24502923       8.72327409
N        1.26045050       9.24821725       5.73272152
O        9.79287342       0.35328196       7.01504778
O        7.69882298       6.61068404       8.00719072
O        6.69662812       0.53505213       3.83192302
O        0.80298819       9.15279469       8.33685325
124
Lattice="9.92562 0.0 0.0 0.0 10.6806 0.0 0.0 0.0 12.4552" Properties=species:S:1:pos:R:3 material=LiPON model=NEP89 temperature_K=1200 phase="NVT production" display_name="LiPON｜NEP89｜1200 K｜NVT production計算" report_figures="23_LiPON_lithium_MSD; 24_LiPON_transport_comparison; 25_LiPON_temperature_RDF" source_frame_index=2369 relative_time_ps=236.9 pbc="T T T"
Li       2.75908972       1.38082972       8.69388799
Li       4.29669032       5.29214582       1.49644259
Li       8.04418925       0.95806691      11.85433489
Li       4.83728675       7.90350614       1.55206477
Li       8.72049600       8.95837676      10.28774091
Li       9.56861888       4.58211105       1.01685095
P        2.40132763       5.81675710      12.35847512
P        5.05242394       6.28290029       4.30162984
N        0.97631366       1.90466805       3.36009550
O        6.65948382       8.59291827       1.42296924
O        1.13602822       5.92908222       0.81598716
O        4.48005996       0.55627610       9.33845952
O        3.39385599       6.87466853       0.40390361
O        3.73072394       7.20226724       4.65196284
O        9.91997445       7.52535442      10.35413899
O        3.08056685       4.57932555      12.33090262
Li       6.10581750       2.60196957       8.15796483
Li       6.67859413       5.50600832       2.29645898
Li       8.43297468       9.18200682       6.86153131
Li       3.09108368       5.24464638       5.51565820
Li       0.00646766       7.80022852       8.37176541
Li       3.49263559       9.28245118       8.42200581
P        4.12671893       4.20707108       8.05575702
P        1.50228466       3.45159194       3.84780858
O        6.07884841       7.20495240       4.88217965
O        2.83775565      10.14323869       4.01451977
O        4.75833231       4.98558606       9.46672428
O        5.54802696       9.90467578       5.91430211
O        2.91983303       3.34098453       8.49744119
O        2.26572350       3.22818870       5.37606155
O        8.81934047       8.04639115       5.53390786
O        5.09740628       3.39972177       7.14779121
Li       4.16258632       1.93687643       0.35615755
Li       8.63140520       1.29282663       4.98154818
Li       4.08112548       2.85711961       3.30622500
Li       7.66032270       5.91143421       6.04452041
Li       7.98187961       0.69134725       2.65414041
Li       6.17857955       8.89167777       3.58761284
P        7.99720085       8.41046879       0.79693126
P        1.56027292       7.81457598      10.23492282
O        1.01214353       7.48512467       4.23350203
O        5.66072630       2.73144870       2.63462234
O        7.73188528       6.96621328       0.17730932
O        7.71734663       1.96994524       1.15986576
O        8.23997929       9.38464300      12.02473297
O        1.90819765       9.07070441      11.01374116
O        4.93062814       4.83419605       4.84077291
O        9.13727358       8.63752835       1.72870829
Li       1.37264040       3.34963234       7.02731170
Li       3.25435565       9.39699579       5.44175683
Li       1.60983090       4.41999636      10.05927415
Li       7.46227214       0.16004935       8.51867239
Li       1.09092231      10.49993267      10.09209239
Li       3.74216913       3.60362068      10.59498324
P        3.21460473      10.25232691       2.45255036
P        0.39912834       7.72688844       5.69827518
O        2.22302158       6.30022554      10.71352726
O        3.59357522       5.61686734       7.46891597
O        3.30020206       1.16492434       2.12602275
O        7.17877657       8.97846980       8.69476796
O        4.64875317       9.46151487       2.36963356
O        0.62720234       6.80362392       6.94223891
O        9.87442936       1.10914895       3.54713000
O        2.27701018       9.24621416       1.62914223
Li       9.70776533       7.07946626       2.54332715
Li       2.52482705       7.21536965       3.30363150
Li       3.36197121       8.64515002       0.19973106
Li       1.85833182       5.67457728       8.11398158
Li       1.18652181       9.98388229       0.26155188
Li       7.31485056       6.75022937      10.78727365
P        8.74157984       4.49119731       4.01280716
P        5.23952396       0.77616674      10.62358089
O        4.81792980       1.38172857       4.98535642
O        1.81959574       2.22934373      10.94360300
O        4.95571160       6.25039479       2.73682024
N        0.36037000       4.56291660       3.99087641
O        6.72978461       1.08026288      10.27133309
O        7.92522995       3.42143287       3.16929699
O        8.27733569       4.32320783       5.52416211
Li       9.26758948       1.43820029       8.25751304
Li       6.53687232       5.01604815       9.13680510
Li       9.10681458       6.08031183      11.61627466
Li       2.84051981       1.35506566       5.40077631
Li       2.07496555       2.87758099       1.21839187
Li       8.37554069       7.79480294       3.73207188
P        9.05247619       4.12187764       9.49433462
P        6.04559236       0.51235777       5.43409415
O        5.10209709      10.21076436      11.63444686
O        0.39251022       0.75693954       6.44296321
O        8.16509623       5.33687170       9.94336470
O        2.68046932       3.85766259       2.94811960
N        0.04004818       3.73763821      11.00045734
O        6.91736820       1.09509464       6.82618418
O        5.90783904       7.39730192      10.11580894
O        0.29026093       4.45759112       8.43696390
Li       4.28320388       6.55046147       9.32371200
Li       3.32126755       7.26570668       7.42337191
Li       6.72001770       2.91692803      11.36193329
Li       5.58407954      10.31866975       0.94992973
Li       8.72829374       3.24852741       6.98781789
Li       5.17448983       0.60985484       3.07160088
P        0.49443928       2.24273098      11.54222441
P        6.93759096       3.02431095       1.78618630
O        4.98627491       8.18283261       8.00595461
O        8.37397680       6.03897942       3.34571932
O        0.15995638       2.75169687       0.57464074
O        2.25777797       7.92385784       8.84105637
N        9.28727132       2.71140432      10.38869663
O        6.70198932       4.07937430       0.55315711
O        4.74424700       2.06743150      11.30529538
O        0.03368520       0.79437780      11.28945402
Li       4.63154166       0.60486446       7.30998939
Li       6.16859350       3.64757146       5.73803369
Li       0.54437687       9.47508930       3.92012921
Li       5.85006591       8.65888041      11.40126594
Li       5.34360587       8.16097757       6.21069578
P        1.00288189      10.17742127       7.09258001
P        6.29097431       7.72362623       8.60055482
O        8.01950198       3.10125926       8.73701315
N        1.21546797       9.15800455       5.77403969
O        0.08503746       9.70761140       8.36178534
O        6.80405677       6.57208134       7.72154055
O        7.01254170       0.64075282       4.23015409
O        2.42576924      10.51697650       7.53318541
124
Lattice="9.92562 0.0 0.0 0.0 10.6806 0.0 0.0 0.0 12.4552" Properties=species:S:1:pos:R:3 material=LiPON model=NEP89 temperature_K=1200 phase="NVT production" display_name="LiPON｜NEP89｜1200 K｜NVT production計算" report_figures="23_LiPON_lithium_MSD; 24_LiPON_transport_comparison; 25_LiPON_temperature_RDF" source_frame_index=2399 relative_time_ps=239.9 pbc="T T T"
Li       5.68145604       4.36529709       9.73570175
Li       1.34742071       6.48595381       5.35175042
Li       1.75262532      10.19503903       0.08243696
Li       6.42223558       5.37900268       2.51083722
Li       0.19672433       8.93398853      10.48119923
Li       8.16154011       0.29524146       1.18844460
P        3.67231772       5.76186982       0.01731715
P        4.59339881       6.89093761       4.63796109
N        9.92527624       1.87245475       2.87037502
O        8.32014908       7.45932268      12.01469465
O        2.53142291       4.78955615      12.28125341
O        3.27367544       1.64893345      10.23919764
O        4.21028629       5.65347348       1.42200697
O        3.50605782       7.71325126       3.82223533
O        1.43998927       6.96707834      10.33365157
O        4.92340764       5.50405781      11.53395474
Li       8.72256654       1.01996203       5.13296514
Li       8.60814253       5.14252657       2.16400075
Li       6.40347624       8.46329328       6.17843915
Li       3.38526278       3.94872226       5.26724592
Li       9.50603799       9.20083066       8.07383856
Li       3.78654523       9.83273619       5.31366834
P        3.09327926       4.82186775       7.93718456
P        0.76992765       3.25849052       3.17771183
O        4.36978218       7.59635542       6.10519085
O        3.81420058       0.08951639       3.33421219
O        2.52370287       4.43045421       9.35821568
O        5.25411278      10.25958626       6.20988500
O        2.90203828       3.63417461       6.95956151
O        2.30239906       3.17633672       3.33089861
O        8.11020166       8.89249696       5.23113899
O        4.73824754       5.17032816       8.01525534
Li       6.09184286       4.33167671      11.93768611
Li       9.70214655       3.25028198       0.38901163
Li       5.63836682       0.79355412       3.13348674
Li       8.38670403       5.34585749       7.72290243
Li       7.11344390       2.30949457      12.25982377
Li       4.68582640       8.89677098      10.42178276
P        8.35531260       7.41861016       1.09222854
P        2.56902515       7.77871475      10.77348480
O        0.42189341       8.50937475       4.14919733
O        5.36933038       3.38358414       2.64579382
O        7.09345279       6.68510242       1.70306694
O        6.76670706       1.56453688       1.71414779
O        9.41671300       6.75432117       1.78659018
O        2.15025371       9.21913479      11.09869073
O        4.40573841       5.38520925       4.61393661
O        8.37409548       8.88025934       1.47202082
Li       1.65882234       2.70431712       9.76398140
Li       1.99245870       9.89259107       3.94754352
Li       1.07447356       5.02586376      10.35421165
Li       4.19082067       2.16724099       7.59652312
Li       1.92834946      10.61562415      10.06376002
Li       5.62852524       0.39752490       0.01459662
P        3.58320424      10.07860075       1.89387511
P        9.59599644       8.54950495       5.47150886
O        3.00368053       7.31683743      12.36135400
O        2.42284670       5.99329248       7.28436902
O        3.54033004       0.57812790       0.90922091
O        8.99592408       8.03826646       9.17427140
O        4.85197262       9.20975610       1.95773577
O        0.01379319       7.43963258       6.48740561
O        9.75706680       0.77055036       2.19630931
O        2.26727792       9.26117793       1.76596856
Li       3.20559096       4.64661133       2.67318254
Li       9.82262724       9.30493583       2.59558128
Li       1.86761054       7.68867881       2.46316474
Li       3.52409181       7.43945763       7.69594871
Li       0.74075386       5.41088856       0.65619361
Li       7.30341807       9.29850553      11.68682074
P        8.39777414       3.99656610       4.75397964
P        4.91304932       1.63267791      10.34316985
O        5.05664224       2.05416993       5.80680433
O        0.39517930       0.39811158      11.58333145
O        6.03606984       7.22945911       4.00248929
N        9.90145572       3.97222028       4.28094742
O        5.50045558       2.07742396       8.93663115
O        7.55444273       2.83565212       3.87564723
O        7.89000538       4.13386689       6.24232910
Li       9.00616421       1.87456911       7.80939608
Li       5.64117758       3.91655628       4.27950012
Li       9.83792951       6.51376108      11.54537684
Li       3.82976111       1.98970317       2.44078117
Li       3.42782797       2.16528124      12.37637165
Li       7.96736653       7.19868418       3.78224426
P        8.85604792       4.05864229      10.30365932
P        6.04617500       0.85070788       5.72487890
O        5.52280794       0.23056720      10.33496803
O        0.58005406       1.47327282       6.68340000
O        9.70686216       4.63680661      11.46873767
O        0.43226898       4.23334706       1.95181629
N        8.72892702       2.53210134      11.09589486
O        7.26028860       1.17613067       6.59761760
O        6.46542028       8.25995385       9.99797822
O        9.54719085       4.33940038       8.96583762
Li       6.56718841       3.22206042       7.26308963
Li       0.38326956       6.63646968       8.33625309
Li       6.84150349       6.74281149      11.17095129
Li       6.98352076      10.61002496       8.96677691
Li       7.80146102      10.26200819       6.52790480
Li       6.36342955       8.84464711       3.12470164
P        9.06516487       0.84806204      10.89836890
P        6.89976882       2.97558780       2.27688325
O        7.08281261       9.17515404       7.99929169
O        7.98635850       5.20804268       3.95467609
O        7.76757471       0.55599660      11.81920531
O        3.67035456       7.67665236       9.64648796
N        9.42484341       2.32396980      10.11380799
O        7.52035190       4.03971560       1.31794713
O        5.33738236       2.58843213      11.35238399
O        8.99212020       0.15881784       9.38352103
Li       3.21743628       1.64691373       5.30364843
Li       5.20545698       6.43299529       9.69941050
Li       1.01715328       3.21062420       6.94377540
Li       5.17560042       7.41882101       1.52824162
Li       5.68483708       6.09245348       6.80366972
P        1.27128259       0.05112988       6.74828539
P        7.51736686       8.03394053       8.83717097
O        7.43794548       4.62594011      10.28543879
N        9.92397087      10.00813107       6.27133316
O        1.98992528      10.43445600       8.12107190
O        7.00860299       6.75017976       8.24266830
O        6.53110620       0.28603895       4.41116869
O        2.29704696      10.44668880       5.66111831
124
Lattice="9.92562 0.0 0.0 0.0 10.6806 0.0 0.0 0.0 12.4552" Properties=species:S:1:pos:R:3 material=LiPON model=NEP89 temperature_K=1200 phase="NVT production" display_name="LiPON｜NEP89｜1200 K｜NVT production計算" report_figures="23_LiPON_lithium_MSD; 24_LiPON_transport_comparison; 25_LiPON_temperature_RDF" source_frame_index=2429 relative_time_ps=242.9 pbc="T T T"
Li       2.67984515       3.61695847      10.53667674
Li       8.41876732       0.29266434       8.19213053
Li       4.80053616       8.72895848      11.75008297
Li       6.19149650       5.85824566       2.43818503
Li       1.56859874       0.93888276      12.22141899
Li       9.16651453       2.45083603       1.41597125
P        4.09782207       5.89635585      12.36455105
P        5.07310030       6.95147698       4.27853369
N        9.76338653       1.37477644       2.94451582
O        9.42885550       8.72684261      12.42553548
O        2.96671665       4.95051110       0.39209269
O        2.65939716       1.55952329      10.35020048
O        4.67283282       6.64308309       1.09636697
O        4.66180337       5.50799422       4.03810314
O        1.56801651       6.96118725       9.40958461
O        5.06805245       5.56840566      11.10425874
Li       6.87005663      10.25166220       2.15043504
Li       8.58241847       4.95533337       1.64321329
Li       3.48131013       8.00797730       7.47540614
Li       0.43035538       5.16153373       5.65949685
Li       9.70447670       8.99787098      10.55575917
Li       2.23414453       8.79439126       4.71451134
P        3.41254682       4.11714415       7.68218267
P        0.40515245       3.07378076       3.19220137
O        3.85323884       7.95916280       4.14006160
O        3.65825341      10.60595464       3.19893316
O        3.73358146       4.50581834       9.06719109
O        4.98944122      10.04422360       6.67865291
O        2.73183581       2.62410429       7.54593836
O        1.82193933       3.09789271       3.88540724
O        8.97255621       8.42223547       5.31727633
O        4.58210883       4.06838240       6.78985436
Li       6.95281653       3.62210762      12.18605082
Li       0.53469250       4.97344093       0.07381447
Li       1.80133729       2.75916226       6.22863813
Li       3.28563306       1.27642024       4.24810903
Li       5.26450032       3.51324288       9.76480670
Li       5.63277381       8.14651056       1.53544178
P        8.72999871       7.84872284       1.02967327
P        2.49748747       7.89856049      10.12417320
O        1.33399126       7.20940846       4.50069341
O        4.90902333       2.96313680       2.68001779
O        8.52065510       6.34502534       0.63792137
O        7.17619413       1.91568921       1.89623831
O        9.69251868       7.86715819       2.23163015
O        1.71635866       9.04941974      10.75482942
O        5.73259162       7.11034312       5.65773139
O        7.43578894       8.58331072       1.40928054
Li       3.51517616       2.77398358       1.08508546
Li       2.63864094       6.16945506       5.05318691
Li       0.51916683       8.01451666       8.26833681
Li       3.56324441       1.26580401       6.73429188
Li       1.54263726      10.66493236       9.70112495
Li       5.67193268       0.44486655      12.37185585
P        3.54230096      10.30886005       1.61865390
P        0.35877231       7.81120977       5.67529028
O        3.30034156       7.16253715      11.47312998
O        2.28926366       5.00187319       6.81136154
O        2.83213836       0.76269371       0.86110366
O        8.73040680       8.05346298       9.36141913
O        4.96016846       9.86926188       1.06832423
O        0.18069565       6.91724427       6.97875032
O        9.79559994       0.37463727       3.58527461
O        2.64527578       8.93747562       1.65097224
Li       4.93565239       3.92685328       5.02737245
Li       0.54234290       6.30843111       2.87373363
Li       3.26001229       7.50361246       1.98690636
Li       4.13834081      10.15060484       8.47121718
Li       4.22640154       4.57844688       2.11795899
Li       7.57165616       9.83538490      12.15884961
P        8.17614340       4.44145215       4.41056516
P        4.07456979       1.28399940      10.63470133
O        5.10106706       1.59465254       5.62059063
O        9.59253724       2.29183394      12.17713586
O        6.17166032       7.40606911       3.25857700
N        9.52102315       3.56308431       4.47875787
O        4.79966249       1.41148809       9.11098516
O        7.13991624       3.43086751       3.84669083
O        7.75336148       4.99596496       5.68098184
Li       8.16571920       2.98186775       6.68906543
Li       5.74117882       2.50835194       7.63450691
Li       1.14908151       5.90904919       7.99398164
Li       4.79771452       9.45005472       4.03002564
Li       5.18345608       1.18534089       2.63633615
Li       7.06037861       8.28606430       6.56833197
P        7.98023237       4.26853139       9.36062008
P        5.95031405       0.37985541       6.09338100
O        4.26152134      10.47748763      11.04115026
O        9.85977178       0.33667327       6.73307967
O        6.74991884       4.00854273       8.55820804
O        0.26506274       3.92691835       1.88430224
N        7.91574573       2.97466885      10.36917234
O        7.19731536       0.98205471       6.78169317
O        6.45597959       8.25827459      10.69909173
O        7.83847549       5.42355822      10.42575333
Li       8.48697698       5.93916132       7.21209514
Li       9.18661506       6.50888244      10.49044701
Li       7.07390849       6.78359995      11.47881070
Li       6.57385483       0.81755049       9.65043672
Li       8.69164638      10.42243578       5.18925404
Li       8.27657139       7.38089363       4.03953376
P        8.93832649       1.73110914      10.90353654
P        6.47842279       3.27978783       2.40378632
O        6.98331804       9.67618301       8.58663327
O        8.40386787       5.63283036       3.40821932
O        7.55760954       1.14025603      11.45319288
O        3.75121634       8.29010380       9.23560740
N        9.10623465       3.19437569       9.87329198
O        6.75066661       4.37082415       1.39020797
O        4.84358041       2.07343400      11.71392597
O        9.56389387       0.68171993       9.94952414
Li       0.66577708      10.14452815       1.84660964
Li       4.83691480       6.12598369       9.21823752
Li       0.54685637       2.54468710       8.52352797
Li       1.68749834       8.46732108       0.20184672
Li       5.90826057       5.41148595       6.87963579
P        1.46311227      10.47439788       6.71961707
P        7.06519776       8.22623864       9.22625741
O        9.22645874       4.86112440       8.57887515
N        1.33728103       9.03997278       6.39874052
O        2.21155003      10.47421390       7.95483173
O        6.41347452       7.16518474       8.45431277
O        6.76294809      10.34485992       4.83011661
O        2.14330610       0.81292412       5.76134522
124
Lattice="9.92562 0.0 0.0 0.0 10.6806 0.0 0.0 0.0 12.4552" Properties=species:S:1:pos:R:3 material=LiPON model=NEP89 temperature_K=1200 phase="NVT production" display_name="LiPON｜NEP89｜1200 K｜NVT production計算" report_figures="23_LiPON_lithium_MSD; 24_LiPON_transport_comparison; 25_LiPON_temperature_RDF" source_frame_index=2459 relative_time_ps=245.9 pbc="T T T"
Li       1.70858511       2.67296510      12.17650895
Li       6.40885922      10.64352489       9.74464083
Li       5.47821665       9.39185350      12.06832179
Li       8.44757102       5.87824571       2.10193349
Li       8.86687874       2.23647189       5.51497666
Li       8.51155278       3.74318576       0.41119335
P        3.42354761       5.16474620      11.42900724
P        5.13003931       6.98219898       4.91213938
N        1.59438457       2.67914918       2.14457580
O        9.05060166       7.41223264       0.75654706
O        2.05971734       4.58281445      11.15361490
O        2.80294478       1.65446885      10.35614547
O        3.60186148       5.48682599       0.48742054
O        4.59442051       5.88918969       3.75771601
O        1.19650540       6.49668148       9.29223200
O        4.68088925       4.54942364      10.82800088
Li       0.25018473       9.39721415       0.63435953
Li       0.76898999       8.75148085       3.02913757
Li       2.40818989       7.74915962       6.55195387
Li       0.29001497       6.13839687       7.43809303
Li       9.61158889       9.64049056      10.18775933
Li       4.38474056       0.41196877       4.29010060
P        2.84491453       4.27211126       7.01508640
P        0.54388616       3.97225937       2.60967505
O        3.90936789       7.39500995       5.77348965
O        4.03563854      10.02786908       2.45069754
O        4.16379881       4.74058181       7.73009864
O        5.38182510       0.04953728       6.02026663
O        3.07826019       3.02506525       6.11474403
O        1.52952025       5.03744876       3.19227613
O        8.65889496       8.98054971       5.05662498
O        1.94838446       5.32961836       6.30835643
Li       5.18279190       6.70346486       0.00579235
Li       3.43886783       3.93004769       1.21451775
Li       1.19327746       1.88151605       3.85982946
Li       7.09526313       0.51749073       1.08324423
Li       7.77784714       6.73455823      11.97328614
Li       5.40704610       5.89570344       2.22697173
P        8.10184900       8.59252904       1.46294241
P        2.11146948       7.63317867       9.51837935
O        1.14609701       8.06551942       5.17712787
O        4.60308925       3.07752779       2.59186858
O        7.14440938       7.46258621       2.16063216
O        6.90452335       2.04388288       2.26638405
O        8.95116438       9.45890961       2.45886660
O        1.61202882       8.62916478      10.56160602
O        5.97918947       6.08927708       5.84544827
O        7.23455307       9.45554787       0.47886218
Li       3.64531585       1.62799217       1.26749359
Li       0.92552842       5.89413371       4.60149393
Li       9.01669815       6.89203996       8.81100303
Li       4.26087125       9.32814820       6.68125447
Li       1.09800237       4.83449944       9.62497647
Li       9.62413773       1.49363544       1.56865772
P        3.34696049       8.91850994       1.80549657
P        9.76178056       8.49507113       6.02841869
O        3.30994454       6.60837444      10.33421511
O        2.02673228       3.82132611       8.29238655
O        2.02670134       9.30241489       0.88072776
O        6.05784775       7.29567225      10.84445449
O        4.29706156       7.99885499       0.93588033
O        9.16709027       7.42309093       7.04159380
O        1.81946311       1.39795753       2.11575452
O        2.62054748       8.18722514       2.97437368
Li       3.58831004       4.32472296       3.99602028
Li       2.64213433       9.16571598       4.80105985
Li       1.81137156       1.83959045       8.91770401
Li       4.09377742      10.04902066       9.56676551
Li       3.00504674       8.22733800      12.02299469
Li       6.03334031       2.40523363       8.90195591
P        8.24263038       4.41584324       4.46769531
P        4.12714383       1.23058052      10.98944920
O        6.19452647       2.30115112       7.03096175
O        9.89490462       1.75052499      12.26125412
O        5.87082164       8.24749436       4.61073506
N        9.37955975       3.39030710       3.75795616
O        5.05557559       1.15776797       9.68794160
O        6.91919231       3.95516819       3.72416639
O        8.07387812       3.96458453       5.83095665
Li       1.61028351      10.66777765      10.21788802
Li       5.38501801       5.44274208       9.23767186
Li       3.02619052       3.39812559       9.89210573
Li       5.58226346       8.68687870       2.60971338
Li       8.84866234       0.05476160       3.64978504
Li       6.68094394       8.98129224       6.15766582
P        8.14437375       4.24391584       9.83953010
P        6.64580785       0.82976844       6.55415642
O        4.03259805      10.31802896      11.34934790
O        0.28851027       1.30749473       6.57141222
O        6.72795040       3.94469912       9.26826006
O        9.92559799       4.63951685       1.26896536
N        8.76507674       2.67953561       9.63917472
O        7.24394742       0.14282772       7.83134542
O        5.66779359       9.00364221       8.98049255
O        8.02130340       5.00792140      11.05825399
Li       7.54360283       6.41985951       6.43946556
Li       0.42331360       6.25474707      12.44515315
Li       6.02748588       3.74631416      11.73013912
Li       0.34035117       3.11820471       7.25315982
Li       9.04754647       0.04601463       8.14049764
Li       7.72131004       7.58641018       3.86963167
P        9.09696626       1.48762797      10.90143275
P        6.09345264       3.39783626       2.33657615
O        7.99720858       8.58319980       9.77769928
O        8.54415878       5.84003331       4.26416733
O        7.86705737       0.60869853      11.17301039
O        2.96369068       8.33116665       8.37282218
N        8.77916299       3.14754456      10.86966994
O        6.44777251       4.39080437       1.19515844
O        4.49916574       1.98341579      12.21470254
O        0.05161107       0.69129571       9.90990477
Li       6.08191042       2.33139285       4.48445472
Li       4.91674006       6.57241386       7.31680361
Li       4.46421266       1.63803833       7.29719658
Li       2.68069858       6.23620950       2.31079106
Li       6.11682400       4.06282985       6.51959354
P        1.44566663       0.17886334       6.63490618
P        6.56272697       7.87014831       9.53027651
O        9.10232021       4.76618986       8.65576886
N        0.55561693       9.60727868       6.85013344
O        2.30581683       0.55024757       7.77962661
O        6.51564274       6.83586207       8.30331387
O        7.67050553       0.86567778       5.45708576
O        1.96691437       0.22737190       5.17429200
124
Lattice="9.92562 0.0 0.0 0.0 10.6806 0.0 0.0 0.0 12.4552" Properties=species:S:1:pos:R:3 material=LiPON model=NEP89 temperature_K=1200 phase="NVT production" display_name="LiPON｜NEP89｜1200 K｜NVT production計算" report_figures="23_LiPON_lithium_MSD; 24_LiPON_transport_comparison; 25_LiPON_temperature_RDF" source_frame_index=2489 relative_time_ps=248.9 pbc="T T T"
Li       1.43427118       9.09039004      12.42784158
Li       3.93699532       0.85324017       7.62445872
Li       8.57727257      10.07599255      10.44235595
Li       6.68881973       5.68795203      11.78698490
Li       9.13726715       9.03880206       3.75805043
Li       1.13214356       5.01368921      10.15034320
P        2.42985235       5.86628924       0.18888000
P        5.12765952       6.72313947       4.79144960
N        0.11273331       1.47419622       3.58841043
O        7.38667022       8.96710634       2.17396289
O        1.62881714       4.86684101      11.78476139
O        4.49389653       1.27873804       9.56857265
O        2.34455478       6.12703373       1.72450181
O        3.72026566       6.10046160       4.11689385
O        1.07852238       6.92735052       9.64560031
O        3.98759511       5.60861440      12.35973352
Li       0.75078372       7.12506367       3.08475757
Li       1.66243377       9.58001331       4.31655923
Li       0.44914805       8.45979633       8.91557557
Li       1.42629666       5.05252644       4.65292515
Li       1.88230153       0.56187045      10.12876963
Li       4.08387998       9.70164776       5.28907347
P        2.75456323       4.24248796       7.15754554
P        1.22551548       2.59246610       2.85354348
O        4.68747020       7.64626233       6.00694117
O        4.37317915       0.12759087       2.08846275
O        3.73500568       4.86120461       8.16246457
O        5.53888192      10.49216890       6.40003765
O        2.95260850       2.67591145       7.38477783
O        2.61785255       2.78891975       3.55242987
O        8.53549318       8.62387907       5.95469962
O        2.97879999       4.54300244       5.71571895
Li       4.69234313       3.71206444       0.70038442
Li       3.11130344       0.87503916       0.85051849
Li       2.82914426       2.29776887       5.22704555
Li       1.67784132       3.06586539      11.89033033
Li       6.89216213       2.50785879      11.84341923
Li       4.00487064       7.09246269       2.61468620
P        8.32624840       8.55623641       1.06469718
P        2.02382563       7.74856234      10.42010479
O        0.59983510       7.63898827       5.03803540
O        5.50818575       3.30616447       2.67006864
O        7.83411836       7.24596561       0.42677099
O        7.19985557       1.87434705       1.55010195
O        8.52760944       9.56763519      12.34978856
O        1.37367834       9.19443213      10.46673028
O        6.23275311       5.70890609       5.34447912
O        9.63662485       8.27784862       2.01323630
Li       0.35880780       0.34469420       1.09920349
Li       5.72894986       8.37490951       1.87175811
Li       8.79056088       6.40607819       9.01332080
Li       5.14652951       9.09646421       7.27082209
Li       9.46761619       5.03100543       6.50032290
Li       6.48984688       0.27203750       0.79078031
P        3.22483723       9.63313609       1.93804830
P        9.91003861       7.89761779       6.32849662
O        1.96965675       7.35481298      11.98491263
O        1.26408698       4.53759660       7.61018852
O        1.87278060      10.22478014       1.26474048
O        6.14566750       7.77420258      11.14045321
O        3.91487972       8.60963070       0.95465472
O        9.58866392       6.74028173       7.23587200
O        9.77141425       0.19393442       3.76282784
O        2.89360731       8.71051551       3.27511197
Li       5.63364478       4.62719540       7.00384883
Li       2.61182118       7.48550792       5.34690425
Li       1.09332976       2.31612014       7.65896774
Li       3.47441606       9.52810480      10.03302298
Li       4.34801932       7.25839009      11.87814148
Li       2.81416584       2.38886637       8.99978691
P        9.12671047       4.42257298       3.54099587
P        4.33432867       1.38203955      11.15113228
O        5.83945594       2.29762902       6.92232717
O        1.06260279       2.17930154       9.74537017
O        5.82051921       7.83942307       3.83775950
N        0.51083030       4.03094227       2.94759858
O        3.43870673       0.21157391      11.44310137
O        8.07023267       3.64762552       2.75222703
O        8.87631113       4.02863787       4.95567588
Li       7.55719926       3.26911466       6.83559187
Li       5.48231728       9.67578493      11.02557934
Li       4.48584983       5.28694068      10.17493898
Li       8.59981508       1.35200344       2.05248399
Li       9.44027728       1.51442345       5.29301450
Li       6.28949725      10.54273053       3.03346243
P        7.58870189       4.43028253       9.75008891
P        5.97635383       1.14145942       5.78163957
O        3.58639380       2.52655210      11.84230403
O        0.77385744       0.56937129       6.97484735
O        6.17707937       3.94724735      10.04190361
O        1.41176477       2.04751868       1.31079253
N        9.23373499       3.56994506       9.59788743
O        7.35377378       1.08966396       5.05210303
O        6.07825780       9.62401689       9.27315117
O        8.04458921       5.33651566      10.74191412
Li       5.12076537       2.85069471       8.58022254
Li       8.53243863       7.71873760      11.27871521
Li       8.27636291       5.62528275       1.00355954
Li       6.51664723       0.90745427       9.70152425
Li       4.26591036       6.85515153       7.84709886
Li       7.39022457       6.37704904       6.65574198
P        9.56463765       1.95084676      10.24404474
P        6.84939504       3.29920677       1.86302036
O        7.98480935       8.35214025       9.43360584
O        8.87686881       5.79507921       3.13156412
O        9.47121414       1.83573758      11.71881868
O        3.51750160       7.73408286       9.89388065
N        8.21067150       2.83429328       9.86539070
O        6.71661761       4.30180261       0.79044078
O        5.80345612       0.83778152      11.61697496
O        9.01725331       0.66575247       9.60735091
Li       4.42858563       1.84515731       2.94170972
Li       1.50620755       6.10175201       8.19416021
Li       8.79499144       0.00787345       7.91677648
Li       4.53434823       4.53851217       3.29338854
Li       7.16737606       6.59908658       3.96058529
P        1.73244502      10.05174713       7.15904030
P        6.51180045       8.16916495       9.66894460
O        7.30514089       4.93860275       8.19517921
N        0.74978213       8.93903573       7.20426611
O        2.65019559      10.29609472       8.59326327
O        5.99511902       7.19458398       8.52185142
O        4.79793513       1.68624844       4.75324127
O        2.60129857      10.12030325       5.94415447
124
Lattice="9.92562 0.0 0.0 0.0 10.6806 0.0 0.0 0.0 12.4552" Properties=species:S:1:pos:R:3 material=LiPON model=NEP89 temperature_K=1200 phase="NVT production" display_name="LiPON｜NEP89｜1200 K｜NVT production計算" report_figures="23_LiPON_lithium_MSD; 24_LiPON_transport_comparison; 25_LiPON_temperature_RDF" source_frame_index=2519 relative_time_ps=251.9 pbc="T T T"
Li       9.28523996       6.59385472       0.58380632
Li       3.38957822       4.49212743       5.57188522
Li       7.50009833       0.11861909      10.86280511
Li       5.56656449       6.74925095       0.26802638
Li       6.97781578       8.85283123       6.43211216
Li       2.60480443       1.79903228       8.85415692
P        3.15479018       5.80769863       0.12567763
P        5.27656009       6.29955941       4.62498238
N        0.67507799       1.44593901       3.41656467
O        7.26070666       9.58156467       2.74080249
O        3.84180487       5.47931231       1.50321273
O        4.04335437       2.85334969       9.87755817
O        4.29161358       5.72799668      11.59614599
O        3.83272405       6.03007483       4.23196572
O        0.04503933       7.07045910      11.31173269
O        1.94255416       5.12344294      11.98555961
Li       0.05185770       7.21338527       3.22429814
Li       9.38893097       9.64409706      12.09681566
Li       8.48290166       1.17764988       7.62051401
Li       1.33371206       3.64186152       0.24902474
Li       2.80863991       7.32372399       8.09973152
Li       2.82177950       7.21269432       5.29413027
P        2.94373783       4.71519200       7.97793091
P        1.43642084       2.92862143       3.41355977
O        5.14157420       7.63839755       5.50822644
O        4.58220053       0.08152691       2.70374806
O        2.14988232       5.10544756       9.24172577
O        6.63020637       1.50524874       5.18713131
O        4.41071259       5.14435647       8.46925399
O        2.66060637       2.74944037       4.39383443
O        8.32411086       8.01768888       5.10715161
O        2.78139939       5.72702991       6.80845794
Li       5.14659277       6.86056092       2.24495986
Li       4.16524936       1.96935460       1.45593456
Li       7.44026866       3.40798796       6.00971182
Li       2.09255641       0.35258339       0.38696611
Li       6.47787489       3.30759449      11.50159426
Li       3.66798516       4.68996072       2.95269306
P        7.70621291       8.86515788       1.44700009
P        1.29706912       8.07778744      11.45897453
O        0.82168624       7.63163461       4.79135573
O        5.05390764       3.22065241       2.74241347
O        6.98706046       7.41632007       1.19927246
O        6.88341826       1.86419530       1.29113762
O        7.64638750       9.87133098       0.27721680
O        1.23394439       9.45888248      12.02518937
O        5.47771160       5.10426951       5.61514192
O        9.39417219       8.49543392       1.70939541
Li       2.18295271      10.33713209       9.62175038
Li       2.39855742       6.57766330       2.62218153
Li       6.49564861       8.39056936      11.70394381
Li       4.48168816       8.82775915       6.73319092
Li       2.65078929       1.68734579       6.27366761
Li       8.39079313       0.44810225       1.78508429
P        3.91262634       9.60622420       2.06564698
P        9.71957603       8.08261327       5.84860702
O        2.68522050       7.43442795       0.15669293
O        2.87555608       3.27949009       7.45801397
O        2.45984120      10.02824459       1.94347230
O        6.47175288       6.77887212      10.42552765
O        4.56519406       9.33248711       0.61661635
O        9.78136117       7.14574865       7.00473828
O        9.68134484       0.50010535       3.45820530
O        4.11271568       8.25083147       2.76123656
Li       5.22689675       6.34519055       7.12949165
Li       7.49346207       7.76070632       3.50539504
Li       3.18884609       0.60586733       4.24146095
Li       5.08292685      10.12966387       8.63481086
Li       4.21936761       9.02999006      11.41112340
Li       0.97088781       4.74678408       8.03968789
P        8.98911883       4.50125111       3.79912182
P        4.47271089       1.51588528      10.69535511
O        6.57495507       0.52157415       7.58439638
O        1.39885983       1.38598303      10.51559092
O        6.29817979       6.21659299       3.48403296
N        0.36374370       3.66255005       4.25571421
O        3.95273657       0.28695210       9.80155553
O        7.64770188       3.43917304       3.15725912
O        8.53962270       5.02358988       5.10531374
Li       5.20965995       2.81305801       4.41050713
Li       5.89088083       0.29619373       0.34780515
Li       2.35428618       3.71689670      10.41237016
Li       8.56524818       3.50706928       0.81523291
Li       1.02456316       9.53884050       3.88620269
Li       6.51872115       0.14168821       3.83512252
P        8.09981695       3.98331509       9.02644738
P        5.76407642       0.69930558       6.33556667
O        3.76464173       1.54701457      12.25128438
O        1.58001644       0.30394010       7.57980918
O        6.98697597       4.09062751      10.02290317
O        1.60610754       3.28098710       1.96242960
N        8.65337006       2.47766082       9.52250886
O        4.61049810       1.70020206       6.63528891
O        4.61498310       8.10293254       9.37074803
O        8.92630612       5.38122653       8.92222733
Li       5.01589397       4.46055374      10.02485991
Li       8.15173976       6.32551550      10.74441030
Li       0.65248936       5.10956038      10.64952437
Li       6.54821142       1.77627722       8.82294285
Li       3.85097983       6.47967019      10.14558298
Li       7.80091023       6.20727706       6.21816067
P        9.90710078       2.01843925      10.78163708
P        6.52322862       3.18260867       2.02398528
O        6.78991640       9.07949321       9.91585091
O        8.98872008       5.59965047       2.67142358
O        9.70022037       2.94757767      12.00086595
O        1.96460357       8.14227277      10.05480452
N        9.64055843       3.37084611       9.62462760
O        6.50960048       4.33328915       1.16799409
O        6.02199811       1.42474421      11.00657192
O        8.89049032       0.88394280      11.01780081
Li       4.02344021       8.99027412       4.54862695
Li       9.53309596       7.37721875       8.95487546
Li       5.33769697       3.12903054       7.68762777
Li       1.32170552       8.85575970       1.20900990
Li       7.25263370       5.86484707       2.13801146
P        1.66148038       9.93978156       6.42530007
P        6.15892491       7.87735109       9.32943227
O        7.52073349       3.49177851       7.70940409
N        0.12334007       9.52664811       6.34754943
O        2.65085278       8.75511415       6.93845635
O        6.58129363       7.41996911       7.91114580
O        5.23379660      10.13324196       5.79740310
O        2.36733725      10.50122873       5.13642167
124
Lattice="9.92562 0.0 0.0 0.0 10.6806 0.0 0.0 0.0 12.4552" Properties=species:S:1:pos:R:3 material=LiPON model=NEP89 temperature_K=1200 phase="NVT production" display_name="LiPON｜NEP89｜1200 K｜NVT production計算" report_figures="23_LiPON_lithium_MSD; 24_LiPON_transport_comparison; 25_LiPON_temperature_RDF" source_frame_index=2549 relative_time_ps=254.9 pbc="T T T"
Li       0.05656737       5.65394291       0.58240054
Li       0.64773852      10.35025601      12.00559268
Li       5.93587584       9.21042593       0.58372470
Li       5.23154928       6.33243085       0.68535355
Li       7.33760498       6.66079833       2.54625770
Li       2.16068728       1.40810896       9.95484892
P        2.75521181       5.38827716       0.07652971
P        4.91023456       5.90866691       5.03460786
N        0.61371179       2.05180948       2.67976991
O        7.75607340       0.57082660       2.40447127
O        3.22248946       5.31665724       1.51535596
O        5.23135118       1.72061424      11.11259156
O        4.07712995       5.09273955      11.59649003
O        5.02201614       4.51167745       4.42206514
O        9.57165409       7.29114953      11.62287084
O        1.50654644       4.59798925      12.02416154
Li       1.30731594       0.22632089       4.05460759
Li       7.76598171      10.28789943      11.11087140
Li       6.40652559       3.15487394       3.97010489
Li       4.20209179       3.10995810       5.06464815
Li       9.83573494       5.77907762       7.77349822
Li       1.91322137       6.90813097       7.31201113
P        2.88215204       4.09694235       7.83172297
P        1.21044486       2.86159919       4.01897056
O        3.44973967       6.17611518       5.27617756
O        3.16371017      10.39092074       3.15781949
O        1.69355417       4.95440924       7.19660870
O        5.41720599       1.73265144       4.81642606
O        3.86474434       5.03761764       8.57303674
O        0.93128367       1.99138389       5.26505694
O        9.05535983       9.53873699       6.03551621
O        3.59347356       3.31650239       6.72557540
Li       2.49977526       5.89647193       3.52948368
Li       2.64662546       0.74892630       1.91736271
Li       8.08496712       3.42786636       5.48374752
Li       5.80303731       5.43941468      11.12641279
Li       6.89030312       2.11366810      10.68992170
Li       3.88314059       3.81040398       2.29735939
P        8.49106448       9.99730649       1.87626085
P        1.04042246       7.59907101      10.87497837
O        0.65318663       7.29537274       5.76472750
O        5.79811705       3.36673932       2.17848559
O        7.58007946       8.72223846       2.18521024
O        7.49625096       3.16424295       0.40607276
O        8.86126422      10.19037708       0.37678446
O        1.21307411       9.17959129      10.78502276
O        5.58063087       5.91543116       6.50021011
O        9.77422900       9.74640505       2.62266287
Li       0.31762957       9.30365984       8.93811167
Li       3.17024801       9.93946094       9.79623643
Li       6.15298746       9.66886881       2.83120379
Li       7.25164000       8.76531955       6.58208455
Li       3.00374151       9.09516511      11.83425319
Li       4.88032393       1.38300478       2.73131950
P        3.00306958       8.96699203       2.39538309
P        9.84783180       8.33392403       6.56612788
O        2.07922268       6.88720623      11.97897842
O        2.37983327       3.22894424       9.00819745
O        2.22073895       9.28539899       1.08621698
O        6.79517165       8.95106327      11.28000017
O        4.40907045       8.24328744       1.81873281
O        9.22868223       7.91886483       7.85410108
O        0.20259178       2.09782894       1.49286552
O        2.40992649       7.82345731       3.28679694
Li       4.63688021       6.81440359       7.91204969
Li       8.18089612       6.95270304       9.76248097
Li       3.86133326       0.00461987       4.77290729
Li       4.84961164       1.60039991       7.83246919
Li       3.77571660       6.75005604      10.15967576
Li       1.97474734       5.03307687       5.41873845
P        9.28483407       5.23519082       3.64098123
P        4.40105962       1.10575283      12.25521729
O        7.93007078       1.26561917       4.96802805
O        0.39433941       1.21784993      10.43809587
O        5.79436481       7.06671319       4.38382278
N        0.57374307       4.31609692       4.01255288
O        3.46896284       0.13548561      11.46252217
O        8.52142969       4.31561583       2.52040230
O        8.63527606       5.21060952       5.01011584
Li       7.94524296       5.95767624       6.87537624
Li       8.37753055       8.86275926       4.04992819
Li       9.26576905       2.11067634      12.33638700
Li       6.77693105       1.65946516       0.62507339
Li       0.79566839       8.16820637       2.15352443
Li       8.76292264       1.72953006       3.57845149
P        7.73639929       4.01489491       8.90885783
P        6.48279291       0.56101863       5.28091355
O        3.53188966       2.07803697       0.70273808
O        2.93130157       0.11184674       8.00599798
O        6.44378994       3.83721356       9.77279439
O        2.70310616       3.05465110       3.81029569
N        9.10963419       3.14720831       8.83881855
O        6.23755678       0.64185726       6.83817134
O        4.38679570       8.02612022      11.21669871
O        8.39050260       5.34684570       8.92054298
Li       4.06826998       3.55498405      10.23261680
Li       1.77943936       4.81965012       9.94988832
Li       2.00301388       1.20177646       6.78535421
Li       6.76476997       0.00145107       8.46099535
Li       4.77790091       8.43953303       5.37272478
Li       0.51149108       3.15609750       6.70667813
P        9.39466963       1.51090547       9.18751281
P        7.07759518       4.13539064       1.43771149
O        5.30945170       9.50852438       9.44316382
O        9.65369319       6.59302825       3.10099384
O        8.26590332       0.49855684       9.21156570
O        1.15821174       6.73384499       9.68946355
N        8.17943456       2.63033949       9.58199993
O        6.96174186       5.60298109       0.74793365
O        5.31881619       0.20253278       0.68224990
O        0.23298854       1.30849815       7.84340220
Li       2.32165082       8.25068423       5.11332950
Li       9.08984591       0.53366454       6.60037248
Li       5.60593910       4.20245931       6.87154405
Li       1.68157425       3.21771685       0.68270741
Li       8.23501652       8.35226854       0.10308005
P        2.71539543       9.42204445       7.42543091
P        5.64967774       8.47671361      10.44217989
O        7.21771469       3.73350541       7.50776317
N        1.17469724       9.16939445       7.02394286
O        3.29865248       8.11871319       8.16780946
O        6.08390574       7.07406951       9.74124564
O        6.24644836       9.96035338       4.43278782
O        3.60700409       9.41879488       6.11481533
124
Lattice="9.92562 0.0 0.0 0.0 10.6806 0.0 0.0 0.0 12.4552" Properties=species:S:1:pos:R:3 material=LiPON model=NEP89 temperature_K=1200 phase="NVT production" display_name="LiPON｜NEP89｜1200 K｜NVT production計算" report_figures="23_LiPON_lithium_MSD; 24_LiPON_transport_comparison; 25_LiPON_temperature_RDF" source_frame_index=2579 relative_time_ps=257.9 pbc="T T T"
Li       8.81752625       5.84299789       0.72368870
Li       5.76783333       7.12153396       1.31711897
Li       0.07382575       0.66677913       1.91753431
Li       8.07372543       9.95570017       4.01323919
Li       6.85562113       8.71372931       6.84819958
Li       3.54951718       1.77123998       7.68005115
P        2.62196371       5.64625914       0.03917428
P        5.67388039       6.42871111       4.76516267
N        0.93914225       2.31374827       1.16747974
O        6.97889982      10.48216669       2.20458122
O        3.52521825       5.53618663       1.33576313
O        4.22378832       0.74172674      10.19128220
O        3.29398769       4.91912859      11.28841148
O        6.06338268       6.48337578       3.26750265
O        9.79430385       7.93612029      11.99227953
O        1.33459752       4.94109752       0.27041289
Li       1.12260110      10.64661503       4.15995669
Li       6.83020014       9.93446591      11.26905721
Li       2.34441879       0.06229975      10.20026926
Li       3.29831853       1.44528117       4.29831733
Li       0.50249497       5.48783113       6.34627091
Li       2.90839488       6.21723829       9.56990830
P        2.89352825       4.53018612       7.73816533
P        1.16628794       2.58369778       2.84274287
O        4.10938208       6.25986970       4.94876971
O        3.87446635      10.39189470       3.13672590
O        2.94757972       3.70158738       6.36711527
O        6.60863825      10.36128063       5.91367773
O        1.81538263       3.88869414       8.75368005
O        0.55802440       1.66376913       3.99448247
O        9.19207620       9.05258129       5.24632726
O        2.35049080       5.89679324       7.39761808
Li       6.65674170       3.80035341       4.38393857
Li       5.08813208      10.02503041       1.69366002
Li       7.90538948       4.88864674       6.07391462
Li       7.74796382       7.53712103      11.74481209
Li       7.22048123       2.74482400      11.50332084
Li       2.90264676       0.93248105       1.28535442
P        7.98646343       9.51149286       1.60941222
P        1.23957399       7.90572314      11.27616295
O        0.00714751       7.07961920       6.95581308
O        6.03285060       3.14597630       2.19564169
O        7.55354677       8.16054764       1.17160874
O        7.98271519       2.77148671       0.61532539
O        8.73818083      10.24221582       0.47678806
O        1.43500255       9.36943534      10.96169316
O        6.05314338       5.12904840       5.36225941
O        9.15070002       9.20214211       2.63309441
Li       0.25479854       9.21678293       9.20265512
Li       3.63865276       8.73751178      12.25204636
Li       5.34682751       9.29807661       4.42681781
Li       4.67675305      10.17902468       8.93674434
Li       6.00812254       5.58311299      11.93330102
Li       4.77031822       3.53547034       5.85157175
P        3.06647267       9.28386484       2.52298027
P        9.55010918       8.66802297       6.76376076
O        2.37928001       7.24400060      12.00699989
O        4.28270635       4.27739108       8.52000315
O        2.10076153       9.87805682       1.44551813
O        6.13867846       6.81562509      10.78019858
O        3.95672432       8.15459145       1.85408084
O        8.53074519       9.06200084       7.91160749
O        1.17917225       1.52517038       0.17635225
O        2.33253728       8.32625311       3.59243521
Li       4.53869974       6.89547505       6.88666959
Li       8.83920092       6.84421607       8.46334255
Li       2.89526399       7.87168466       5.11598146
Li       4.81730476       3.86854398      10.81730703
Li       2.27524831       3.01700784      10.67086766
Li       2.55456485       4.39304038       3.73150811
P        9.47726827       4.97247324       3.33675832
P        4.86792541       1.12224342      11.57539001
O        5.57405856       1.95754911       4.82400520
O        9.91977297       0.85360364      10.23430261
O        6.39031328       7.59528269       5.53449544
N        0.77269835       4.02077464       3.29003273
O        4.25724614       0.15505667       0.16636144
O        8.11086543       4.18725602       2.75046987
O        9.28095650       5.00047394       4.89553406
Li       6.44514463       5.58344379       8.16841836
Li       7.97616672       7.81372012       3.44449738
Li       0.18397328       8.02976380       1.42548650
Li       7.69015925       1.14470305       0.30954386
Li       3.52299405       6.82105896       2.98530327
Li       5.50936049       1.44025450       2.80712973
P        8.26413348       4.52217759       9.95959930
P        6.37864097       1.28007469       6.09844626
O        4.54962817       2.50934042      12.07510070
O        2.88128774       0.19697354       8.29888092
O        9.12989290       5.27694381      11.04094882
O        2.80806541       2.51283489       2.79108166
N        9.55019578       3.27622367       9.86960829
O        5.54049834       1.55577196       7.36445419
O        6.13680411       9.21677933       9.76983255
O        8.24549378       5.36527306       8.48018710
Li       0.92237257       5.23934263       9.97789435
Li       0.14096277      10.16919772      11.77027765
Li       1.38343400       2.69618972       6.58532308
Li       7.56737332      10.12780169       9.25222524
Li       1.42563800       7.50434415       8.07346962
Li       8.57749083       2.56293211       4.22740570
P        9.31555534       1.72152774       9.09132900
P        7.21963379       3.84723480       1.48252700
O        5.80063182       7.31506361       8.30715289
O        9.50595126       6.40060533       2.63391491
O        7.96196173       1.09606832       8.97454248
O        1.23725146       7.04166858       9.88537045
N        8.30657981       2.92065817       9.68601692
O        7.05630189       5.24834609       0.92523039
O        6.46719940       0.97388450      11.69117837
O        0.18862784       1.77304036       7.74310468
Li       0.60817070       8.25680939       3.78507117
Li       0.16367531       0.35652996       6.34080775
Li       6.79718025       2.43129272       9.01310322
Li       9.85884293       3.60382097      12.26980211
Li       4.27996332       3.78908435       1.07319801
P        2.53676893      10.22241459       7.01828375
P        5.50268798       7.77186980       9.72534844
O        6.81108015       4.35897034      10.34351891
N        0.99787688       9.50157169       7.13221069
O        3.07164884       8.76439786       6.79320712
O        4.06943677       8.03420367      10.02441151
O        7.64080053       2.06972456       6.18020760
O        2.47268817       0.36342221       5.72997755
124
Lattice="9.92562 0.0 0.0 0.0 10.6806 0.0 0.0 0.0 12.4552" Properties=species:S:1:pos:R:3 material=LiPON model=NEP89 temperature_K=1200 phase="NVT production" display_name="LiPON｜NEP89｜1200 K｜NVT production計算" report_figures="23_LiPON_lithium_MSD; 24_LiPON_transport_comparison; 25_LiPON_temperature_RDF" source_frame_index=2609 relative_time_ps=260.9 pbc="T T T"
Li       2.28043786       3.36969800       1.39858793
Li       2.44600118       6.38879042       2.93010968
Li       7.05043936       2.38118193       3.29240397
Li       1.00209392       9.33723709       0.54778236
Li       4.01395501       8.60733733       7.67395099
Li       5.03715065       0.20185031       7.68055818
P        2.37341796       5.37241512      12.30345251
P        4.75032723       6.76980569       5.33413634
N        1.07099011       1.90095850       2.01781286
O        9.55898089       8.18988969       1.79865809
O        2.18683779       5.24842439       1.38521565
O        5.49992292       2.56941904      11.40246880
O        3.82161794       5.05701214      11.83093599
O        5.43630027       8.15837004       5.13288438
O        0.24825616       7.36828082       9.85637634
O        1.33943516       4.77589086      11.44403292
Li       0.27376366       7.55118795       3.51369389
Li       6.85700942       3.18817494      12.39483500
Li       2.28041073       1.52668569       8.87043094
Li       0.36712621      10.25762244       2.55672407
Li       9.39821949       1.90877182       5.21371558
Li       4.26641128       7.01312754       9.87719717
P        3.07485759       4.40678666       8.16302876
P        1.21033142       1.85827901       3.76860442
O        3.47114724       7.04047709       6.34975980
O        4.01260566      10.12738956       2.71960906
O        3.54898620       4.08187308       6.60735404
O        7.71420828       0.54567728       6.21592724
O        3.34928725       3.08777575       8.96757073
O        0.22798031       0.66471427       4.03817738
O        0.79444884       8.64224395       4.88891510
O        1.60538950       4.75590459       7.99387960
Li       3.92315313       0.24957566       4.40434829
Li       5.72572287       8.91041004       3.44280462
Li       7.23168722       4.84383945       5.33234789
Li       6.79033407       8.91241148       6.44756636
Li       5.11605609       4.19166988       0.35295452
Li       3.36811080       0.74311982       1.72404089
P        8.38033048       8.87311728       1.08975233
P        1.48497525       8.00322849      10.55622424
O        0.74130942       7.23527163       7.22222180
O        7.75872826       2.74204467       1.74398558
O        8.23066740       7.92335261      12.32258856
O        8.85640605       4.86915926       0.82287458
O        7.20518578       8.66653002       2.08060016
O        0.96506323       9.44944122      10.81142785
O        4.27327141       5.98291591       4.02821831
O        8.47837057      10.36261542       0.73895743
Li       7.03758507       0.71565361      11.87195417
Li       5.93300205       8.82818413      12.42791828
Li       2.68434665       8.21469218       4.96290353
Li       6.90428253       6.63610354       0.29798085
Li       4.21669894      10.06938820       9.95237127
Li       0.41061281       3.26948058       7.51397332
P        3.54202852       8.83889040       2.00695263
P        0.11474589       8.46602449       6.34308491
O        2.04987981       7.08120139      12.00954618
O        3.85720525       5.48827845       8.83385592
O        2.91161764       9.41172545       0.76337565
O        7.98182569       9.09829389       9.25823177
O        4.64163427       7.84137747       1.45175058
O        8.60882483       8.15256138       6.06844356
O        1.61957341       1.60456949       0.91867922
O        2.39857420       8.23366861       2.82806321
Li       5.74555156       5.90737661       7.73045641
Li       5.71870668       3.34795025       7.09466462
Li       2.58795922       6.78603593       7.87873229
Li       4.86306726       4.04138781       9.93944883
Li       2.42486588       3.18517320      10.64226161
Li       1.62239122       6.12621475       5.93014053
P        9.84486984       4.65575285       3.98384697
P        4.58421000       1.63080612      12.27589181
O        5.15505082       1.52673287       6.16572622
O        0.90041011       2.21703887      10.13472958
O        5.84072754       5.74710648       5.95810514
N        0.46095451       3.24280800       3.95022790
O        3.53098996       0.99645693      11.39517542
O        8.32178482       4.61078264       3.44888949
O        9.88148191       4.70904720       5.45237112
Li       8.87293216       7.53708640       8.65910018
Li       4.89229239       6.34424108       2.33055981
Li       9.56251803       3.84241144      11.93344822
Li       9.08006015       1.79795658       1.02549859
Li       0.38522613       6.12701747       1.59710011
Li       6.89587603       0.03230241       1.94247339
P        7.88288206       4.54369721       9.26824999
P        6.55038381       1.45658911       5.43969543
O        4.07423283       2.47178989       1.05192242
O        2.86951898      10.42372763       8.16248583
O        7.77290011       5.30350654      10.56433137
O        2.72520461       1.80794614       4.03665024
N        9.23858199       3.72650475       9.65789838
O        7.32680238       2.82732293       5.47161875
O        5.96526004      10.58513302       9.63683675
O        8.50856468       5.37862205       8.22029815
Li       0.75354112       5.17410643       9.71990917
Li       8.99973961       9.43015528      10.82376648
Li       3.14335733       2.17749809       6.05271624
Li       0.59475012      10.26071172       9.05168114
Li       9.40216357       5.90759651       6.78879382
Li       3.64530514       3.71361136       3.21343300
P        9.37480507       1.95611475      10.08375669
P        7.82389870       4.40803190       1.81438636
O        5.96991638       8.63996455       8.09734216
O        0.67414236       5.78243512       3.28064741
O        8.71807390       1.66071857      11.45140515
O        2.69268116       8.09149027       9.69374197
N        8.39182190       2.85317102       9.13815394
O        6.39522561       4.98718928       1.59214789
O        5.42807455       0.54743307       0.60062694
O        9.24273175       0.89462215       9.03346019
Li       7.87943103       9.15863756       4.69781949
Li       8.40898848      10.17728120       7.82193198
Li       6.92037756       1.44868793       9.35152139
Li       1.44458960       0.78976946      11.47402870
Li       9.62584069       6.71052285      11.62152845
P        1.72507320      10.58707519       6.97680562
P        6.37479426       9.18580020       9.47985304
O        6.38032892       4.23203987       8.77099292
N        0.40029135       9.75462300       7.17741226
O        2.73153788      10.31407917       5.81278562
O        6.03505296       8.21846598      10.62936695
O        6.45846362       0.72034125       4.04667920
O        1.26557822       1.44743891       7.02882709
124
Lattice="9.92562 0.0 0.0 0.0 10.6806 0.0 0.0 0.0 12.4552" Properties=species:S:1:pos:R:3 material=LiPON model=NEP89 temperature_K=1200 phase="NVT production" display_name="LiPON｜NEP89｜1200 K｜NVT production計算" report_figures="23_LiPON_lithium_MSD; 24_LiPON_transport_comparison; 25_LiPON_temperature_RDF" source_frame_index=2639 relative_time_ps=263.9 pbc="T T T"
Li       3.59356808       1.76453001       1.40788369
Li       4.18271797       7.65039924       3.49490254
Li       7.09425470       1.72842084       0.29514062
Li       0.21172390       7.51914075       2.37181897
Li       1.88571519       6.59919414       8.23344561
Li       4.10732631      10.55834546       9.53629828
P        2.74645539       5.38473391      12.11105870
P        5.70812786       6.94539116       4.66437841
N        1.69465350       2.39582297       1.82274292
O        8.35011329      10.44084587       3.18943863
O        2.93820840       4.82365919       1.21027500
O        3.98716722       1.82846883      10.19483873
O        4.06626452       5.40374541      11.51738240
O        6.83782242       7.88675042       4.00690159
O        9.88730808       6.80902626       0.08733234
O        1.66016444       4.42593544      11.50622592
Li       8.17055438       7.38690620       5.25688993
Li       6.53210774       4.35756499      11.37615817
Li       2.77585998       3.30037053      10.62453491
Li       0.18869100       1.20679024       2.45429036
Li       9.84892006       1.96048317       5.71162900
Li       3.87723402       6.97769134      10.10091004
P        2.95712189       4.76888540       7.34512142
P        1.99291066       3.10882587       3.44082894
O        4.71400142       7.99903126       5.41926053
O        1.47418635       9.17501402       1.97308687
O        3.46136563       5.39955579       8.84401448
O        5.75740771       1.34713253       7.15766720
O        3.12603560       3.22956581       7.41319383
O        1.45591560       2.15372576       4.62009226
O        0.61811776       7.84846678       5.79902239
O        3.66981041       5.49569863       6.26123337
Li       4.92599530       9.41553866       7.04700435
Li       7.01010874       7.54243295       7.15808830
Li       7.64750117      10.46354386       4.87429622
Li       5.34280203       5.21745742       9.57769478
Li       5.02414365       4.68453772       1.51048670
Li       7.47209477       1.61344806       3.33098565
P        7.86434289      10.11935113       1.74212205
P        0.84431075       7.47679438      11.42058853
O        8.40487773       8.93710187       6.68517423
O        6.25120528       3.13763901       2.19159761
O        8.07224749       8.59765513       1.47002562
O        8.01894562       3.46835167       0.30625284
O        6.44375624      10.62802389       1.68109254
O        0.80410858       9.09342302      11.38103168
O        5.09478998       6.13819452       3.44541645
O        8.89470546       0.37035873       0.82228093
Li       7.17483609      10.34706345      10.39510787
Li       5.04517093      10.07432359       0.85417968
Li       1.98697135      10.55425019       4.94710943
Li       6.59451545       7.52529626       2.29831130
Li       4.24315775       7.00242470       7.30695418
Li       2.27708461       1.60392277       8.09858251
P        2.94040158       9.29971906       2.42444201
P        9.85575324       9.09804014       6.42775147
O        2.33887971       6.97291337      12.16334559
O        1.42557598       5.30924280       7.32524495
O        3.47326492       0.08485327       2.30241245
O        7.61196819       8.42242521       9.79601827
O        2.91115796       8.98809201       3.95474026
O        9.89584944      10.35063177       5.53938570
O        1.71470492       2.13146333       0.55872763
O        3.93531436       8.26676326       1.75591004
Li       5.25742898       4.53607255       6.88726714
Li       7.41951790       4.55770304       5.63810164
Li       9.70043460       4.27847137       6.57332189
Li       5.03856574       7.28386539       0.17084040
Li       3.12578222       8.88939280      11.40841086
Li       2.70664562       8.35655264       5.76925450
P        9.76073618       4.90704819       3.67027333
P        4.81410030       1.30051466      11.37061242
O        5.85575336       3.06694815       5.48754700
O        0.70239638       1.67453494      10.39571645
O        6.41316123       6.02176807       5.82910981
N        1.46065888       4.60608161       3.61535035
O        4.17860832       0.03083218      11.80621890
O        8.75181339       3.88888542       2.52383462
O        9.32877327       4.33848488       4.98127526
Li       8.75960178       6.94315217       9.20858355
Li       0.16138723       5.12598627      10.73178077
Li       2.33013288       0.87748135      11.48990446
Li       9.62853848       2.34632598       0.14441024
Li       1.17849971       4.43844009       1.62019117
Li       5.62403764       4.19011796       3.72636994
P        7.80611127       4.37463329       8.99729950
P        6.32698581       1.60801848       5.72725224
O        4.87141694       2.23333406       0.20372330
O        2.38083649      10.25841562       9.12873918
O        7.80374833       5.05627837      10.40304115
O        3.52731293       2.95858049       3.76528529
N        9.06057634       3.49405916       9.44693738
O        7.83719704       1.65344800       5.70430300
O        5.83801036       9.60284290       8.67770887
O        8.39654783       4.99189411       7.76912922
Li       1.10003628       4.13858541       8.91426576
Li       8.52624768       9.04858975      11.68565205
Li       3.51390644       1.54955075       5.72377647
Li       0.71863492       9.70944291       9.78854704
Li       1.38178092       5.99531324       5.46633030
Li       3.26866972       5.45656567       3.38588771
P        9.58520021       1.81182026       9.25717299
P        7.40715591       4.09943512       1.61336440
O        5.49562614       7.06934203       8.39859229
O        9.12366065       6.19010002       3.12743299
O        8.77604435       0.47277032       9.12296849
O        0.65611869       7.08446895       9.90928471
N        8.14360101       2.69266480       8.92936723
O        6.82765204       5.46105296       1.29480668
O        6.28030843       1.00460106      11.16471545
O        0.41054384       1.99187745       7.86879890
Li       5.15288219       9.57017489       3.75301366
Li       7.53184941      10.17577619       7.81403242
Li       6.26666328       1.56301109       8.91945685
Li       1.12568723      10.37635921       0.69038852
Li       8.37105553       6.85084011       1.14577033
P        2.38516664       9.64088030       7.76735013
P        6.06809520       8.22626170       9.48167521
O        6.27150327       4.39012227       8.57965646
N        0.75455487       9.50431982       7.70613007
O        2.88251582       8.13870807       7.83166352
O        5.08370046       8.04369198      10.80524719
O        5.70051170       0.75957703       4.64308291
O        2.96298060      10.62582143       6.75102273
124
Lattice="9.92562 0.0 0.0 0.0 10.6806 0.0 0.0 0.0 12.4552" Properties=species:S:1:pos:R:3 material=LiPON model=NEP89 temperature_K=1200 phase="NVT production" display_name="LiPON｜NEP89｜1200 K｜NVT production計算" report_figures="23_LiPON_lithium_MSD; 24_LiPON_transport_comparison; 25_LiPON_temperature_RDF" source_frame_index=2669 relative_time_ps=266.9 pbc="T T T"
Li       3.05499842       9.32371497      12.36157442
Li       4.93313977       7.34569149       7.32054034
Li       7.39903990       2.57585532      11.74019259
Li       2.58116917       5.63639793       2.34696389
Li       0.47060758       7.66748606       8.03001648
Li       3.44557735       1.67127096       7.52227716
P        2.50197359       5.27256673      11.51981478
P        6.23218365       7.18876019       5.40587293
N        1.24434021       2.20378854       1.82192169
O        9.02777138       8.98117141       2.76783639
O        4.01126956       5.46024548      11.46064051
O        3.50240762       1.60797271      10.62760123
O        2.10988720       4.01977242      10.83114083
O        7.00049394       6.90910351       6.75872857
O        9.65630339       7.78332607      12.32779103
O        2.02225204       5.48009831       0.50380389
Li       9.01865127       7.15837171       4.78955093
Li       9.34750037       5.57396259       0.31076281
Li       2.15403574       2.38488334       9.56484691
Li       7.77790471       9.94245658       4.59009742
Li       1.60149491       1.87389755       6.37155867
Li       2.72741835       6.86054881       8.90990360
P        2.80151415       4.44996874       7.20784760
P        1.90884082       2.95295503       3.55322477
O        5.15413133       8.25775559       5.60610618
O        1.93774576       8.69942611       1.86845575
O        1.86111016       5.49415622       7.73863364
O        7.13518039       0.46597392       6.31743535
O        2.12525366       3.12939221       7.71963322
O        1.70159986       1.81923329       4.57257797
O        0.82648014       8.25227105       4.92342231
O        4.12534249       4.97821221       7.87946667
Li       1.68300312      10.57383633       3.79964236
Li       8.14511050       7.21867690       9.14275726
Li       6.07037925       6.93017754       1.98676246
Li       4.69380035       3.66222538       9.22544545
Li       3.94225580       5.76082005       4.90156346
Li       5.54119304      10.35531028       3.39005034
P        7.89523275       9.66879032       1.78982843
P        0.71619161       7.95322753      11.09580391
O        8.71434186       8.64547416       6.55311420
O        6.59054214       3.19964821       2.01487951
O        6.89700429       8.60360130       1.41794343
O        8.78638147       3.95298016       1.13951288
O        7.47501342      10.47391728       2.93814596
O        1.49333411       9.31486305      11.37082938
O        7.26353829       7.39185084       4.23994484
O        8.14750389      10.29246997       0.38725927
Li       6.10950735       1.04851332       9.37283696
Li       5.08266201       7.05050071      12.04343573
Li       3.55571898       1.90182378       4.91441587
Li       5.52344048       4.57589363       0.18350139
Li       3.47630793       8.63163484       5.12348548
Li       5.21503393       4.29181592       6.48322761
P        3.29130612       8.27359485       2.48406320
P        0.04783491       9.21717048       5.92046777
O        1.82977727       6.53349626      10.88018840
O        2.83947144       4.50697809       5.64899463
O        3.89097466       9.53398055       3.02217467
O        6.99341731       8.54250651      10.58241042
O        2.91994569       7.27396881       3.64176730
O        9.68388159      10.50965828       5.27514867
O        1.10610171       1.21415397       1.10318924
O        4.24204565       7.35328985       1.53200618
Li       4.92123026       5.70418555       9.11072471
Li       7.34488578       5.16339144       6.10778676
Li       4.96030645       3.17466730       3.17307856
Li       5.68436221       9.65080199       0.45094290
Li       3.16117146      10.02380156      10.18164228
Li       5.25715281      10.09104247       6.76432145
P        9.48784584       4.83759557       3.96639484
P        4.47641147       1.62643274      11.80103213
O        7.50578995       2.81050812       5.87102556
O        0.60740003       1.62980236      10.22022405
O        5.72549166       5.66381265       5.20361328
N        0.59052804       3.65775099       3.95364960
O        6.04564014       1.71654670      11.35069590
O        7.95892591       4.78942288       3.33309164
O        9.33447841       5.02306579       5.45904710
Li       7.93273446       7.00813898      11.71978959
Li       2.06912618       2.63588803      12.35729882
Li       0.34117053      10.22539883       0.72321346
Li       9.82304504       2.94815724       0.03390121
Li       0.98473907       4.44628477       9.25191801
Li       7.56162444       1.81946757       3.60247119
P        7.94683100       4.42321940       9.93667219
P        6.35415738       1.74813473       6.03899739
O        4.30468723       0.34885860       0.31237188
O        2.56790534      10.51133722       8.31146990
O        6.41146719       4.30775189       9.95714175
O        3.22648108       3.56723655       3.21103101
N        8.18898038       2.74076655      10.07934789
O        5.76533478       1.69535483       4.51488121
O        5.90413867      10.03759006       8.80747199
O        8.59067714       5.20804034      11.12690320
Li       9.01337317       4.18330332       7.18963807
Li       8.08256037      10.39493770      10.73935242
Li       7.12464269       1.46520836       0.83282801
Li       9.80220854       9.63583899       9.08548776
Li       0.62769972       7.70260477       2.95369543
Li       1.64749737       6.45139496       4.68116816
P        9.47688496       1.81395759       9.26650184
P        7.47453985       4.33465076       1.77340829
O        5.62943975       7.31660943       9.02528505
O        0.13582877       5.99568283       3.23666374
O        8.63943674       0.54828103       9.12715000
O        9.85994397       7.85925657       9.75589950
N        9.06541826       3.37205685       9.27104586
O        6.85185834       5.49218577       1.04968848
O        3.97012280       2.81721343       0.25904233
O        9.85291643       2.20894319       7.84464645
Li       3.51939839       0.59572844       1.88461322
Li       8.97803174       1.65473415       6.35975441
Li       7.83401894       9.89383726       7.43203577
Li       0.58078241       4.56701992       1.67642010
Li       8.39974461       7.23378102       2.40169522
P        2.30280892       9.48099102       7.25849587
P        5.72889160       8.83743419       9.76862676
O        8.41235813       5.38523745       8.82141802
N        0.81588795       9.42947597       7.34276794
O        2.63585800       8.00748912       7.66542393
O        4.50534184       9.00877565      10.95432683
O        5.26559888       2.23105411       7.32146301
O        3.00377523      10.21743454       5.93853025
124
Lattice="9.92562 0.0 0.0 0.0 10.6806 0.0 0.0 0.0 12.4552" Properties=species:S:1:pos:R:3 material=LiPON model=NEP89 temperature_K=1200 phase="NVT production" display_name="LiPON｜NEP89｜1200 K｜NVT production計算" report_figures="23_LiPON_lithium_MSD; 24_LiPON_transport_comparison; 25_LiPON_temperature_RDF" source_frame_index=2699 relative_time_ps=269.9 pbc="T T T"
Li       3.95203636       9.71929896      10.23519150
Li       4.62025729       7.68148822       6.98327324
Li       6.58125578       1.53738207       0.81864534
Li       4.51928239       4.15019530       0.84338823
Li       1.35042882       3.02284279       6.68961159
Li       7.72549020       9.19400574       4.72055915
P        2.89957952       5.60453919      11.98356642
P        6.08287782       6.97662852       4.73540634
N        1.56160994       1.99380263       1.72150288
O        8.17197824      10.23372648       3.05379570
O        4.15049348       5.34411692      11.02260575
O        4.18189760       1.91884300      10.03378385
O        1.89156738       4.45047762      11.73293535
O        6.51085789       6.53763076       6.11147047
O        9.88115807       7.10415459      12.26149217
O        3.35442899       5.41945624       0.98145002
Li       9.84574771       6.33054112       7.77225785
Li       1.56801977       6.47416451       1.88095687
Li       2.16770824       2.40057074       9.08011070
Li       8.83920988       6.77731672       5.55262413
Li       9.75214061       1.30276541       6.35290521
Li       1.28700216       7.99737079       8.37879916
P        2.87785356       5.15864261       7.28428119
P        1.57364056       2.40150202       3.33402216
O        5.15212833       8.13718585       5.21904859
O        1.10913443       8.96364042       2.33147223
O        2.94892420       4.07636817       8.37759184
O        5.45489881       1.01949012       4.36736047
O        3.06526468       4.51671854       5.93951631
O        0.58737252       1.37893014       4.15788268
O        9.13853535       7.72887338       7.47282683
O        4.15709128       6.05324466       7.77270475
Li       1.53356145       6.47607370       5.43165258
Li       5.56244878      10.15186191       6.07597841
Li       6.35953491       4.40236559       3.82773193
Li       4.13971644       3.70406034       9.48186724
Li       3.05335588       4.71294608       4.14884914
Li       4.80039738       9.77081106       2.84345975
P        7.55539890      10.01856900       1.73977846
P        0.98445344       7.49594297      11.23115739
O        8.44052618       9.94629675       6.52400380
O        6.71517206       5.75997003       1.16056460
O        7.89123337       8.68155101       1.06471011
O        5.89458711       3.50973885       2.01322101
O        6.08807350      10.32732342       1.57044738
O        1.08006471       8.97030808      11.33610846
O        7.33527394       7.36945157       3.96367147
O        8.42761381       0.36748958       0.64895198
Li       4.62661340       0.85538832       7.91192087
Li       7.96043091       7.02297681       2.07786984
Li       1.14862488      10.37746663       4.70730453
Li       6.47383485       5.19107704      11.66574926
Li       3.59108284       0.59729828       4.50149800
Li       5.37862814       4.99904523       7.05535750
P        2.38098822       8.35209711       2.98333699
P        9.71902148       9.11777531       6.88219312
O        2.45781282       7.07904227      11.66383016
O        1.64313358       6.07220715       7.35964196
O        2.84030550       9.59114820       4.16705271
O        5.12829648       8.31590710      10.73409487
O        2.39648470       6.96689907       3.85434847
O        0.21214011       8.65362859       5.50854448
O        1.43410227       1.13712950       0.76528321
O        3.52564604       8.31232368       1.83273896
Li       4.72798193       6.61531938       9.90650986
Li       7.40915656       7.63877029       7.27358883
Li       4.01740402       2.88567950       5.62272451
Li       5.24430667       8.99118283       0.57867553
Li       1.66836183       0.21379648      10.91964481
Li       8.39590654       7.20609691       9.85860343
P        9.66613181       5.04140446       3.39021371
P        4.40752746       1.59551807      11.46800213
O        7.89206511       2.10465908       5.36473088
O        0.62401964       1.92774114      10.48744448
O        5.16245648       6.08414500       3.86120601
N        0.98955526       3.98775220       3.44389319
O        5.98344325       1.47250256      11.40758923
O        8.17478235       4.70685754       2.94375788
O        9.63730352       5.25792107       4.90993337
Li       9.66027627       4.42826777      12.19258097
Li       2.03676532       2.91735417       0.19945201
Li       9.46717417       8.13181851       3.16977869
Li       9.53911943       1.61016620      12.32523517
Li       1.26129438       5.26678198       9.75615064
Li       0.08899540      10.57298072       2.42898885
P        7.80234435       4.47701502       9.06325572
P        6.24767644       1.91577333       5.45836025
O        3.98087126       0.14386532      11.80957620
O        2.93298362       0.53754927       6.84365660
O        8.54143865       5.25350526       7.84897612
O        3.06527528       2.54798248       3.91529740
N        8.02262725       2.91719914       9.44821147
O        5.87098496       3.41393854       5.49857449
O        7.88393132       9.23800332      10.50114000
O        6.43310262       4.03673734       8.59964031
Li       8.59017508       3.54411306       6.09420688
Li       7.23078099       0.14067870      11.26866645
Li       8.35261405       1.14794727       3.93464965
Li       2.48641197      10.00427976       0.68840551
Li       4.21058446       6.75739774       2.24595582
Li       3.14433053       8.76241416       5.66753218
P        9.50067877       2.00041090       9.39201842
P        7.19192979       4.38090778       1.66013338
O        6.46964689       7.76892071       8.82012911
O        9.79736927       6.38334745       2.63694262
O        8.44938549       0.79059741       9.23671971
O        0.64401212       6.96142167       9.79410270
N        9.13951399       3.59924170       9.48611773
O        8.27979621       3.78248795       0.76601390
O        4.03675454       2.54589159       0.16829499
O        0.06392869       1.92484597       7.90602124
Li       4.81083530       2.14899302       2.54525714
Li       7.28342499       0.05325554       7.88987928
Li       9.15304510       9.86044448       9.32817621
Li       6.37680038       1.87163020       9.38034495
Li       9.36077618       9.25774465      12.29261206
P        2.27393699      10.21036300       7.79868049
P        6.32334381       8.92903650       9.87818290
O        7.81589906       5.37896113      10.35598694
N        0.75475002       9.84524427       7.81838587
O        2.57990354       0.08603134       9.18414052
O        5.67897827      10.25306698       9.18233519
O        5.97657437       1.14350777       6.73233366
O        2.94493829       8.89463613       7.49174667
124
Lattice="9.92562 0.0 0.0 0.0 10.6806 0.0 0.0 0.0 12.4552" Properties=species:S:1:pos:R:3 material=LiPON model=NEP89 temperature_K=1200 phase="NVT production" display_name="LiPON｜NEP89｜1200 K｜NVT production計算" report_figures="23_LiPON_lithium_MSD; 24_LiPON_transport_comparison; 25_LiPON_temperature_RDF" source_frame_index=2729 relative_time_ps=272.9 pbc="T T T"
Li       1.42875019       0.73214092      10.38152817
Li       5.33579351       4.68947743       7.53397852
Li       0.74250856       8.15829340       3.81270894
Li       4.86819128       4.06579931       0.68993674
Li       7.80632554       3.77156907       6.97353255
Li       5.14695670      10.61319662       7.18029293
P        2.70776413       5.56944561      12.09316488
P        5.41090574       6.18637851       5.14778542
N        1.38981446       1.86922072       1.44756582
O        8.20754755       9.67445982       2.85874901
O        2.91620543       4.93031601       0.98838249
O        3.56884285       2.29641294      10.77575422
O        3.97608978       5.16357112      11.21497196
O        6.20189657       5.17121640       6.05317013
O        0.38566149       7.71344073       0.59306184
O        1.43552844       4.94060330      11.31937720
Li       0.29146010       5.71855117       7.01772403
Li       2.28800382       6.96535873       1.51139696
Li       0.83103852       3.10461187       5.76300301
Li       4.21413773       6.60570436       2.21695519
Li       9.50981953       9.87255195       8.86745735
Li       2.71046039       7.74415968       7.84954955
P        2.82167530       4.95863194       7.57671017
P        1.52746495       2.72712172       2.89536001
O        4.63635454       6.88523820       6.21513928
O        1.89412629       9.72189985       2.72556071
O        2.75849169       4.67590548       6.03660419
O        4.93280975       1.88396375       5.00189218
O        1.59446655       4.65525358       8.28720677
O        0.32362421       2.00068024       3.72721707
O        1.65679286       7.73660136       5.85938521
O        3.70675814       6.10951216       8.17330810
Li       8.22347521       8.14910116       4.98248923
Li       2.56590056       6.36907801       5.20241843
Li       7.41126309       9.42753228       6.71169850
Li       4.43885296       3.81361489       9.89400030
Li       5.91611500       3.81066474       3.67796289
Li       8.68295957       3.03455056       4.36351696
P        7.28902363      10.04924716       1.76767995
P        1.42346544       8.10176116      11.86841798
O        9.18652326       8.05111846       6.49001196
O        7.12521422       5.96068158       1.23561478
O        5.89082453      10.57288796       2.27307191
O        6.89245418       3.39285011       1.42760060
O        7.96113615       0.47207259       0.98666218
O        1.70902961       9.49585249      12.00429358
O        6.38584730       7.31397430       4.50068593
O        7.14877567       8.90051577       0.63681848
Li       3.67474210       2.74958716       5.84008098
Li       3.81107442      10.37268452       1.23580902
Li       2.05579665       2.97433203      11.23585565
Li       6.17305858       6.14848640      11.37753800
Li       4.43838494       0.87775282       3.48580152
Li       6.45224198       1.48861553       1.22151809
P        3.10597035       8.88994461       2.96819391
P        0.49845858       8.82868333       5.99623425
O        2.83550860       7.26673652      12.09071061
O        3.77437475       3.69707405       7.92493179
O        2.60716172       7.40879305       3.28517678
O        5.41468616       7.78922129      10.24000290
O        4.08507494       8.66727792       1.82931721
O        0.19864016       9.76352420       4.82246064
O        1.28714048       1.85281567       0.13329163
O        3.74465452       9.52421330       4.29000589
Li       0.29988320       4.90098325       9.42843300
Li       7.70177358       6.38669322       6.28631880
Li       5.38702228       9.16006583       4.29892149
Li       8.83412470       0.20323739       3.99602029
Li       3.79323272       2.16206105       8.53650959
Li       8.53931722       7.71130143       8.34413604
P        9.80330657       5.13994395       3.44521120
P        4.50322839       1.52664823      11.90042897
O        7.28583963       2.27972209       5.36643509
O        0.59842564       2.39848344       9.76396299
O        4.58607133       5.31124921       4.11881428
N        1.23512261       4.44417158       2.96245370
O        5.95552604       1.67405525      11.46629891
O        8.53996933       4.36977025       2.96627110
O        9.87209884       5.01479892       4.99050445
Li       9.86763066       5.86177630      11.80722092
Li       2.65686985       4.62681730       4.00434133
Li       1.95132844       0.34912760       4.24079876
Li       9.06611061       7.68959507      11.06286071
Li       9.90080940       3.20743913      12.01836174
Li       8.78951829       2.00182710       1.67730476
P        7.62483486       5.01750354       9.24271383
P        6.12843027       1.39102618       5.88114797
O        4.31779791      10.54637133      11.69446883
O        2.50793198       1.15657097       6.30466850
O        6.04965806       5.07209986       9.09448205
O        2.89566519       2.29584066       3.26451413
N        8.62733985       3.83370597       9.73841626
O        5.51138325       1.83702974       7.27917247
O        7.79860358       8.86429396       9.85198212
O        8.02315310       5.81894342      10.59908748
Li       6.72335695       6.91917026       2.81902499
Li       4.25660935      10.48372575       9.84182639
Li       0.09961681       0.48460637       6.30056333
Li       3.98255951       6.70618263      10.06155185
Li       3.56639564       8.33369457       5.81496472
Li       5.36898277       7.06547260       8.06550408
P        9.35497306       2.28945217       8.88267719
P        7.77814619       4.62985115       1.45229957
O        6.51841517       8.10953375       7.76864853
O        9.58586116       6.64772423       3.16493141
O        8.90564772       0.88658759       9.23919854
O        0.90860092       7.69350140      10.50850583
N        7.83886333       3.36915568       8.89038744
O        9.04757011       4.71977761       0.51433333
O        4.50382503       2.23886633       0.82070745
O        9.57316664       2.45048558       7.34775767
Li       7.61423517       0.53073196      10.72144923
Li       5.59788695       8.65876085      11.98606305
Li       0.23453240       0.12109333       1.36237240
Li       6.47992614       1.81847825       9.34301457
Li       8.48659955       7.36695359       0.86679112
P        2.43505495      10.57644160       7.28514809
P        6.27250979       8.77875736       9.22985723
O        8.25111557       5.85217348       8.08065444
N        1.05099225       9.83333575       6.99962147
O        2.48921419       0.59855298       8.63662042
O        5.91073573      10.26279000       8.88340278
O        6.26063986      10.54159612       5.66130803
O        3.73062082       9.54056624       7.16103613
124
Lattice="9.92562 0.0 0.0 0.0 10.6806 0.0 0.0 0.0 12.4552" Properties=species:S:1:pos:R:3 material=LiPON model=NEP89 temperature_K=1200 phase="NVT production" display_name="LiPON｜NEP89｜1200 K｜NVT production計算" report_figures="23_LiPON_lithium_MSD; 24_LiPON_transport_comparison; 25_LiPON_temperature_RDF" source_frame_index=2759 relative_time_ps=275.9 pbc="T T T"
Li       1.81184408       3.06394179      12.32108483
Li       4.44165835       6.15610683       9.27032124
Li       0.92777757       6.05730899       5.68967823
Li       0.16655925       4.77333235       0.90534953
Li       7.87954725       3.61746737       6.67477194
Li       3.51802911       7.36381578       5.46647386
P        2.96942660       5.97422914      12.01682456
P        5.85436383       6.64633225       4.92058329
N        1.02895651       2.14682404       1.43833752
O        8.32169354       9.31074954       2.28020310
O        3.11707026       5.77256940       1.09205422
O        4.48065805       2.02667208       9.64736195
O        4.21729558       5.67724468      11.11325422
O        6.55985054       5.50994467       5.68974437
O        0.16087801       7.40986519       0.23172584
O        1.84719641       5.00985131      11.68813238
Li       8.54984378       6.36523790       6.66990288
Li       4.11235510       4.13209491      10.57998463
Li       0.18738566       2.86569324       5.31086227
Li       2.07203989       7.27004709       1.31853030
Li       7.96204865      10.01308762       9.07161600
Li       1.30678067       7.44753413       8.10593465
P        2.66382442       4.86478285       7.08413078
P        1.77472236       2.75975568       2.89500579
O        5.39070120       7.83213225       5.86329922
O        2.01917512       9.75891310       1.89586812
O        2.74998202       5.46121895       5.61806993
O        6.01964723       2.82639083       6.81426339
O        1.44705165       5.52888282       7.87191079
O        1.35670940       1.80602637       4.09710004
O        0.22842683       7.54980470       6.33079224
O        4.10260575       5.02742817       7.95312702
Li       8.24291696       8.99981284       3.98682448
Li       4.76093791       7.70630211       7.53939910
Li       6.71654490       8.29744982       7.31606632
Li       8.55880632       6.59641731      12.29452154
Li       4.99214796       0.66212994       3.47364477
Li       8.13192114       0.31815235       6.25802691
P        7.64796936      10.54517591       1.41322091
P        0.80298734       7.89755841      11.38203391
O        8.44465156       9.01601382       7.17666205
O        7.67710574       6.36720590       1.29113704
O        7.58556055       1.37609960       1.87888348
O        6.08655015       4.26983496       1.82388544
O        8.35155139      10.60763842      12.44032689
O        0.65710969       9.38740884      11.24955646
O        6.74457311       7.42137489       3.91431089
O        6.22132595      10.27482346       1.53369713
Li       5.59318262       3.94774834       3.97841043
Li       0.57149571       9.59696292       9.38940216
Li       3.86297713       2.97256081       5.29178403
Li       5.64426740       6.65072419      12.09432677
Li       2.87431793       0.94438430       0.74532832
Li       5.72334801       2.21674348       1.13540643
P        3.12963431       8.87432435       2.57657291
P        9.84600859       9.11948792       6.61868790
O        2.49172800       7.43860523      11.41443575
O        2.72366679       3.41651109       6.94805730
O        2.51826234       7.66860056       3.48196067
O        4.91616454       8.53474147      11.16699742
O        4.21072118       8.42913031       1.62105375
O        0.05452891       9.87928101       5.24076477
O        1.12658903       1.11528066       0.71088944
O        3.99423899       9.81140529       3.39138553
Li       0.18702077       4.08443689       7.51355412
Li       5.76815192       5.40884439       7.36244641
Li       6.20007399       8.01790931       2.22208415
Li       6.91048813       2.04357864       3.47244993
Li       5.34553756       3.54181477       8.39834411
Li       8.75234247       6.90698556       9.51262047
P        9.68149506       5.02167570       3.73778506
P        4.41029284       1.69918722      11.17254278
O        7.79228140       2.00189527       5.29814039
O        0.97919798       2.47133336       9.63188150
O        4.84126605       5.90339025       3.80622924
N        0.99607257       4.14741829       3.12029651
O        5.66966957       1.15138109      11.80137674
O        8.27123236       4.49426568       3.14837208
O        9.55689632       4.69804667       5.37032631
Li       9.12487330       2.24656658       0.82011499
Li       2.97214447       5.52007517       3.59499287
Li       2.90346077       1.66721366       8.72088129
Li       8.53145568       8.90139604      12.34045250
Li       0.95653311       5.14719460      10.19013781
Li       1.41924067       8.59294955       5.05368573
P        7.82224930       4.55157201       9.65117421
P        6.32393986       1.68568056       5.74841755
O        3.29312747       0.74904361      11.34039832
O        3.05962882       9.06978102       6.01355391
O        6.33398260       4.06749162       9.97645939
O        3.30215285       2.88843671       2.43927259
N        8.05831888       2.93019363       9.14339379
O        5.97482359       0.29845554       6.33981597
O        7.52233283       8.16088906      11.02011439
O        8.30227792       5.29374760      10.91001397
Li       9.64408368       7.53051502       1.85910451
Li       5.24457759      10.49294463       7.90087609
Li       1.38915946       0.82010328       5.87401902
Li       4.27933137       4.31570703       1.59814858
Li       4.73730604       9.59712703       5.36598444
Li       3.67623276       9.40585032      10.04146655
P        9.61646313       2.00063948       8.92704905
P        7.51473191       4.90139036       1.65614608
O        5.86035061       7.47991736       8.98445186
O        9.83408878       6.41829744       3.34085281
O        9.00691372       0.78289018       9.77121477
O        0.58498218       6.99910554      10.19662095
N        9.08450628       3.35976342       9.77901988
O        8.38545447       3.78656475       0.79200792
O        4.05176864       2.88929098      12.17822103
O        9.74108256       1.78519458       7.40160980
Li       7.28462427       0.37305630      10.99476292
Li       4.98763186       9.81400147      12.35992332
Li       0.38974564       0.46991919      11.22980613
Li       5.98404605       3.64561996      11.62333490
Li       9.61183665       0.21200717       3.82088259
P        2.70600850       9.56512811       7.46870467
P        6.15594970       8.46980314      10.19653077
O        8.18046144       5.33784118       8.33545545
N        1.09156056       9.74062996       7.46918542
O        3.52933709       0.23724159       7.81690127
O        6.26308583       9.81273402       9.64579995
O        5.36373627       2.26963223       4.56831062
O        3.31194815       8.47258477       8.34913597
124
Lattice="9.92562 0.0 0.0 0.0 10.6806 0.0 0.0 0.0 12.4552" Properties=species:S:1:pos:R:3 material=LiPON model=NEP89 temperature_K=1200 phase="NVT production" display_name="LiPON｜NEP89｜1200 K｜NVT production計算" report_figures="23_LiPON_lithium_MSD; 24_LiPON_transport_comparison; 25_LiPON_temperature_RDF" source_frame_index=2789 relative_time_ps=278.9 pbc="T T T"
Li       2.54418624       2.24996319      10.19313644
Li       4.66171530       7.64658278       7.33193893
Li       2.78144078       6.89371817       5.55494989
Li       1.99312279       2.02510993       0.05532231
Li       9.07911167       3.03456107       6.14721770
Li       4.57043479       0.74822114       8.58446087
P        2.53752466       5.31733517      12.18725666
P        6.41965404       8.01252786       5.34045871
N        0.95951911       1.45605711       1.65019719
O        9.05176607       9.33069606       1.94772302
O        3.05289238       5.08684487       1.14069307
O        4.15308845       2.61238835      10.97899251
O        3.81594140       5.29752271      11.38387622
O        7.63550292       7.03609376       5.38552548
O        9.53343748       7.29723170      12.26149278
O        1.44381500       4.39225841      11.82284594
Li       7.24248027       4.30313772       4.69866261
Li       6.86151524      10.38634795       5.32321774
Li       4.07671314       3.60487202       2.08896836
Li       1.63100279       6.47088690       1.86688639
Li       7.33598440      10.26915375       7.82371386
Li       1.38870958       7.31084157       7.84856766
P        2.69637852       4.89714380       7.75498951
P        1.31869842       2.34330021       3.08527334
O        6.52749092       8.90078675       3.99017634
O        1.58982207       8.29609205       2.07043925
O        3.47772323       6.20806708       8.33188343
O        5.22073386       2.26288753       7.39935952
O        1.06260508       5.27288844       7.71006117
O        0.94349794       1.76290729       4.44066555
O        0.36401269       7.42755503       5.80830229
O        2.75821287       3.65195005       8.70580853
Li       0.80055229       0.42651058       5.63251605
Li       7.27155504       7.36344514       7.57385477
Li       8.94122425       0.24808279       3.85901816
Li       7.82097930       6.83205111      12.05051274
Li       4.92151330       9.38884674       0.06128086
Li       9.05213655       5.91153819       6.63236598
P        7.85149001      10.23315401       1.45958573
P        0.67011531       7.63630132      11.20703094
O        8.84138913       8.54678068       7.67387472
O        6.91875099       6.31358033       1.33362390
O        7.55599657       0.67642896       2.43635016
O        5.76226905       4.17100779       2.43420606
O        8.39309742       0.17153552      12.40575566
O        0.93083000       9.13044421      11.00305877
O        5.28543424       6.80671869       5.61006203
O        6.55024437       9.35352777       1.29130223
Li       4.66108236       6.40559188       4.08601046
Li       9.40079032       9.14138076       9.36169760
Li       5.43219354       4.89273291       6.60993624
Li       8.52881799       9.25582454      11.67608898
Li       7.11154810       0.02911729      10.54367479
Li       6.89527227       1.78027996       0.66206357
P        2.96348040       8.32977792       2.74152783
P        9.76691419       8.69615073       6.51923505
O        2.01672463       6.81286812      12.05006947
O        3.10939170       4.86094642       6.31470920
O        3.33483790       7.40245901       3.85301787
O        4.81599572       8.29077521      10.84861677
O        4.15683528       8.01302375       1.57372183
O        9.32003000       9.72515846       5.34094636
O        1.46716760       0.58851839       0.92417577
O        3.43164940       9.87435673       3.07040896
Li       4.19795948       4.10237805       4.98046528
Li       3.27307678       7.44601599       9.78712295
Li       5.01496360       6.69594153       0.86544890
Li       6.15370928       2.45954136       3.33476946
Li       6.59750297       1.90367837       9.72187412
Li       8.50426206       6.80612915       9.80055157
P        9.53525235       4.82475576       3.37939001
P        4.64421405       1.54416514      11.98568348
O        5.72815426       3.43544197       5.16940356
O        0.21234759       2.06321995       7.64877119
O        6.58085312       9.19237700       6.52336929
N        0.62812562       3.71956527       2.78517521
O        6.00394112       1.12845515      11.40972858
O        8.10453195       4.52502545       2.81496539
O        9.25591323       4.54039369       4.82666149
Li       3.75109273       0.59860116       1.94155434
Li       5.34583491       3.82273024      11.46339820
Li       1.53581233      10.41588059      10.14641492
Li       8.91787431       7.24898409       1.94677347
Li       0.48535162       4.93491770       9.66991057
Li       1.25220480       5.00001093       5.72394990
P        7.64712210       4.32348470       9.35044232
P        6.07017555       2.24315584       6.00945761
O        3.77212633       0.26951707      12.06400984
O        3.37748318       8.81852688       6.71754337
O        7.64500844       5.03268121       7.97111742
O        2.94929732       2.64101222       3.25399198
N        8.10577934       2.62465945       9.54956136
O        7.66212771       1.85804597       6.01703450
O        7.53887542       8.41709291      10.45810251
O        6.13915014       3.76958948       9.57044430
Li       6.24419513       7.83239175       2.28768145
Li       3.60684575       1.27992831       4.71068942
Li       2.06346065       2.14810441       7.82618033
Li       5.27084215       6.03366440      10.00027890
Li       3.57703199       9.10703585       4.70852023
Li       3.95589392       9.98451307      10.35554786
P        9.47795311       1.74105159       9.10576304
P        6.95823464       4.79785606       1.66167421
O        5.83734216       7.41018071       8.77913506
O        9.88846431       6.18999961       2.85972137
O        0.64019879       1.56479460      10.14803329
O        0.45519769       6.81182544       9.82295554
N        9.13949624       3.41011447       9.33958251
O        7.44581144       3.78753368       0.47470697
O        4.68644566       2.11858391       1.05238225
O        8.55446068       0.38000887       9.12031116
Li       9.55086722       3.22133808       1.10179106
Li       5.79629578      10.16658257       2.80207712
Li       0.80582512       9.33777101       0.87995068
Li       4.61567334       3.86266588       8.90510219
Li       9.19744274       8.27020783       4.19722211
P        2.53736265       9.88626762       7.32933664
P        6.05753196       8.56908108       9.80755367
O        7.99658699       5.28871707      10.39424887
N        1.02146852       9.67394359       7.17088156
O        2.70297531       0.61988243       6.54879320
O        5.82747596       9.98695428       9.39200093
O        5.36519182       1.02098127       5.13543876
O        3.05443223      10.03720042       8.86280959
124
Lattice="9.92562 0.0 0.0 0.0 10.6806 0.0 0.0 0.0 12.4552" Properties=species:S:1:pos:R:3 material=LiPON model=NEP89 temperature_K=1200 phase="NVT production" display_name="LiPON｜NEP89｜1200 K｜NVT production計算" report_figures="23_LiPON_lithium_MSD; 24_LiPON_transport_comparison; 25_LiPON_temperature_RDF" source_frame_index=2819 relative_time_ps=281.9 pbc="T T T"
Li       4.75155545       2.98907179       8.34223883
Li       4.82161527       8.14724263       7.09048190
Li       1.26653956       5.78487698       5.61603245
Li       6.43485558       2.14806543       0.33622387
Li       0.06033581       8.92319341       3.32540771
Li       4.43809510      10.05177228       5.03326308
P        2.67796940       5.90994815      12.03828439
P        4.97583564       6.73955909       4.98817124
N        0.72389202       2.22511641       2.90597443
O        8.97384371       9.09225706       1.75636953
O        2.54666586       5.74505495       1.09188456
O        2.80554467       1.87117080      11.60077833
O        3.96740170       5.46173695      11.58876981
O        5.54275077       6.15246183       6.23011482
O        9.87210582       7.41414054      12.00752507
O        1.66181858       5.04540674      11.28369639
Li       9.77864858       0.32351454       1.67886202
Li       1.93885127      10.22269836       4.00089700
Li       4.29869828       3.76481553       1.71589155
Li       8.89085343       2.28417208       0.73530795
Li       7.76134166      10.47160975       8.15146715
Li       2.28782143       7.10062631       8.31264465
P        2.82374167       4.53639929       8.07449298
P        1.33245911       3.15071796       4.19632691
O        5.26860103       8.23007953       5.32563686
O        2.16072768       9.84825835       1.17368997
O        3.51530100       5.86479603       8.49541401
O        7.98625200       1.42474348       5.96606785
O        1.41630140       4.74915955       7.49002201
O        0.82898316       2.55311179       5.52226086
O        0.74399853       7.87717725       5.64140681
O        3.06622387       3.56405470       9.21198800
Li       6.93251273       7.05770255       2.70649472
Li       7.02481759       6.51424572       7.26131838
Li       8.81950740       8.90762109      11.67913267
Li       7.41451506       6.43513000       0.02075303
Li       5.56720443       9.02406316      12.42393162
Li       9.05948854       7.38542270       9.90802121
P        7.42454894       9.41059539       1.51563041
P        1.04107857       7.77164134      10.98907399
O        8.64358087       9.12133407       6.83434850
O        6.43341318       4.77324565       1.02905345
O        6.84115992      10.02390957       2.75975043
O        7.50358510       2.33371387       1.90102827
O        7.23009735      10.37823382       0.23295683
O        0.92548656       9.37094107      11.08667596
O        5.55805798       6.09781793       3.71966855
O        6.65292537       7.95362473       1.18802884
Li       0.61071933       8.14672819       1.40571031
Li       9.65842593       1.47962699       6.54631689
Li       6.58796578       4.83096313       4.64752504
Li       2.34556992      10.00063652      11.76649520
Li       7.11533666       0.34209996      10.82484576
Li       8.99945656       2.17825956       4.44783896
P        2.84780401       8.89065368       2.21458927
P        0.07406188       9.26399705       6.06945542
O        2.59259832       7.36534116      11.37955985
O        3.72449843       3.91285519       7.04631621
O        1.77680171       7.89980555       2.87534443
O        5.69662203       7.88657813      10.79808159
O        4.08986888       8.09721050       1.61935408
O        9.77912973      10.23599251       4.96490715
O        0.62325512       2.14001191       1.64850810
O        3.41558108       9.95260151       3.14423467
Li       4.15900939       4.11395125       5.18806698
Li       5.03987576       5.84420146       9.37143099
Li       4.08050643       6.41400689       2.42083342
Li       6.46930712       1.11143799       3.15918544
Li       6.25608926       1.82435940       9.28544329
Li       0.02544176       9.38110848       8.83515656
P        9.34746284       5.14788674       3.92981016
P        4.22002344       1.61566639      11.99259156
O        5.91500553       1.65701089       7.50370722
O        0.37018259       2.35946085       8.80986741
O        3.43066417       6.36416700       4.99434246
N        0.90033588       4.69075732       4.14576765
O        5.27315563       2.41041655      11.08330595
O        7.94503863       4.25132279       3.36398960
O        8.76446034       5.35631907       5.38804436
Li       3.07847039       0.83877583       2.05639241
Li       5.71603951       4.60544404      11.34103552
Li       5.02946241       6.88201266       0.03129646
Li       1.76025128       6.01303793       3.18731208
Li       0.80291460       4.92782112       9.63887860
Li       0.22197097       6.44184121       7.39420540
P        7.60740753       4.86184647       9.34475486
P        6.45786910       1.69401815       5.97870117
O        4.47952489       0.04923708      11.67712207
O        3.10846793       8.95700386       7.82833846
O        8.19144933       5.90403842       8.40012618
O        2.92383366       2.96478349       3.99877818
N        8.00416173       3.31842694       9.67074983
O        6.27466845       3.10827614       5.33613301
O        7.98155610       8.69591479       9.82842542
O        6.23318775       4.38974728       8.90224880
Li       6.84114391       9.66978007       4.97798214
Li       3.96584157       1.30211234       5.03507163
Li       1.44749846       2.75658553       7.17534319
Li       5.72855406       4.34252887       6.87824230
Li       2.51634068       7.92575607       4.73651579
Li       1.54929539       3.08726166      12.09309374
P        9.39083203       2.39287219       9.99934570
P        7.61262384       3.99468211       1.80972369
O        6.16836144       8.01524017       8.41044232
O        9.21750588       6.58202529       3.20905593
O        9.71920217       2.56600234      11.46928644
O        0.81767789       7.42353053       9.46084027
N        9.07935434       4.07781469       9.60659395
O        8.96547323       4.49085771       1.10232843
O        4.72263725       1.98927805       0.93679336
O        8.60368419       1.00004489       9.86174900
Li       0.12081485       5.73781150      12.38022103
Li       5.30764861       8.96048595       3.18671198
Li       2.35984663       1.29712071       9.84824965
Li       3.91918075       8.59632001      10.06092434
Li       5.04633030       0.09471009       8.00923278
P        2.41037605      10.19926255       7.21491555
P        6.42678919       8.75845989       9.66313342
O        7.19629726       5.65055595      10.68546267
N        0.84929101      10.20872118       7.20243335
O        2.89478531      10.52367638       5.71653893
O        5.87509742      10.14962133       9.47692429
O        5.77676667       0.53197826       5.16293097
O        2.75014375       0.77395347       8.22663984
124
Lattice="9.92562 0.0 0.0 0.0 10.6806 0.0 0.0 0.0 12.4552" Properties=species:S:1:pos:R:3 material=LiPON model=NEP89 temperature_K=1200 phase="NVT production" display_name="LiPON｜NEP89｜1200 K｜NVT production計算" report_figures="23_LiPON_lithium_MSD; 24_LiPON_transport_comparison; 25_LiPON_temperature_RDF" source_frame_index=2849 relative_time_ps=284.9 pbc="T T T"
Li       1.57648473       3.60197096      11.81064579
Li       5.50325356       4.71478665       6.81428666
Li       9.22471675       2.89252355       6.46475421
Li       5.88890750       2.81562021       0.15804232
Li       8.80053739       8.21459504       4.45263321
Li       5.34512049      10.59229598       7.17651999
P        3.28359034       6.09023000      11.99700680
P        5.73879091       7.21973915       4.70440461
N        0.69429134       2.27117926       3.23100525
O        8.60761161       9.35610730       2.53751819
O        2.84613720       6.09741560       1.08535233
O        3.99093398      10.34193442      11.73238442
O        4.80196648       6.34771091      11.93670930
O        5.91640226       5.99616770       5.67138068
O        9.87605005       7.24333348      12.26298433
O        3.09992784       4.69384845      11.18924323
Li       0.28035558       9.43212907       3.23536902
Li       0.82431011       0.51550768      10.45367810
Li       1.65558742       6.26345387       5.52097462
Li       8.19053938       1.16997647       0.01433809
Li       8.14293584       0.47545966       8.10011447
Li       1.65463203       7.81718776       8.53792501
P        2.80880745       5.13575862       7.68664113
P        1.55384248       3.09542607       4.29685330
O        4.66704720       8.21104979       5.40290983
O        1.96733088       9.51797926       1.51933569
O        3.25108434       6.64985397       8.19007670
O        7.17709864       3.09589352       5.62709855
O        3.38448972       5.23354683       6.22419258
O        1.35598459       2.06057053       5.36769409
O        1.52085150       8.01932113       6.24814448
O        1.25275761       5.21004703       7.57551466
Li       6.00758621       7.35363702       2.26860737
Li       7.24156730       4.86880224       5.11208693
Li       8.34984695       9.98952736      11.12235173
Li       1.35320923       7.46828483       1.53001912
Li       5.48806111       9.39405853       0.35766773
Li       7.76884728       7.10727570      11.66521286
P        8.03140713       9.66251126       1.12272010
P        0.73796121       7.59468211      10.98704838
O        8.98432467       8.19596801       6.90423406
O        7.63722251       5.20263110       0.84582485
O        7.04945192       0.10310367       1.28644285
O        7.57914584       2.87942267       1.36253181
O        9.17816861      10.13225005       0.22081271
O        0.41970793       9.11604252      10.95038590
O        6.99453975       8.02445701       4.55207909
O        7.27713155       8.39993126       0.58679242
Li       8.62667346       7.33059586       1.61298437
Li       9.90453890       9.28852611       9.32078271
Li       7.30364700       1.81519845       2.85507392
Li       1.38694878       9.88748391      12.24177456
Li       3.16540292       8.94441683      10.83830778
Li       5.25065562       0.05902357       2.04612873
P        3.06651827       9.21603140       2.53174947
P        0.28400449       8.94076397       6.44361011
O        2.28079209       7.31396498      11.33774758
O        3.15943291       3.85653834       8.33221305
O        2.65285640       7.86931985       3.39672795
O        6.05176071       9.08368439      10.90291341
O        4.43286692       9.12312179       1.85325849
O        0.08033016       9.76457115       5.08491985
O        9.88927784       1.29352585       2.97761406
O        3.36297607      10.36729750       3.52783225
Li       4.14018710       8.27421438       7.59712712
Li       4.44488143       3.68150317      10.23693346
Li       3.35388229       6.13736062       3.11378104
Li       1.80402740       0.68132775       2.70308843
Li       2.62128657       2.35915586      10.08632684
Li       8.64705452       7.20290999       8.71096613
P        9.75572918       5.36191836       3.78041066
P        3.72155448       1.19982161      12.00261685
O        5.05251314       1.88802713       6.48802853
O        0.43032844       3.30650380      10.26910048
O        5.28905536       6.43527602       3.45681744
N        1.15197342       4.74337497       4.45904459
O        4.46355690       1.97560938      10.80749233
O        8.87400856       4.12400471       3.01851226
O        8.85872047       5.97682974       5.01060797
Li       3.89505095       1.41875677       5.08646699
Li       0.90405764       5.14630788       1.30858749
Li       6.44473907       5.52121581      11.84545985
Li       9.62116662       6.08607756       7.05603242
Li       1.55197519       5.01045736       9.92435323
Li       4.37055990       4.21439159       4.67083557
P        7.20908621       4.72508975       8.99692230
P        6.40065365       1.71774401       5.67512987
O        4.27214574       1.84633576       0.89669719
O        2.71912649       9.34964330       8.92853691
O        8.19520913       5.51663448       7.94368487
O        3.15751362       2.95369136       3.83303468
N        7.63168033       3.03335929       9.21863841
O        5.93596772       1.28830017       4.18071397
O        8.12820686       9.18702696       9.38416030
O        5.86277674       4.18777044       8.48579900
Li       8.60445853       0.61640671       4.82060791
Li       4.11313402       1.77853266       2.79678414
Li       1.69595910       2.36703321       7.57714031
Li       4.70425511       2.59007590       8.06155288
Li       3.11543227       9.03055863       5.22037416
Li       0.46939856       1.90714982       0.73621063
P        9.24529525       2.53703601       9.69143857
P        8.53668516       4.13817608       1.48585245
O        5.96860205       7.92542079       8.58858826
O        0.19261511       6.15478815       2.58352704
O        8.97352417       1.21024693      10.35935793
O        0.44745106       6.99339640       9.66146756
N        8.25419817       3.80827797      10.00602218
O        9.65409611       4.01003930       0.52445318
O        2.11037965       1.50242680      12.08610689
O        9.34538197       2.31147238       8.19644902
Li       9.52642875       5.03854162      11.10219129
Li       6.56557640      10.01998450       4.46673022
Li       5.34396701       0.37687328      10.29858266
Li       4.84429818       6.91467153       9.99392008
Li       7.46476914       7.10324014       6.59159411
P        2.33398424      10.38103316       7.94010364
P        6.46859100       9.14331307       9.40209650
O        7.07866472       5.64415435      10.13652738
N        0.77737952      10.06439597       7.66797955
O        3.43467523      10.41449396       6.83421840
O        6.23963356      10.60991155       8.88992423
O        7.16488113       0.42647937       6.15759771
O        2.32837723       1.04978089       8.68100552
124
Lattice="9.92562 0.0 0.0 0.0 10.6806 0.0 0.0 0.0 12.4552" Properties=species:S:1:pos:R:3 material=LiPON model=NEP89 temperature_K=1200 phase="NVT production" display_name="LiPON｜NEP89｜1200 K｜NVT production計算" report_figures="23_LiPON_lithium_MSD; 24_LiPON_transport_comparison; 25_LiPON_temperature_RDF" source_frame_index=2879 relative_time_ps=287.9 pbc="T T T"
Li       1.96435990       4.63158804       1.06484773
Li       3.82075242       2.15196454       6.40775093
Li       0.19740789       5.47295231       6.81883505
Li       9.00812133       1.99801809       0.64789925
Li       9.23508717       7.26972986       8.92294810
Li       7.70772527       8.25333842       5.79155427
P        3.70484238       6.68970701       0.25153860
P        5.32516717       7.30045438       4.67698309
N        1.57478214       2.77670052       2.28541797
O        6.22688797       9.92433614       1.98604309
O        2.84723162       6.20711122       1.41675094
O        4.90186465       0.08557280      11.67464108
O        4.86769457       7.66699790       0.72277279
O        6.22309539       6.39647504       5.60384568
O        0.12727278       7.43634597       0.28809891
O        4.22686690       5.59285192      11.71484102
Li       9.56814220       1.23247978       6.14574770
Li       9.54200770       9.43748093      11.93477325
Li       3.87496205       5.93829690       3.22174399
Li       4.75386806      10.16720521       1.13031173
Li       6.66007101      10.55137904      11.22178815
Li       3.75836027       8.16642128       8.68354001
P        3.08380281       5.08511641       7.86178821
P        2.15534391       3.44874687       3.85248179
O        3.85562126       6.98293292       4.97525375
O        2.09548720      10.34371902       0.74168688
O        3.67138471       6.54326658       7.78167855
O        5.87409644       1.70753086       4.02534221
O        3.58439651       4.27870979       6.55007125
O        1.99517840       2.27531656       4.84379836
O        1.55554797       8.12979135       5.75294289
O        1.63848361       5.02800851       7.63913583
Li       9.87676800       8.94610556       3.26814306
Li       7.45093282       4.92753511       5.00115628
Li       5.67030782       8.55455998      11.51637246
Li       1.34169747       1.42900957      11.84660717
Li       6.37528510       7.69282524       2.05724742
Li       6.08077283       5.93008679      11.94235747
P        7.67082710       9.70484188       1.36157600
P        1.06527196       6.99240978      11.67555742
O        9.62208846       8.27247970       7.53287340
O        7.22676524       6.23471398       1.08393362
O        8.28250290       8.62754743       2.35945834
O        5.91036452       4.26248048       1.96032213
O        7.64324123       9.15604667      12.41444102
O        0.62329633       7.61990892      10.34530054
O        5.85512868       8.77393236       4.69113885
O        8.29728426       0.47686497       1.38198865
Li       8.73094400       6.89101783       1.90162097
Li       0.06881447       9.31805267       9.14445213
Li       5.12265774      10.31697471       3.48505760
Li       6.33035522       1.47563051       1.93475520
Li       1.87220372       7.71022047       7.58114027
Li       7.49464859       9.73876642       3.84663390
P        2.04451695      10.14012827       2.18786723
P        0.34481383       8.93033168       6.19838355
O        2.60836605       7.57396241      11.94387502
O        3.33044887       4.18514674       9.05021546
O        1.96549544       8.74868050       2.57090668
O        6.57708101      10.23169994       9.32179756
O        3.34486257       0.10589901       2.87161918
O        9.24249114       9.17670833       5.14258505
O        1.05297674       2.83885431       1.02968964
O        0.92228259       0.19131515       3.06370609
Li       5.94464125       1.55607141       8.95421157
Li       5.20640197       9.64459033       6.29458798
Li       4.80358620       4.10612656       0.76345145
Li       7.70911496       6.58868696       6.89861017
Li       2.30195590       2.45330518       9.23864200
Li       0.50269423       4.64524378       9.69258810
P        9.71043099       5.53937254       3.89428490
P        4.65931716       1.62863002      11.56574074
O        6.51830076       3.43584026       5.61226394
O        8.94965382       1.07675517       8.36994974
O        5.42966091       6.65051502       3.28759239
N        1.06186708       4.64594034       3.87307119
O        5.48780522       2.28385124      10.46138283
O        8.17647540       4.97168587       3.06027855
O        9.08344058       5.67321405       5.39849385
Li       2.13141413       0.33197486       4.94478297
Li       1.40546638       7.19000247       1.71112684
Li       5.41553488       6.36255378       8.58809956
Li       2.33556873       6.35798783       5.98595344
Li       3.12511522       3.60800226      11.45167621
Li       5.23856862       3.56172521       3.75178908
P        7.38140384       4.56470398       9.18608644
P        6.75735742       2.00423972       5.20451887
O        5.14745132       2.20873735       0.45329408
O        2.37795388       1.33075340       7.62973541
O        8.39568934       5.41949144       8.42412015
O        3.53979170       4.03912208       3.62242530
N        7.61576657       2.80868407       9.14424398
O        6.25531500       1.20042683       6.48335916
O        7.88871963       8.02622159       9.75341163
O        6.04985259       4.46460974       8.48312125
Li       5.36271390       4.87824949       5.95905881
Li       3.22556359       1.71636188       1.60431946
Li       7.40192723       0.08743025       7.37111425
Li       1.40161131       2.76186179       6.99783630
Li       3.02892805       8.56094741       4.56661467
Li       6.87280215       3.19342266      11.74487137
P        8.95644832       1.80013725       9.65606816
P        7.38251217       4.82991693       1.76705204
O        5.38454693       8.02179456       9.59742671
O        0.38709736       6.67998772       3.21304929
O        0.50262902       2.30572970       9.99170482
O        1.03741663       5.50234886      11.49216481
N        8.67290734       3.59248413       9.26446860
O        8.09580077       3.70235812       0.77450286
O        3.13351824       1.79792165      11.30429854
O        8.35392617       1.48504449      11.03213161
Li       0.02180146       4.32554707       0.25513993
Li       9.38242036       1.32003892       3.03495017
Li       3.65421213       9.64749161      10.99019190
Li       4.78979421       4.33911628      10.05582755
Li       8.09150866       7.39029338      11.78070599
P        2.30634285      10.46083825       7.25309558
P        6.66877886       8.72190980       9.05284867
O        7.00659561       5.11899499      10.55824253
N        0.90030131      10.39523424       6.46894623
O        2.44866965       9.46270360       8.48085821
O        6.79635457       8.68442285       7.54957483
O        8.18997149       1.55367497       4.68032915
O        3.50735835      10.36720935       6.20382958
124
Lattice="9.92562 0.0 0.0 0.0 10.6806 0.0 0.0 0.0 12.4552" Properties=species:S:1:pos:R:3 material=LiPON model=NEP89 temperature_K=1200 phase="NVT production" display_name="LiPON｜NEP89｜1200 K｜NVT production計算" report_figures="23_LiPON_lithium_MSD; 24_LiPON_transport_comparison; 25_LiPON_temperature_RDF" source_frame_index=2909 relative_time_ps=290.9 pbc="T T T"
Li       4.10850807       1.42480450       6.65997011
Li       1.10766525       0.11683641       4.49183219
Li       9.16211086       2.21102374       3.63238082
Li       9.21133705       5.07531864      12.13900638
Li       9.11625655       7.44715869       8.25886047
Li       6.78259547       9.74626032       6.46511081
P        3.26427721       6.08534076      12.32957340
P        5.03675348       7.41063236       4.63958050
N        2.25472131       3.72768590       3.34394195
O        7.88312825       9.59193452      12.39795020
O        2.56108342       6.04136815       1.26583710
O        6.45045194       1.20511374      11.03365871
O        4.31171456       7.25445309      12.20163388
O        5.28695210       5.92306487       4.61837091
O        0.27731123       7.38597147      12.43727951
O        3.88814954       4.74096852      12.10567768
Li       8.39793272       1.16959973       6.48548072
Li       0.11830511       8.52970128       3.10014227
Li       3.76774926      10.40473150       0.28316183
Li       5.25715551       1.24233012       1.75188831
Li       8.54514507       0.87126034       8.70688599
Li       3.23330703       9.13179963      10.12841927
P        3.56575280       4.60365313       8.18503999
P        1.10981589       3.85525384       4.55108190
O        3.49752912       7.64468034       5.36737757
O        1.71834373       0.09127512       0.48432074
O        2.60106946       5.87796264       8.51197724
O        5.63229282       1.37150467       3.74405353
O        4.47670987       4.83639112       6.95392999
O        1.24862545       2.40182521       5.12790305
O        0.26422015       7.52298864       6.57374662
O        2.97768467       3.07977054       8.07928245
Li       2.85593935       8.11396226       3.65033150
Li       4.45153883       6.07044102       2.62372960
Li       8.56585191       7.82419615       0.76403922
Li       1.18951134       4.70644121       1.72636360
Li       5.28165615       8.07301935       1.33744035
Li       2.92961834       7.43250833       7.13823547
P        7.46409638      10.09571280       1.32944281
P        0.90693666       7.43786552      11.03929432
O        9.03275525       9.81440825       7.40037137
O        6.94096235       5.24046278      12.24810790
O        8.14249264       9.28721752       2.60231296
O        5.70576918       4.94520213       1.96982315
O        8.03327191       0.95058526       1.59682490
O        1.30312597       8.80900349      10.47752384
O        6.28892141       8.30951148       5.21751069
O        5.94349235       9.91348890       1.40656065
Li       1.03143988       6.91337471       1.80096314
Li       2.07630381       2.09016826       0.24827491
Li       6.13804798       9.30348926       3.43554396
Li       8.91435715       0.19538956       3.04806172
Li       0.72877745       5.48913105       6.89051558
Li       0.39369148       9.60380615       8.95502976
P        1.72310099      10.41743810       2.09867224
P        9.73736821       9.00554162       6.24809410
O        2.12445197       6.34295678      11.16484106
O        4.51902266       4.75563487       9.34274742
O        1.59929382       8.92900245       2.40779081
O        6.69285561       9.69398191       8.40802966
O        3.23065502      10.60437212       2.20099700
O        9.22974063       9.03186987       4.71682581
O        2.92585460       3.64063218       2.20279002
O        0.85051406       0.72480456       2.82829264
Li       6.40729086       3.30222766       7.28305585
Li       3.88881848       0.02172901       4.28848645
Li       5.60701035       5.17242247      10.92996793
Li       7.64382196       5.94717313       6.58578680
Li       2.89412324       1.67930854       9.13030953
Li       3.19899393       3.81078084      10.72412660
P        9.21387984       5.61339130       3.66363041
P        4.92710338       1.00994149      10.87872902
O        5.85593693       3.26392079       5.36895430
O        0.07894042       1.21428202      11.23505481
O        4.59125263       7.85166609       3.18497442
N        9.81221362       4.15533735       3.64683880
O        4.68407939       1.69467848       9.53421557
O        8.23192798       5.81593658       2.24122002
O        8.31716063       5.66572902       4.90551568
Li       1.20697484       2.50979472       7.32443347
Li       1.05961797       6.72478868       5.06130179
Li       3.81421514       6.38227287       9.86779486
Li       3.56565147       5.52454874       5.47507492
Li       4.47513748       3.27490110       0.45282456
Li       1.15334222       5.01177937       9.89389498
P        8.61276944       3.52803905       8.41118052
P        6.28457134       1.91660936       5.01888405
O        4.08893848       1.56306916      12.17755467
O        1.59555179       0.44740911       7.83416771
O        9.68474757       4.15847960       7.48230652
O        1.77702029       4.98085326       5.47347729
N        8.84328797       2.64924081       9.73100392
O        5.73449209       0.85324920       6.20299716
O        7.22017215       7.99432750      10.13952177
O        7.99838911       2.20442987       7.65193783
Li       5.90101546       5.64404783       8.07225339
Li       7.93108888       1.42410631      12.00571944
Li       6.28516845       0.71125808       8.17229279
Li       4.96558112       3.69620394       3.66079322
Li       4.68497582       8.76271025       7.25362909
Li       8.80707985       3.08859903       1.52727766
P        0.15370221       2.73178635      10.94034248
P        7.07631072       4.80896792       1.29280715
O        4.84360661       8.04110584       9.17768354
O        0.36271717       6.65065384       3.43385393
O        1.53053145       3.19814337      10.49382906
O        9.86312826       6.50025928      10.06216854
N        9.40594137       3.81943078       9.98246356
O        7.16182500       3.17334041       1.41281520
O        4.60186001      10.17600703      10.76359579
O        9.35750796       3.23792569      12.17076335
Li       8.05515100       5.81841776      10.16244261
Li       7.84098562       7.68245341       4.37006046
Li       6.15973338       9.15641785      11.39536993
Li       6.23553160       2.94721442      10.35670557
Li       0.16266844      10.40007725       0.09003248
P        2.30134344      10.25497490       6.93118089
P        6.40882498       8.23603646       8.89581420
O        7.36976921       4.51621281       8.55381505
N        1.19557503       9.67407224       6.04034906
O        2.99543981       9.09336266       7.63115518
O        6.95716587       7.28278302       7.74289624
O        7.92384591       1.68985688       4.72198944
O        3.06944287       0.27233332       5.84066412
124
Lattice="9.92562 0.0 0.0 0.0 10.6806 0.0 0.0 0.0 12.4552" Properties=species:S:1:pos:R:3 material=LiPON model=NEP89 temperature_K=1200 phase="NVT production" display_name="LiPON｜NEP89｜1200 K｜NVT production計算" report_figures="23_LiPON_lithium_MSD; 24_LiPON_transport_comparison; 25_LiPON_temperature_RDF" source_frame_index=2939 relative_time_ps=293.9 pbc="T T T"
Li       3.57087668       1.25227847       4.04260616
Li       0.83133002       0.93555760       5.27779823
Li       8.68138936       2.32637582       5.03714438
Li       6.71762917       5.32851662       7.05423741
Li       8.66531201       6.46496856       9.18733688
Li       6.36827032       9.31988893       4.62542788
P        3.06975466       6.61031105      12.40792638
P        5.16111032       6.87690635       4.91871139
N        2.94946282       3.43999727       3.09553135
O        5.75660110       9.34853301       1.48748797
O        3.03211517       6.65648580       1.62366141
O        6.33605507       0.21046405      11.49312193
O        4.26484795       7.61993367      11.97910580
O        4.54268419       5.63776055       4.11195882
O        9.80742154       6.56253158      10.28462168
O        3.47107885       5.24955252      11.90262583
Li       8.97825128       0.00899688       7.23843411
Li       9.63774083       8.10494200       3.66340212
Li       0.39881190       2.63127655       1.96685343
Li       6.39476957       4.57876858       4.34183834
Li       7.06750122       1.40622822       0.26701682
Li       4.30698693       9.45949611      12.36926763
P        3.91704437       4.74343694       7.94319734
P        1.44944483       3.77142788       3.90680350
O        4.29077366       7.39279235       6.07787587
O        1.11802952       0.47890784       1.13924257
O        2.70932415       5.72083301       7.71633366
O        5.02415220       0.19010058       4.76013260
O        4.68972583       4.38329698       6.66383845
O        0.84361444       2.44652099       4.22848872
O        1.17775813       8.27744297       4.84228431
O        3.37653322       3.51414454       8.56988771
Li       7.46668727       7.28633685       3.39343573
Li       9.69811782       5.51962919       5.84373409
Li       7.35373211       9.73530068      11.31423777
Li       8.84208678       5.70555751      11.63672726
Li       4.69548911       7.34153488       2.15326017
Li       2.59548462       7.88965542       7.00212966
P        7.24605561       9.73470022       1.64124793
P        0.75560818       7.78438039      10.81872676
O        0.16168182       7.55512500       7.18427106
O        6.82155189       5.03139959      11.94365523
O        7.50493002       8.99963005       2.94696513
O        6.00606730       6.02719532       1.56808144
O        7.98259426       9.03699682       0.45510365
O        0.13203101       9.12944656      11.10623220
O        6.74335203       6.64328846       5.18746817
O        7.33913031       0.69154431       1.90858416
Li       9.33854884       7.87673388       1.20835895
Li       1.38763923       0.03341655      10.98485780
Li       4.61169734      10.05679630       2.89671541
Li       8.54548246      10.02768199       4.01151840
Li       2.64661390       5.99994782       5.30296538
Li       9.38182702      10.51875592      10.00526079
P        1.09130339      10.31477011       2.38850109
P        0.35316169       8.53573186       6.06368732
O        1.36773031       6.81675038      12.04528818
O        5.02181168       5.53993631       8.69158308
O        0.78930989       8.75475643       2.20183269
O        7.85406312       9.89419251       9.07447420
O        2.53476979      10.38260905       3.03227364
O        8.79508141       8.63660236       5.23814222
O        3.26138571       3.33829370       1.91243052
O        0.05622618       0.29660001       3.41717984
Li       6.17004765       7.47681794      12.42939508
Li       3.84781124       9.69115318       4.95436863
Li       3.50287226       9.77794014       9.70936346
Li       6.04730494       3.12327477       7.26607957
Li       3.41339721       2.04684028       9.36915283
Li       2.60190821       4.46830007      10.69281904
P        9.13978107       5.05949610       2.81395535
P        5.00378920       0.93825806      10.97182158
O        7.57315093       0.69974662       5.07943284
O        8.94195382       1.49073717      11.56003794
O        5.03670381       8.07743622       3.73348231
N        0.72480076       4.65091334       2.84488651
O        5.48387978       1.34786631       9.53877178
O        8.45051007       4.83442789       1.31359834
O        8.41998451       4.25592396       3.84281552
Li       1.52708917       3.09567904       7.27428035
Li       2.29076482       7.75883772       2.90014881
Li       4.25081080       2.00517870       7.31588734
Li       3.90493337       3.23913123       5.06957678
Li       5.20741470       4.07313647      11.97649460
Li       1.32835287       6.30374734       8.41533906
P        9.07610145       3.14310765       7.96312866
P        6.12190776       1.11433860       5.49050301
O        5.01781998       2.27049499      11.79687075
O        2.32205943       1.04999119       6.43708275
O        9.36611231       1.97499041       6.87421291
O        1.86389368       4.39491492       5.42081792
N        8.97775157       2.27120305       9.47983397
O        5.82800584       2.57557313       4.77332024
O        7.23925789       7.87747790      10.43768088
O        7.61182468       3.80929770       7.94386736
Li       5.03895968       7.19044130       7.67317162
Li       6.09676456       1.68724592       2.70560384
Li       7.01153890       0.61742879       8.57038881
Li       4.23767629       4.94357352       2.50980533
Li       5.00802875      10.19020815       7.62819743
Li       1.15290309       5.51175963       1.13645732
P        9.70573597       2.71525646      10.91752375
P        6.75309120       4.70461138       0.97524743
O        5.39355250       8.88356373       9.39435756
O        8.85310597       6.50543009       3.08946933
O        1.27372833       2.56292562      11.31101122
O        1.93753676       8.06069064       9.88952582
N        9.80622998       3.25230785       9.41068345
O        6.41324210       3.24699268       1.43527594
O        3.47988074       0.48259824      11.19935881
O        9.12153776       3.94184419      11.39365537
Li       6.39761091       6.04202788      10.41988429
Li       7.86613483       7.44435604       6.32079963
Li       2.97439504       1.99335818      12.45255065
Li       6.83293394       3.10577161      10.25211614
Li       9.81526455      10.41845654       0.04790988
P        2.01373535      10.58649637       7.35318680
P        6.90780365       8.56535887       9.16541283
O        0.27535061       4.23864254       7.73291143
N        0.75983300       9.94378020       6.59995696
O        1.66000661       0.44989104       8.85499130
O        7.01560704       7.78888329       7.76491419
O        5.72886450       1.04169902       7.02050375
O        3.19044701       9.68034950       7.72093922
124
Lattice="9.92562 0.0 0.0 0.0 10.6806 0.0 0.0 0.0 12.4552" Properties=species:S:1:pos:R:3 material=LiPON model=NEP89 temperature_K=1200 phase="NVT production" display_name="LiPON｜NEP89｜1200 K｜NVT production計算" report_figures="23_LiPON_lithium_MSD; 24_LiPON_transport_comparison; 25_LiPON_temperature_RDF" source_frame_index=2969 relative_time_ps=296.9 pbc="T T T"
Li       5.24395714       9.10104781       2.62714738
Li       6.29754608       0.79494086       8.64734734
Li       0.31336019       0.19252531       4.02540714
Li       5.78210649       2.26220571       7.09216618
Li       7.99207112       8.72878972       6.28268029
Li       7.56887141       9.05174318       3.92521196
P        3.64541344       6.63079847      12.00023319
P        5.77793755       6.78118478       4.99202862
N        3.85518580       3.65067304       2.74930091
O        5.97149288       9.65752376       1.15340593
O        4.26559906       8.10943838      11.66313329
O        4.80264443       2.38301972      10.05888447
O        4.68788028       5.66095959      11.37132960
O        5.39151186       7.56963362       3.68129524
O        0.16271154       6.36937777       9.71208617
O        3.39746045       6.64337746       1.09593992
Li       5.87164264       8.38048924       7.10355967
Li       9.83513873      10.56058951       0.43795392
Li       1.46739732       4.85178736       0.73818909
Li       8.33002564       6.42694887       4.29262930
Li       6.92665151       1.39796796      11.89205701
Li       6.09278547       9.18002627      11.91321800
P        2.98566986       4.21962930       7.71929564
P        2.34317581       3.53410870       3.44856360
O        4.66550141       7.38489551       6.02196440
O        1.96068246      10.05809284       0.32180338
O        1.95628929       5.08386506       6.80169117
O        6.87789557      10.13394313       5.83752311
O        3.68013580       3.46505657       6.67607167
O        2.56972301       2.09311936       4.04555093
O        0.37236397       7.87956410       6.59680158
O        2.47722219       3.38561803       8.92576284
Li       1.24664373       6.18820828       4.59291774
Li       1.14028883       6.37917829       7.76417213
Li       3.99466221       9.48013536       0.48222169
Li       0.49216166       7.87282628       0.16767878
Li       3.06572084       7.52662965       2.59468557
Li       2.92893967       8.02844577       7.16644147
P        7.27225210      10.44501194       1.24965834
P        1.23637872       7.46708947      10.15255712
O        9.39345780       9.06855472       4.59723246
O        8.47462904       7.51397851       0.39569108
O        8.18947911      10.44805470       2.48808745
O        8.10087267       7.42847322       2.79331024
O        8.09466991      10.37473990      12.38291257
O        0.55366851       8.74496477      10.60563272
O        5.58745341       5.23063873       4.92807755
O        6.64856988       1.20924251       1.28460426
Li       9.38395772       8.60057688       2.70459331
Li       8.48179969       8.60491516      11.11499911
Li       1.37967759       2.27891007       0.95793924
Li       0.29038432       3.70827273       6.16416833
Li       7.68713554       3.01852426       4.97427249
Li       1.69247112       0.78949097      11.08716927
P        1.86431582       9.60930976       1.71596336
P        0.80101929       8.75269192       5.37555864
O        2.12216789       6.65499038      11.33458504
O        4.11170280       5.19915622       8.30099203
O        1.14269886       8.28845151       2.02504156
O        7.19020009       9.78823819       9.74688999
O        3.35204058       9.65447392       2.26567587
O        1.95906314       8.09439103       4.60226399
O        4.66170748       4.00518097       1.79462396
O        1.14332574      10.66902522       2.50044165
Li       4.00190330       9.72382720       9.86009688
Li       3.89216984       6.88514793       8.89651741
Li       1.86104876       1.74146468       9.17702800
Li       5.12465769       4.11167781       9.49113632
Li       2.10046617       4.02056055      10.95448274
Li       6.30644749       6.32133012      11.76147350
P        9.61968465       4.30121838       3.07798198
P        3.92669886       1.48152538      10.81337168
O        6.20061075       1.76796880       5.19122402
O        7.52580477       3.29352218      11.90629725
O        7.16088203       7.03423486       5.63808036
N        1.03004290       3.50843507       2.68960744
O        2.94460142       0.48196238       9.85850069
O        9.69141719       5.55944282       1.92655866
O        8.42273462       3.43364979       2.71365199
Li       3.46726164       1.36511626       7.27185583
Li       3.74679197       9.01325940       4.89748335
Li       9.46421968       8.12960089       8.43580478
Li       3.76922045       5.45372842       6.01826195
Li       5.00045498       1.18490849       2.14984195
Li       0.76763745       4.56477460       9.20766054
P        8.04983604       3.60896431       8.53621318
P        5.63620866       0.33980496       5.53756870
O        2.83991637       2.31636256      11.68237897
O        9.43481651       1.24545505       5.51270159
O        7.83458365       2.32582153       7.78042130
O        2.63923402       4.88213456       4.19329502
N        9.23439795       3.22194895       9.67031209
O        4.81900445      10.51200021       4.25658177
O        7.13485618       7.48347814      10.48568467
O        7.09008060       4.62046483       9.00538518
Li       5.87067117       5.26364073       7.36570779
Li       8.47097108       1.64454801       3.16332266
Li       8.81263638       0.05804065      10.10914753
Li       4.70865599       3.22424281       4.96639119
Li       8.38080053       6.33223573       9.12107867
Li       8.78150065       5.81836467      11.31403694
P        9.01845321       3.04119297      11.33436083
P        8.23949992       6.41680091       1.51396231
O        5.19262591       8.36678434       8.83779334
O        9.55620191       4.62235972       4.58766251
O        9.80639387       1.80780814      12.11905783
O        2.03846585       7.70624804       8.94342634
N        8.14656724       2.52158858       9.92198787
O        6.95000260       5.73566274       1.32314092
O        4.86052541       0.58172594      11.63202329
O        0.02464366       4.26256812      11.47125510
Li       5.53205478       5.80709873       2.60298396
Li       7.81097639       0.75791289       6.56272735
Li       2.73976881       0.28915154       4.04865446
Li       4.60807934       3.62070241      12.39118081
Li       7.35568482       3.06862365       1.23383150
P        0.46022158       0.71507006       6.52786870
P        6.75722663       8.40477681       9.36552441
O        9.29697788       4.26384792       7.84848458
N        1.34473918      10.30693495       5.70225606
O        0.03329407       0.04336616       7.74416523
O        7.62569570       7.68487882       8.26365075
O        5.03372459       0.63695863       7.00347162
O        1.49409645       1.81568858       6.96829569
124
Lattice="9.92562 0.0 0.0 0.0 10.6806 0.0 0.0 0.0 12.4552" Properties=species:S:1:pos:R:3 material=LiPON model=NEP89 temperature_K=1200 phase="NVT production" display_name="LiPON｜NEP89｜1200 K｜NVT production計算" report_figures="23_LiPON_lithium_MSD; 24_LiPON_transport_comparison; 25_LiPON_temperature_RDF" source_frame_index=2999 relative_time_ps=299.9 pbc="T T T"
Li       7.64511430       8.69620819       5.92690646
Li       5.21830292       2.85802926       8.84301161
Li       9.53959136       9.34798993       3.37939607
Li       4.32333366       4.90379511       6.09243051
Li       9.59817974       6.92490948       7.98633115
Li       8.29441043       0.68438717       4.23087565
P        3.80246319       6.85102211      11.98926383
P        5.68050995       6.38322283       4.74527006
N        4.17141134       3.61280703       2.10715442
O        5.64403168       9.21812554       1.70526263
O        4.44256851       8.28969217      11.94589091
O        5.04476838       1.00800445       9.77629053
O        4.70933136       5.88084554      11.26727559
O        5.01905990       7.14555893       3.56244311
O        0.66997615       6.38384929       9.33238924
O        3.33311430       6.33103975       0.84568545
Li       5.77161134      10.47202518       8.11651729
Li       1.91629908       2.42852173      10.28711030
Li       1.10352208       6.17884297       0.30245621
Li       9.55121430       5.37676515       6.11173058
Li       6.25322333       1.50625100      11.15869289
Li       5.35925354       9.53143417      10.84702050
P        2.85367648       4.26917233       8.08895767
P        2.62475882       3.97425266       3.00858139
O        5.18247734       6.90325190       6.13195402
O        0.46008355      10.55942019       2.40657361
O        1.85119316       4.71269633       6.80555163
O        4.49878345      10.35850300       6.87662853
O        3.72838565       5.40566121       8.65215266
O        2.58170184       3.03147466       4.19999812
O        0.76152712       7.64997200       6.98298732
O        3.69642193       3.10256874       7.48515093
Li       8.31067226       0.99088921       8.43867046
Li       2.02861814       6.67189850       7.57505994
Li       6.60949471       8.80202462       3.50876315
Li       0.77215972       3.32533632       6.20582022
Li       3.28605955       8.34246944       5.69066555
Li       1.42402273       1.53528015       3.62431068
P        6.60635863      10.38148265       1.49725947
P        1.73356349       7.50215856       9.94088445
O        9.23089365       8.64455050       4.99750580
O        9.03679368       7.38811670       0.10378943
O        7.79861925      10.33783660       2.60779094
O        8.70923823       7.53528551       2.48583039
O        7.20869006      10.11967682       0.03684727
O        0.64971234       8.75695867      10.14552732
O        5.62534686       4.89472579       4.56680273
O        5.99012344       1.10840044       1.79320771
Li       9.03544705       6.82757552       4.16657125
Li       8.74454519       9.02743207      11.02126070
Li       2.52226756       2.96851648       0.68040835
Li       0.17861849       4.68228337       9.53516488
Li       5.65061686       2.90953206       3.38613714
Li       9.01566137       1.16181148       1.76326686
P        1.85167704      10.51625090       1.56708015
P        0.76521899       8.51820209       5.67854636
O        2.14912437       7.01400600      11.35937262
O        1.87082067       3.82156760       9.26293547
O        2.69965395       9.29463559       2.07790928
O        7.48763576      10.09014428       9.28506866
O        1.35772072      10.48317726       0.19486821
O        1.63377263       7.96455440       4.58378396
O        5.18169614       3.74372729       1.42563348
O        2.65414817       1.19130339       1.86279152
Li       3.64537751       8.03328542       2.95848816
Li       2.70073426       9.38407243      11.19105051
Li       2.95817174       9.72081165       8.27557859
Li       4.17506123       7.45990480       8.41659416
Li       4.36488539       4.57636930      10.06942748
Li       8.93232121       9.05731577       1.33580762
P        9.73308422       4.37119663       2.74888901
P        3.71348161       1.10585645      10.65473684
O        4.89722109       1.29108503       4.96184812
O        8.03440057       2.28275119      11.96687435
O        7.06189099       7.12434856       4.80135719
N        1.26000797       3.69015825       2.30414302
O        2.54629982       0.27849408       9.79335312
O        9.23398722       5.06239317       1.36601531
O        8.80851010       3.22123984       2.79898602
Li       2.16074075       5.69369108       4.72139613
Li       0.85487526      10.47812125      10.58117414
Li       1.89188234       4.93981865      10.77464288
Li       3.02681415       2.40999924       5.88047231
Li       4.13397654       9.39223657       0.83579645
Li       1.47637882       1.32980879       8.60838352
P        7.55373566       3.87533716       8.20052337
P        5.12235690      10.49142401       5.51365905
O        3.49430934       2.63992218      11.15265310
O        0.18002479       1.15085682       4.96199915
O        7.18986542       2.63627363       7.32014760
O        2.69032090       5.57533046       3.11786633
N        7.72876540       2.84583598       9.58517276
O        6.75544022      10.34883589       5.60262931
O        7.73908321       7.73574093      10.14839845
O        6.17373354       4.64375893       8.58474657
Li       7.60210527       2.89162195       1.30903263
Li       4.76471387       5.79873895       2.21823643
Li       0.24041326       9.51045496       8.56643030
Li       9.18782024       6.51841110      10.67239752
Li       6.55552855       6.65770928       7.13788056
Li       5.85277755       5.07736652       0.15624630
P        8.97771272       2.77556459      10.79565454
P        8.45024448       6.58937199       1.31447998
O        5.68982550       8.35987848       8.58669760
O        9.69438715       5.25614389       3.93406826
O        9.68211865       1.58161916      10.14745140
O        2.67700790       8.00668698       8.95867126
N        8.39483305       3.87721696       9.83751128
O        6.98504420       6.27897211       1.00506347
O        4.14090160       0.17103823      11.94564895
O        0.25607756       3.77947310      11.17247157
Li       6.20162887       7.67967283       0.27643537
Li       6.01046554       2.03172152       6.11371304
Li       3.65380947       0.18792949       3.19994304
Li       6.23579416       6.24367611      10.30235034
Li       4.35418633       1.74302881       1.03849281
P        0.76462765       0.51790133       6.22541402
P        7.29635981       8.55939781       8.96058350
O        8.51691351       4.86909202       7.67883837
N        1.54060002       9.84238781       5.97731051
O        9.59986098       0.17182219       7.28548303
O        8.08120310       7.90040099       7.82520968
O        4.61522070       9.33547492       4.63445937
O        1.59066132       1.68298072       6.87349032
