124
Lattice="9.797106593837665 0 0 0 10.542271282437742 0 0 0 12.29388340926147" Properties=species:S:1:pos:R:3 pbc="T T T"
Li 2.495364779589 4.454433778899 0.000000000000
Li 0.046088131129 0.816701862320 3.073470852315
Li 2.491161441490 1.719936024210 1.553111495425
Li 0.041884793031 3.551199617009 1.520359356890
Li 0.041884793031 3.551199617009 4.626582347740
Li 2.491161441490 1.719936024210 4.593830209206
P 2.455849774765 4.344807665708 3.073470852315
P 0.006573126306 0.926327975511 0.000000000000
N 0.526564764413 1.656253023970 4.868104573974
O 2.952354770858 0.552818225960 3.073470852315
O 0.898206344020 4.314641798308 3.073470852315
O 3.347482992479 0.956493842910 0.000000000000
O 2.975841412872 3.614882617249 1.794633721659
O 0.526564764413 1.656253023970 1.278837130656
O 0.503078122399 4.718317415259 0.000000000000
O 2.975841412872 3.614882617249 4.352307982972
Li 2.495364779589 4.454433778899 6.146941704631
Li 0.046088131129 0.816701862320 9.220412556946
Li 2.491161441490 1.719936024210 7.700053200056
Li 0.041884793031 3.551199617009 7.667301061521
Li 0.041884793031 3.551199617009 10.773524052371
Li 2.491161441490 1.719936024210 10.740771913836
P 2.455849774765 4.344807665708 9.220412556946
P 0.006573126306 0.926327975511 6.146941704631
O 0.526564764413 1.656253023970 11.015046278605
O 2.952354770858 0.552818225960 9.220412556946
O 0.898206344020 4.314641798308 9.220412556946
O 3.347482992479 0.956493842910 6.146941704631
O 2.975841412872 3.614882617249 7.941575426290
O 0.526564764413 1.656253023970 7.425778835287
O 0.503078122399 4.718317415259 6.146941704631
O 2.975841412872 3.614882617249 10.499249687602
Li 2.495364779589 9.725569420118 0.000000000000
Li 0.046088131129 6.087837503539 3.073470852315
Li 2.491161441490 6.991071665429 1.553111495425
Li 0.041884793031 8.822335258228 1.520359356890
Li 0.041884793031 8.822335258228 4.626582347740
Li 2.491161441490 6.991071665429 4.593830209206
P 2.455849774765 9.615943306927 3.073470852315
P 0.006573126306 6.197463616730 0.000000000000
O 0.526564764413 6.927388665189 4.868104573974
O 2.952354770858 5.823953867179 3.073470852315
O 0.898206344020 9.585777439527 3.073470852315
O 3.347482992479 6.227629484129 0.000000000000
O 2.975841412872 8.886018258468 1.794633721659
O 0.526564764413 6.927388665189 1.278837130656
O 0.503078122399 9.989453056478 0.000000000000
O 2.975841412872 8.886018258468 4.352307982972
Li 2.495364779589 9.725569420118 6.146941704631
Li 0.046088131129 6.087837503539 9.220412556946
Li 2.491161441490 6.991071665429 7.700053200056
Li 0.041884793031 8.822335258228 7.667301061521
Li 0.041884793031 8.822335258228 10.773524052371
Li 2.491161441490 6.991071665429 10.740771913836
P 2.455849774765 9.615943306927 9.220412556946
P 0.006573126306 6.197463616730 6.146941704631
O 0.526564764413 6.927388665189 11.015046278605
O 2.952354770858 5.823953867179 9.220412556946
O 0.898206344020 9.585777439527 9.220412556946
O 3.347482992479 6.227629484129 6.146941704631
O 2.975841412872 8.886018258468 7.941575426290
O 0.526564764413 6.927388665189 7.425778835287
O 0.503078122399 9.989453056478 6.146941704631
O 2.975841412872 8.886018258468 10.499249687602
Li 7.393918076508 4.454433778899 0.000000000000
Li 4.944641428048 0.816701862320 3.073470852315
Li 7.389714738409 1.719936024210 1.553111495425
Li 4.940438089950 3.551199617009 1.520359356890
Li 4.940438089950 3.551199617009 4.626582347740
Li 7.389714738409 1.719936024210 4.593830209206
P 7.354403071684 4.344807665708 3.073470852315
P 4.905126423225 0.926327975511 0.000000000000
O 5.425118061331 1.656253023970 4.868104573974
O 7.850908067777 0.552818225960 3.073470852315
O 8.246036289398 0.956493842910 0.000000000000
N 7.874394709791 3.614882617249 1.794633721659
O 5.425118061331 1.656253023970 1.278837130656
O 5.401631419318 4.718317415259 0.000000000000
O 7.874394709791 3.614882617249 4.352307982972
Li 7.393918076508 4.454433778899 6.146941704631
Li 4.944641428048 0.816701862320 9.220412556946
Li 7.389714738409 1.719936024210 7.700053200056
Li 4.940438089950 3.551199617009 7.667301061521
Li 4.940438089950 3.551199617009 10.773524052371
Li 7.389714738409 1.719936024210 10.740771913836
P 7.354403071684 4.344807665708 9.220412556946
P 4.905126423225 0.926327975511 6.146941704631
O 5.425118061331 1.656253023970 11.015046278605
O 7.850908067777 0.552818225960 9.220412556946
O 5.796759640939 4.314641798308 9.220412556946
O 8.246036289398 0.956493842910 6.146941704631
N 7.874394709791 3.614882617249 7.941575426290
O 5.425118061331 1.656253023970 7.425778835287
O 5.401631419318 4.718317415259 6.146941704631
O 7.874394709791 3.614882617249 10.499249687602
Li 7.393918076508 9.725569420118 0.000000000000
Li 4.944641428048 6.087837503539 3.073470852315
Li 7.389714738409 6.991071665429 1.553111495425
Li 4.940438089950 8.822335258228 1.520359356890
Li 4.940438089950 8.822335258228 4.626582347740
Li 7.389714738409 6.991071665429 4.593830209206
P 7.354403071684 9.615943306927 3.073470852315
P 4.905126423225 6.197463616730 0.000000000000
O 5.425118061331 6.927388665189 4.868104573974
O 7.850908067777 5.823953867179 3.073470852315
O 5.796759640939 9.585777439527 3.073470852315
O 8.246036289398 6.227629484129 0.000000000000
N 7.874394709791 8.886018258468 1.794633721659
O 5.425118061331 6.927388665189 1.278837130656
O 5.401631419318 9.989453056478 0.000000000000
O 7.874394709791 8.886018258468 4.352307982972
Li 7.393918076508 9.725569420118 6.146941704631
Li 7.389714738409 6.991071665429 7.700053200056
Li 4.940438089950 8.822335258228 7.667301061521
Li 4.940438089950 8.822335258228 10.773524052371
Li 7.389714738409 6.991071665429 10.740771913836
P 7.354403071684 9.615943306927 9.220412556946
P 4.905126423225 6.197463616730 6.146941704631
O 7.850908067777 5.823953867179 9.220412556946
N 8.246036289398 6.227629484129 6.146941704631
O 7.874394709791 8.886018258468 7.941575426290
O 5.425118061331 6.927388665189 7.425778835287
O 5.401631419318 9.989453056478 6.146941704631
O 7.874394709791 8.886018258468 10.499249687602
