192
Lattice="21.874 0.0 0.0 -10.936999999999994 18.943439682380813 0.0 0.0 0.0 12.044" Properties=species:S:1:pos:R:3 pbc="T T T"
Li       3.40140700       0.00000000       0.00000000
Li      -1.70070350       2.94570487       6.02200000
Li       3.76779650       6.52601497       6.02200000
Li       7.53559300       0.00000000       6.02200000
Li      14.70479650       6.52601497       0.00000000
Li       7.16920350       6.52601497       0.00000000
Li       9.23629650       2.94570487       6.02200000
Li      14.70479650       6.52601497       6.02200000
Li       7.16920350       6.52601497       6.02200000
Li       8.86990700       9.47171984       0.00000000
Li      13.00409300       9.47171984       0.00000000
Li       1.70070350      15.99773481       0.00000000
Li       7.16920350      12.41742471       0.00000000
Li       8.86990700       9.47171984       6.02200000
Li       1.70070350      15.99773481       6.02200000
Li       7.16920350      12.41742471       6.02200000
Li       3.68576900       0.00000000       3.01100000
Li      -1.84288450       3.19196959       3.01100000
Li       1.84288450       3.19196959       3.01100000
Li       3.68576900       0.00000000       9.03300000
Li       3.62561550       6.27975025       9.03300000
Li       7.25123100       0.00000000       9.03300000
Li      -3.62561550       6.27975025       9.03300000
Li       1.84288450       3.19196959       9.03300000
Li      -1.78273100       9.47171984       3.01100000
Li      -7.31138450      12.66368943       3.01100000
Li       1.78273100       9.47171984       3.01100000
Li      -3.62561550      12.66368943       3.01100000
Li       1.78273100       9.47171984       9.03300000
Li      -3.62561550      12.66368943       9.03300000
Li      14.62276900       0.00000000       3.01100000
Li       9.09411550       3.19196959       3.01100000
Li      14.56261550       6.27975025       3.01100000
Li      18.18823100       0.00000000       3.01100000
Li       7.31138450       6.27975025       3.01100000
Li      12.77988450       3.19196959       3.01100000
Li       9.09411550       3.19196959       9.03300000
Li      12.77988450       3.19196959       9.03300000
Li       9.15426900       9.47171984       3.01100000
Li      12.71973100       9.47171984       3.01100000
Li      12.71973100       9.47171984       9.03300000
Li       7.31138450      12.66368943       9.03300000
Cl      -3.72787645       8.46677037       4.52493080
Cl       0.00000000       2.00989895       4.52493080
Cl       1.74062355       1.00494948       1.49706920
Cl       5.46850000       7.46182089       1.49706920
Cl      -3.72787645       8.46677037      10.54693080
Cl       0.00000000       2.00989895      10.54693080
Cl       3.72787645       8.46677037      10.54693080
Cl       9.19637645       1.00494948       7.51906920
Cl       1.74062355       1.00494948       7.51906920
Cl       5.46850000       7.46182089       7.51906920
Cl      -9.19637645      17.93849021       4.52493080
Cl      -5.46850000      11.48161879       4.52493080
Cl      -1.74062355      17.93849021       4.52493080
Cl       3.72787645      10.47666932       1.49706920
Cl      -3.72787645      10.47666932       1.49706920
Cl       0.00000000      16.93354073       1.49706920
Cl      -9.19637645      17.93849021      10.54693080
Cl      -5.46850000      11.48161879      10.54693080
Cl      -1.74062355      17.93849021      10.54693080
Cl       3.72787645      10.47666932       7.51906920
Cl      -3.72787645      10.47666932       7.51906920
Cl       0.00000000      16.93354073       7.51906920
Cl       7.20912355       8.46677037       4.52493080
Cl      10.93700000       2.00989895       4.52493080
Cl      14.66487645       8.46677037       4.52493080
Cl      20.13337645       1.00494948       1.49706920
Cl      16.40550000       7.46182089       1.49706920
Cl      10.93700000       2.00989895      10.54693080
Cl      20.13337645       1.00494948       7.51906920
Cl      12.67762355       1.00494948       7.51906920
Cl      16.40550000       7.46182089       7.51906920
Cl       1.74062355      17.93849021       4.52493080
Cl       5.46850000      11.48161879       4.52493080
Cl      14.66487645      10.47666932       1.49706920
Cl       7.20912355      10.47666932       1.49706920
Cl       1.74062355      17.93849021      10.54693080
Cl       5.46850000      11.48161879      10.54693080
Cl       9.19637645      17.93849021      10.54693080
Cl       7.20912355      10.47666932       7.51906920
Cl      10.93700000      16.93354073       7.51906920
Cl      -1.72312435       7.30932620       1.69278420
Cl       1.72312435       7.30932620       1.69278420
Cl       3.74537565       2.16239364       4.32921580
Cl       0.00000000       4.32478728       7.71478420
Cl       1.72312435       7.30932620       7.71478420
Cl       7.19162435       2.16239364      10.35121580
Cl       1.72312435      11.63411348       4.32921580
Cl      -1.72312435      11.63411348       4.32921580
Cl      -5.46850000      13.79650712       7.71478420
Cl      -3.74537565      16.78104604       7.71478420
Cl       1.72312435      11.63411348      10.35121580
Cl       0.00000000      14.61865240      10.35121580
Cl       9.21387565       7.30932620       1.69278420
Cl      10.93700000       4.32478728       1.69278420
Cl      12.66012435       7.30932620       1.69278420
Cl      18.12862435       2.16239364       4.32921580
Cl      14.68237565       2.16239364       4.32921580
Cl      16.40550000       5.14693256       4.32921580
Cl       9.21387565       7.30932620       7.71478420
Cl       3.74537565      16.78104604       1.69278420
Cl       5.46850000      13.79650712       1.69278420
Cl       7.19162435      16.78104604       1.69278420
Cl      12.66012435      11.63411348       4.32921580
Cl       9.21387565      11.63411348       4.32921580
Cl       3.74537565      16.78104604       7.71478420
Cl      10.93700000      14.61865240      10.35121580
Cl       1.78109045       5.28616684       4.62248720
Cl       0.00000000       8.37110600       4.62248720
Cl      -1.78109045       5.28616684       4.62248720
Cl       3.68740955       4.18555300       1.39951280
Cl       7.24959045       4.18555300       1.39951280
Cl       5.46850000       1.10061385       1.39951280
Cl       1.78109045       5.28616684      10.64448720
Cl       0.00000000       8.37110600      10.64448720
Cl      -1.78109045       5.28616684      10.64448720
Cl       3.68740955       4.18555300       7.42151280
Cl       7.24959045       4.18555300       7.42151280
Cl       5.46850000       1.10061385       7.42151280
Cl      -3.68740955      14.75788668       4.62248720
Cl      -5.46850000      17.84282584       4.62248720
Cl      -7.24959045      14.75788668       4.62248720
Cl      -1.78109045      13.65727284       1.39951280
Cl       1.78109045      13.65727284       1.39951280
Cl       0.00000000      10.57233369       1.39951280
Cl      -3.68740955      14.75788668      10.64448720
Cl      -5.46850000      17.84282584      10.64448720
Cl      -7.24959045      14.75788668      10.64448720
Cl      -1.78109045      13.65727284       7.42151280
Cl       1.78109045      13.65727284       7.42151280
Cl       0.00000000      10.57233369       7.42151280
Cl      12.71809045       5.28616684       4.62248720
Cl      10.93700000       8.37110600       4.62248720
Cl       9.15590955       5.28616684       4.62248720
Cl      14.62440955       4.18555300       1.39951280
Cl      18.18659045       4.18555300       1.39951280
Cl      16.40550000       1.10061385       1.39951280
Cl      12.71809045       5.28616684      10.64448720
Cl      10.93700000       8.37110600      10.64448720
Cl       9.15590955       5.28616684      10.64448720
Cl      14.62440955       4.18555300       7.42151280
Cl      18.18659045       4.18555300       7.42151280
Cl      16.40550000       1.10061385       7.42151280
Cl       7.24959045      14.75788668       4.62248720
Cl       5.46850000      17.84282584       4.62248720
Cl       3.68740955      14.75788668       4.62248720
Cl       9.15590955      13.65727284       1.39951280
Cl      12.71809045      13.65727284       1.39951280
Cl      10.93700000      10.57233369       1.39951280
Cl       7.24959045      14.75788668      10.64448720
Cl       5.46850000      17.84282584      10.64448720
Cl       3.68740955      14.75788668      10.64448720
Cl       9.15590955      13.65727284       7.42151280
Cl      12.71809045      13.65727284       7.42151280
Cl      10.93700000      10.57233369       7.42151280
O        3.72787645       8.46677037       4.52493080
O       12.67762355       1.00494948       1.49706920
O        7.20912355       8.46677037      10.54693080
O        9.19637645      17.93849021       4.52493080
O        7.19162435       2.16239364       4.32921580
O       -1.72312435       7.30932620       7.71478420
O        3.74537565       2.16239364      10.35121580
O       -5.46850000      13.79650712       1.69278420
O       -3.74537565      16.78104604       1.69278420
O       14.68237565       2.16239364      10.35121580
O       10.93700000      14.61865240       4.32921580
O       12.66012435      11.63411348      10.35121580
Zr       0.00000000       0.00000000       0.00000000
Zr       0.00000000       0.00000000       6.02200000
Zr       5.46850000       9.47171984       0.00000000
Zr       5.46850000       9.47171984       6.02200000
Zr       5.46850000       3.15723995       2.89056000
Zr      -5.46850000      15.78619974       3.13144000
Zr      10.93700000       6.31447989       3.13144000
Zr      16.40550000       3.15723995       2.89056000
Zr      10.93700000       6.31447989       9.15344000
Zr      16.40550000       3.15723995       8.91256000
Zr      10.93700000      12.62895979       2.89056000
Zr       5.46850000      15.78619974       9.15344000
Zr      -5.46850000       9.47171984       3.01100000
Zr      10.93700000       0.00000000       3.01100000
Zr       5.46850000       9.47171984       3.01100000
Zr       5.46850000       9.47171984       9.03300000
Zr       0.00000000       6.31447989       5.78653980
Zr       0.00000000       6.31447989      11.80853980
Zr       5.46850000       3.15723995       6.25746020
Zr       0.00000000      12.62895979       0.23546020
Zr      -5.46850000      15.78619974      11.80853980
Zr       0.00000000      12.62895979       6.25746020
Zr       5.46850000      15.78619974       5.78653980
Zr      10.93700000      12.62895979       6.25746020
