LAMMPS data file via write_data, version 10 Sep 2025, timestep = 110000, units = metal

192 atoms
4 atom types

-0.4918640466329922 25.401218046633016 xlo xhi
-0.4307683548353989 22.246067757271124 ylo yhi
-0.1899442581351991 9.809246174072543 zlo zhi
0.42542427330389093 0.019966055395883198 5.929778206261419 xy xz yz

Masses

1 6.939999998214724
2 91.22399997653315
3 15.99899999588435
4 35.44999999088069

Atoms # atomic/kk

102 1 25.19633866939101 -0.20888498088698318 0.18215181234241992 0 0 1
115 4 1.4518937352265475 1.054564285192393 1.6068659237748564 1 0 0
31 4 4.335691621849002 7.173197077795737 9.201596056952274 0 0 0
147 1 6.923768534070273 1.188490999661246 1.4328805467946493 1 1 0
39 4 5.8900223279120745 3.0239911547071903 2.8957778734868467 0 0 0
186 4 13.093464922418017 0.15290123311554693 0.07034642806112261 0 1 0
114 4 16.141300286734023 1.6848066110517022 0.1491289671626294 0 0 -1
183 4 14.419254895896678 24.287168765365003 3.389197228426759 0 0 0
162 4 19.02738308053423 3.866146561064948 3.7735133189105783 0 1 -1
98 1 20.386297452882644 2.8282297137312224 2.133722559322814 0 0 -2
134 4 19.232384614104504 3.532146632776423 0.2505468614956942 0 0 1
112 4 20.874780100005317 0.5198070911849222 0.9842999525004554 0 0 1
50 3 2.5657957107057 4.033684549991466 0.5485545638594526 0 0 0
42 4 1.8989686881277645 5.46775685367533 4.165872403804969 0 0 0
15 2 2.3219827657318373 5.719888259877019 1.5283994510761787 0 0 0
140 3 0.40045991383777657 5.804714305575109 1.5594559345315646 1 0 0
148 1 6.433039989127921 5.05207104277891 1.6194212659876628 1 1 0
35 4 4.770266088234985 6.471010241903194 2.411350412669436 0 0 0
22 4 8.110307027861205 6.576866080475814 2.802125179996739 0 0 -1
121 4 11.373329142148204 5.042334636203348 3.5794474406570336 1 0 0
74 4 10.440968723808371 6.305682528572305 0.3591896582367853 0 0 2
16 2 10.685655881020567 7.271554937281457 2.659894603644056 0 0 0
18 2 13.116943827419604 7.119518953114789 0.07075697401527115 0 0 1
51 3 12.482867725340693 7.592477353682636 1.9105754697383386 0 0 0
103 1 13.432027075748083 3.955842096066368 2.9474744864269273 0 1 -2
47 4 13.658544971863801 4.601561191674489 0.46499504199393676 0 1 0
38 4 15.711796210721522 5.025596180516175 3.583738826337475 0 0 0
20 4 18.01072608177487 7.574301541494107 4.150639519898511 0 0 0
129 4 20.214006202715858 7.015631044390682 0.3006816038350127 0 0 1
109 2 -0.2682311619703964 6.969255816556444 3.037909259079014 1 0 0
54 1 24.551251023336718 5.012494977481017 0.49595334870310226 -1 1 0
137 4 22.490615678823417 4.208803297774307 1.4125549523389078 0 0 1
184 4 24.30456512900617 5.367350636154139 4.214042048910195 0 1 0
149 1 0.45844200552721726 10.94517216225092 4.4247268809054905 0 1 -1
76 4 1.934429568720049 8.291964034375182 2.6000915113304024 0 0 1
6 1 6.304832377076743 8.062664893335606 3.5216878598382713 0 0 0
3 1 4.394642486359961 8.211440589670255 0.8296766085449412 1 0 0
153 1 7.622220295794104 10.200627144868564 0.6698079353104628 1 0 1
86 4 5.46556016037412 10.002415374854511 2.335395917866582 0 0 0
30 4 9.97917220425687 9.486170940766376 1.597057669605252 0 0 0
118 4 12.152729274593868 11.472570501408086 4.532678992029755 0 0 -1
82 4 15.3941476768641 7.597015123925187 0.30537770578377565 0 0 1
160 4 15.358578714587335 10.376525760876046 3.9766084010826983 0 0 0
52 1 19.47516373397643 7.765101543376815 2.3594210191642135 -1 1 0
130 4 19.022920450069492 10.0967332438126 1.4113668691176156 0 0 0
180 4 21.536956598818428 9.670963159299228 3.8226670503169133 0 0 1
108 2 20.21417482505329 11.666872761829922 2.795225324959497 0 0 0
125 4 24.04512985517399 8.0521478733367 1.72664119709748 0 0 0
29 4 25.167391053359097 11.752340100078955 2.444858774421418 -1 0 0
28 4 2.6032923355677298 12.297566182541447 4.527419752012693 0 0 0
192 3 0.43018498839330066 14.450374950074025 3.5974842446656403 1 0 0
14 2 2.2515974266554553 14.93057913431236 4.18554552686631 0 0 0
9 1 4.479325283471952 15.655019662038343 0.3791639196482919 0 0 -1
151 1 4.64779175015579 12.153488551499887 3.319559799939422 0 0 2
40 4 3.7309467870538953 14.326965572431067 2.0929144975024903 0 0 1
68 4 8.003612954761728 12.454316412574133 2.953358807830534 0 0 2
23 4 12.094388799926788 16.969727481789207 3.9035173378372656 0 -1 0
58 1 11.125450011780176 11.819389943566424 2.0229775805609753 0 0 2
64 2 8.678490727065661 14.240562832555835 0.9496706322875768 0 0 0
97 3 10.489060436995997 13.477848834188256 1.477301753039999 0 0 0
32 4 13.313322317934965 12.310549548718638 0.7935988581353026 0 0 1
101 1 16.31899095174223 14.12815044433755 4.301402905063475 0 -1 2
171 4 15.332683701092868 14.672118221098692 2.2769978280595624 0 0 0
139 3 20.932420637832152 12.536943488084725 1.2231150053842197 0 0 0
136 4 18.283152874291517 12.706025327294604 3.6677811204105324 0 0 0
172 4 23.55828671283978 14.405678235316017 1.431259929007565 0 0 0
157 2 24.481158916746026 13.824266428907652 3.8256831588209277 0 0 0
105 1 24.945960762146967 12.969000468839639 0.13362524616116034 0 0 -2
124 4 21.94518809672926 13.126697636493008 4.28420946587087 0 0 0
21 4 1.998479919101698 17.201973158641536 3.151015800587602 0 0 0
70 4 5.446280600465077 17.65824126235855 1.5615419075692305 0 0 0
10 1 7.195751299730127 16.574063446815657 4.430440853808602 0 -1 0
63 2 6.100348699869615 19.840061366930215 0.1222926907490181 0 0 0
7 1 4.22373230046632 17.90432512243732 3.690664838360167 0 0 -2
94 4 6.542460860268338 18.957751515014785 4.629267700948262 0 0 0
79 4 8.184099094514192 19.44653372092872 1.8383888637713799 0 0 0
88 4 8.67228869658073 16.119069353797173 2.5611588030439134 0 0 0
156 2 13.836371619915187 16.617195184491806 2.3314004876497796 0 0 0
138 3 15.251516989685156 17.848251129884524 3.29775519327085 0 0 -1
191 3 14.00641545476028 18.115708981780315 0.8871173717273306 0 0 0
141 1 15.546412759310273 19.1779628822255 1.6362081630355259 0 -1 2
13 2 16.480852326528627 18.26048060505307 4.677064989672677 -1 0 -1
95 3 12.778988256498295 15.890178071491386 0.6369326366524134 0 0 0
166 4 17.92994949092649 18.918813037408448 2.91612435144517 0 0 1
127 4 23.938397786209336 16.10405627400491 4.664896364087953 0 0 0
5 1 24.9008849975787 17.641174121734757 3.0322976403172306 -1 0 1
167 4 24.3690892251347 17.673592958261366 0.8372007676850792 0 0 1
131 4 24.36761430709906 19.995257717585687 3.671458899101873 0 0 -1
189 4 21.642276396749665 19.793270931167584 0.8625340749672019 0 0 1
119 4 5.857420447416514 21.698619584851578 1.9188477136575117 0 -1 0
66 2 7.704208872645189 20.983738601956013 3.950701340540712 0 0 0
78 4 8.999194628881662 22.77565155699144 2.931480196411774 0 0 0
84 4 9.71900129230007 20.34260597440059 5.116776970128801 0 0 0
173 4 14.725633248298118 20.821306303918206 2.960674141647721 0 0 0
169 4 16.47370490184347 20.79184793407331 0.18686135295504375 0 0 0
158 2 15.316290985805166 22.705038955247673 1.6073204926815032 0 0 0
135 4 17.571311464006747 22.797214375296143 3.009110333373479 0 -1 1
150 1 18.71806732484422 21.559965015044426 4.678102837563446 0 -1 1
177 4 21.23864976901325 21.255888513022967 3.9696882515113714 0 0 1
174 4 24.275367572495412 23.544369685621696 2.8031064348988073 0 0 1
155 2 23.005095423139522 21.642602705774785 2.2686495617262916 0 0 0
190 3 24.21092367931079 21.198384908653544 0.7427088607759219 0 0 0
56 1 18.533033363146856 24.552883449904883 4.498005455453143 -1 0 0
11 1 5.160084201591553 2.682056039379981 4.97789502025889 0 0 -1
43 4 0.6319105093226902 6.514739702548235 8.209963185559417 0 0 0
90 4 4.916818643951803 4.806301510757576 6.215484183755794 0 1 0
62 2 6.376718855076949 5.949752623508236 7.738336759242816 0 1 -1
81 4 7.793330857336652 7.5898972729719425 9.195772263620269 0 1 -1
46 4 8.299806165943354 4.7457960635889425 6.864444017031599 0 0 0
48 4 15.701927743083674 6.381159173374544 6.893843830064809 0 0 0
110 2 17.375384415823945 5.37561074202461 5.411266281967558 0 0 0
128 4 19.000520550579864 6.058562867915771 7.034182286495514 0 0 0
4 1 21.105539318810095 6.953430732294603 8.45657302525992 0 0 0
188 4 23.103756066556784 5.358054114418135 8.080791939119694 0 0 1
59 1 24.612611426075652 6.2979374084450725 6.680223683677701 -1 0 -2
33 4 2.812600308431792 9.775001368153973 7.4640460932216355 0 0 -1
17 2 2.127052645734573 8.306143432957919 9.558862373275977 0 0 0
77 4 -0.20269954362034237 9.238687104499133 9.558940896029657 0 1 -1
34 4 6.243014465314862 8.110737038810027 6.164437833929489 0 0 -1
144 1 7.423517481812907 9.438022374350103 7.64754024444234 0 1 -1
89 4 6.291383686871497 10.865960128287245 9.36309601276948 0 0 0
2 1 4.458970385684204 11.231916459266865 7.9475369840204895 0 0 1
25 4 9.169221591152198 11.2210778983393 7.222671245771404 0 0 1
142 1 11.187748891592541 10.438123279248604 6.0209872621178375 1 0 1
41 4 10.466568751354973 8.384191740507493 4.857272055734343 0 0 1
170 4 13.166941338755885 8.966023581142274 6.954274583468351 0 0 0
55 1 14.511832587573723 8.891948028701428 9.064930861644909 0 1 -4
107 2 14.393908329581164 11.024081458993798 6.070830940074826 0 0 -1
73 4 16.049084042252332 10.440768413760848 7.617329131486085 -1 0 0
117 4 20.060437955858752 11.660944430710618 7.161307726877218 0 0 1
111 2 21.113454066421994 10.934496807492645 9.40764265424275 0 0 0
116 4 -0.30101789374300236 8.551679223575503 5.15494148691734 1 0 2
123 4 21.975309485809326 8.928089331647675 8.082578482892298 0 0 0
1 1 21.666714363197308 10.417175122608938 6.0998412618790585 -1 0 -1
26 4 2.859679045999921 12.678466114549654 9.403492927033756 0 0 -1
182 4 1.7667328157361415 15.234080075881868 6.373088170911917 1 0 0
60 1 8.334226315253693 12.432396135165204 9.0759295916939 0 1 -1
122 4 5.863059407825768 12.495285582880506 5.827797396510744 0 0 -1
145 1 8.108941933113968 12.483918983096336 5.225934691431954 1 0 0
67 4 6.76425787007603 14.145694691553835 9.25961086358791 0 0 1
8 1 6.114816682396149 14.799967227182913 6.659038089038527 0 0 1
44 4 8.181835859206874 15.570420958737389 6.301457216668289 0 0 0
37 4 12.376064659846337 15.108444292270242 8.802871157428852 0 0 0
164 4 12.619549216706753 12.24972348269492 7.774942660071864 0 0 -1
185 4 15.122818098092264 13.410830714507627 6.223731753925113 0 0 0
132 4 23.121128113001696 12.19023149328882 8.912243369559427 0 0 0
71 4 24.816205800059684 12.308498502716752 5.799779632878204 -1 0 -1
45 4 0.13942335081401658 18.973790620086163 6.609655158648685 0 -1 0
93 4 3.764167774325469 18.78604030365898 7.513960722932998 0 0 0
36 4 4.902213900333709 15.972594625944042 4.900899418136671 0 0 1
72 4 7.889772100317984 17.95159042152477 9.399641232447687 0 0 -1
175 4 11.100467195803581 18.481024964512223 8.306927572906002 0 0 0
100 1 9.412317804706067 17.012401402910143 7.823448769292947 1 0 0
143 1 13.166716285730246 17.197059035937855 8.750363074160237 0 0 0
165 4 14.941727175640473 17.942173448894486 6.573997005895018 0 0 -1
179 4 17.639971144023654 16.128951640648452 5.036027132850995 0 0 0
27 4 19.83046984544388 18.58302898033211 8.06691975191616 -1 -1 0
61 2 21.607874384810557 19.41662579235934 9.491247370003954 -1 0 -1
187 4 23.259220825157563 17.63469475665228 9.073192136383529 0 0 0
65 2 2.071643832284132 20.30886949730685 7.4258365432106155 0 0 0
104 1 2.1009463957375734 22.917365576301208 5.20826554700838 1 -1 3
87 4 1.1557445994579967 20.10583299919685 9.751793423707658 0 0 0
161 4 2.8876455607345486 20.58534151070303 4.983471932865304 1 0 0
85 4 0.5281595837958797 22.360912454869457 6.873590708566435 0 0 -1
75 4 3.3448111248860264 22.496518477706495 8.39542984539633 0 0 0
120 4 6.516061326979694 14.815158466581279 -0.16846019132760376 0 -1 1
113 4 6.68854627689191 22.48776422981409 5.4491184631980705 0 0 0
106 2 11.65404030890734 14.343378329051454 0.14267460898418954 0 0 0
49 3 9.912729064983191 21.23875902634211 9.785189453297427 0 0 -1
152 1 9.511615267851719 22.938039790690347 9.008765890040003 1 -1 1
91 4 12.517126035951154 21.50957959967554 7.738627133962664 0 0 -1
24 4 17.30058451852912 20.360841427735878 5.767487988306355 -1 0 0
92 4 15.800017900859368 22.44138364150553 9.112694868612316 0 0 -1
154 2 13.469296873953448 23.366334191488868 9.143965376511419 0 0 -1
57 1 17.333916064985992 22.095068238204348 7.437336345171377 0 1 -1
133 4 20.534871706263765 15.811856771533519 -0.12436791572410485 0 0 0
163 4 19.412938924911472 22.960059862643185 6.421564903448404 0 0 0
53 1 21.36158127059371 22.875909643058158 8.072629504155524 0 1 -2
12 1 24.64929372276889 20.74038571830873 6.026978641982144 0 -1 -2
178 4 23.119778016496113 21.030573275408635 8.027971504010932 0 0 -1
69 4 3.879306938943288 25.618088419855155 9.212770685081567 0 0 -1
99 1 2.3417024234441874 24.78561439540043 7.69831296354317 1 1 -2
83 4 2.935479541991478 24.912734075798156 5.338994811189894 0 0 0
168 4 0.13428475494542824 25.71442404747419 8.762802442468637 1 0 -1
96 3 6.5277509805286575 27.413956797034686 9.228037325703967 0 0 -1
80 4 7.506914014027992 24.469596906641044 8.585362035906295 0 0 -1
176 4 11.372216982584652 24.711444388336453 9.224419701992952 0 0 -1
146 1 15.302584125082618 27.132102104938127 8.288101630406628 0 0 0
181 4 14.10979298588026 25.12546758986008 7.4895105239992175 0 0 -1
126 4 17.366686903781257 25.853122035520734 6.310937307350825 0 -1 0
159 2 23.80825993165925 25.53885329297418 9.583379389465733 0 0 0
19 4 22.626449951939982 24.66163329451843 7.589303681697308 -1 -1 0

Velocities

102 -8.210173930504864 1.3077667802254154 -2.264713737834181
115 1.5806980840955245 -3.2440365348558426 5.17637335894635
31 3.015272605085255 2.50971149098615 -1.6813168275160295
147 1.0674288243356915 4.328159867150304 -3.0910010329128244
39 -2.0092554339142543 3.516684346840783 2.348124927017333
186 3.5616445437626467 2.5537562926118684 0.13768827628173055
114 -4.175243999866121 -2.0396600708518084 -1.7410872584606685
183 -1.1385302003053372 0.10646602027772191 -0.9956511351349866
162 -1.4203650967724082 3.8359218788755185 -2.0845309508007617
98 6.719831864275798 -9.347709111617997 -12.12302133210343
134 -4.626914806846037 -0.5851393509535818 -2.393809294419813
112 -0.6553663810851132 -4.085339605198899 3.9641491373352578
50 3.408910540990962 -0.1296731550541768 -6.237900668279123
42 -0.5363150276815363 0.35721147956434485 -0.5474782056353685
15 -1.6894913290887854 -0.7854222290730514 -0.9681690038671009
140 -3.803095332352489 1.4309415290987482 -2.690962676442131
148 -8.494735695914253 -7.712202125902021 3.5422076357342434
35 0.05101044467372294 -0.8797184018106676 -2.62411636221393
22 1.004318793700913 -2.1492060286906747 0.4856400319036497
121 3.0592787104932118 1.4092520490653901 2.4949135313153707
74 4.625320351901706 3.154561077551893 -0.46933260463777837
16 -2.0551933866487953 -0.5538771550122011 2.889275179414222
18 2.66515989604841 0.2990135090538124 1.10548139465984
51 0.2902163516273413 -6.44168883013604 -1.8629266782057092
103 2.270198420500526 2.6763344050125073 -4.238842849247294
47 0.20925618141254984 -4.720651589905835 -1.500484043872535
38 -0.5601373833937153 -4.056481376528153 -1.3422386108565474
20 0.7379570792630554 1.0235301757470034 -0.14698852849453808
129 3.6398617006433454 2.5315441542545845 1.8294112147701491
109 -1.5588755834226056 -0.04323799552054478 -0.27379854058591363
54 -7.963172447773102 -7.809695315803991 2.057502871819527
137 -5.183963720570132 -3.1989931670750487 2.97087296748417
184 3.803377153094863 2.9602436288093847 2.65845751094884
149 0.4030806706833011 1.654563087180384 -4.450845802336132
76 4.500283407399995 -0.8388606218237378 -0.605634322720528
6 -1.5019131026651602 12.242254770329192 -13.184996252162177
3 -4.175353381028567 6.416677831211485 -6.952279949467588
153 6.673203972223307 3.1919687812029127 3.42253040471508
86 -1.7923237404071588 -0.8042558161580563 -1.5036608967938445
30 -2.4947479720580312 1.7721052841431484 0.5005467214953064
118 0.22017735777712275 2.543464063753125 3.0410483643025916
82 0.6198030577655577 2.8524484097069362 1.133945583653118
160 0.3587626557310176 -3.324910147612401 1.0115701015611531
52 1.9722111281954435 4.473558647853068 2.1582138933779347
130 0.06875801680412182 2.961462926949728 -2.296139842361329
180 -3.1068359410671733 -0.8637390728686446 -1.6327336143311308
108 0.2680642388322692 2.4213675343576626 -1.7600244342785178
125 -3.1817260191357937 -4.638834025636922 3.752181188877355
29 -1.5745784294856486 1.1440501916594852 -0.8111680941932791
28 -0.5531541855982128 -2.4991579933905066 -4.10693768645211
192 -1.9407296278650847 -1.3271529694499107 4.431967454175595
14 0.3517843828164585 2.399260950565127 -0.007972209455783788
9 5.102777976837528 2.763824646012453 -5.648821851045416
151 5.163525801314914 3.227455436384238 -2.184649835432966
40 3.782251147113127 1.5383455492038713 1.383886782494843
68 2.011752703568764 -2.4068493739539663 1.6478270643622375
23 0.08357359708929397 2.5081639979042354 1.1903518655029108
58 -0.4765914322007703 -2.470698657920015 -9.21727048518637
64 -0.4564265298974563 -1.2196757980138266 1.5661759770358643
97 1.31853856175051 1.2413932379831736 -7.546652531287952
32 0.4218146236996175 1.0704865462095776 -2.573447866890481
101 -1.6768070524418062 1.3502585025096665 -9.316609059482058
171 2.3267411484541083 3.2248236065831675 4.730356855998041
139 -0.10818656023015426 3.9612128476215225 2.6187068570570027
136 -3.863931908956576 0.10477726881847312 -0.28882715889838445
172 -1.161283024840145 1.8879437078943087 -3.045382382360996
157 0.32712994125088884 -1.9633516769250046 1.1387928231582147
105 7.245731254095661 -15.688550399374405 -1.7392953562392757
124 -2.398178772374389 4.244378566636698 0.5733707392462966
21 3.486814783642106 -0.9699286326047017 -7.24827277418906
70 1.8088688371425143 3.5707321398204175 -3.603351851072587
10 -4.957252548102063 -4.133276750147098 10.629529003823603
63 -0.8585688303862301 -1.6248656734363929 -0.10102095340322849
7 1.502326920819315 1.5316457722839314 4.199756212949676
94 -1.7327452318316556 -0.17356818610821576 -2.019508044951724
79 -4.537612253694378 -1.2713179554941012 -4.324997438733123
88 5.432230987072046 1.7820400042369793 -2.804838113663787
156 -0.27675526874576156 -1.612347189964258 -1.6988319667506304
138 -5.417590030659141 6.731343005822969 4.636630917695916
191 1.3780862758907535 3.5881815287883594 3.214796003807097
141 -6.441783862618329 -2.2235850719332406 -1.1432221476673703
13 2.2296699217870697 0.12820255722067692 1.250912038863459
95 -5.917138062562499 5.746269674402876 -1.6354089981948148
166 1.6061828600231773 0.0580873805507696 2.728394689452186
127 -2.879568030969203 -1.8786164883228464 6.0503161727913115
5 5.2088963607491126 5.500874536058991 -1.5216386646381297
167 0.15209240115200232 -0.055579073061635856 -1.8644285777875367
131 2.799760663802611 2.219955416928439 1.2353476401029015
189 -4.180131094391663 1.7542141271740486 4.961178216901453
119 0.09364582034601433 -1.8332200215391958 2.699523116709542
66 -0.7719633701788533 0.9075252814140632 0.17421896850268323
78 5.143611755750695 -5.155071469599262 -2.294470118151228
84 -2.454243890458841 0.6280305417393678 1.3798121595138275
173 1.008584547332553 0.32216736542175783 -1.1103599832312028
169 -1.7878416391892182 2.4160245007822754 1.3902718175381186
158 0.9746073664914454 0.7029230165628679 -0.9327242377794547
135 1.934583239033716 -1.6621109956433684 -0.33740801721703245
150 -0.42434030246296084 -13.526751727882681 -8.547449444522195
177 -7.2530381314730175 1.6418282898500003 2.9472188751744
174 -2.3970832116812653 1.0733048062273787 3.94382107932583
155 2.0168227791229865 -1.9826615320928311 -0.9083814403417483
190 -2.275285830879659 2.94296129211651 -0.9915877745175208
56 -8.302256618127984 3.254470930832485 -0.7987751994763209
11 0.24533888145569088 3.323994338710708 10.371451227549361
43 0.18836308397017587 -2.962842518536349 1.3376255151587737
90 -2.872321096930907 3.716104842487316 1.4496537650728982
62 -0.33519949886173006 0.6926767028203872 -1.5024200565817818
81 3.1651818108330523 -3.809844179054243 0.3878423878307986
46 -0.03570842566471094 -0.5172621600194097 -4.046414744793001
48 -3.128265057572863 -4.033922538408184 0.5682880441820516
110 0.20564884269259961 1.4562274038367846 0.525949048850504
128 -4.442693671664852 5.076679605767922 -3.6700317053717657
4 -4.517070399080121 -3.0333427692451926 3.640348894406175
188 0.8525114234416404 -0.7566267492752057 0.533683615417025
59 -0.6489552872136566 -6.968394443932445 4.476661675679083
33 5.339730988943648 0.28960188448167323 -0.9156721795054854
17 -0.6686975627372975 -1.0754522746777604 -0.1008588605287683
77 -0.012925627666277027 0.9650492963324008 -0.3793682564099644
34 2.3468775614735957 2.9939403364072334 0.522976815885975
144 -2.4652717929158556 4.980458018214176 -0.2936486659115575
89 -1.5622362712455695 -3.1472997566830174 -6.235962806351795
2 -4.603574003203645 -3.8677253842965227 2.103981220644472
25 -1.0539075252432273 -4.467966309038776 -2.657896059211389
142 -2.0470258010107854 -2.9520700620053977 3.635832355935434
41 2.6888154368489445 0.6992966470698817 2.7955165107808675
170 -3.6724864622340725 -2.6070065555811244 3.217954402147374
55 7.927330269043348 -3.3966535528298385 2.1764490260091116
107 2.1557002512336942 2.1023185312783155 -3.4209955064355593
73 -3.7992229059709564 0.7458656466414395 -1.3139630237090052
117 0.6217550135060239 1.0973287401416216 3.2684433872371477
111 -0.8238475984611764 -1.5070430247244724 -1.9319942094055285
116 0.6781756553723659 0.3983511691392822 1.816622477524727
123 -9.454152250218604 -0.09193888247121965 1.6274944497405481
1 6.280470718275784 5.715273583660758 -1.7429581149405813
26 0.6987435876499958 -9.373377760711591 2.1485786801453752
182 -3.014984111131877 -5.2535866001540645 2.2462436316692487
60 0.5831656952997494 -8.277091696447972 -7.159195871938881
122 4.343847273108961 -0.17308448877161367 2.0226582895730676
145 0.7401687005349017 1.459536806570507 -4.832270483588016
67 -0.9624664987155408 2.723252765869659 -3.5520935450004587
8 12.783069879071965 -5.328198680073545 1.6679509065891445
44 -2.392391400118151 -3.1606012004594475 2.247340271658645
37 0.9819472984613864 2.000178964942589 -0.26181043771814067
164 -2.600331215576092 -1.447104846873693 0.05870706332239107
185 2.786969860051105 -2.6079421529913636 -2.6171049763139895
132 -0.6153198890744727 1.625491153366072 1.0923449208103106
71 3.5058343939117482 0.4264432705529284 -2.3484777484393855
45 0.22882972917795186 -0.7063432025534319 -1.9720457309130635
93 0.8895974920330373 -1.6706153129496482 2.295986800494871
36 1.5055787887609653 -2.7012490559826565 4.952205177701604
72 -2.3642794586218305 0.24804831664092544 -0.5835317604081154
175 -0.6223639387767738 0.4450329322700413 1.2675520971290566
100 3.6076260771900177 3.0587797942483563 -9.055054890556558
143 -3.608817970785159 -8.48344217218264 -8.541663229132402
165 4.566808916938133 1.0186325510736933 1.2778740930667232
179 0.6505198045405977 -1.6972089194058861 -2.107209485426908
27 3.7039477937648297 0.20203817669820717 -0.9377398259111682
61 1.909064420845759 1.3752000840454877 -0.3853090271913833
187 -0.14579350446764638 -3.9885103883889976 1.1838716843889419
65 1.0422626544566196 0.24350424742472843 -2.217889521217656
104 4.3907131702528766 6.860830270713384 4.017703226218816
87 2.7123953336009055 -3.361673545911652 0.7932623274023544
161 -4.057064841448771 3.300612480818949 2.2233533432384247
85 3.4253673717024196 0.19485381676684438 -1.9834742623505477
75 -0.7444243050218479 1.7411036951961218 2.637750973904142
120 0.30422623188050685 -0.6920869544909056 -3.31786458571611
113 -4.030128126800926 3.0087099767620225 2.1219532018896983
106 -0.4891039971298683 -0.2814357934607669 -0.9760717732435193
49 2.0864509002462013 7.0975003735285656 -1.2047857983706227
152 -1.0987578777439668 1.2358994289529643 1.949097211649189
91 3.131237652596722 0.8082455362025818 1.5378537460347452
24 1.3073641547896597 0.9243401155818943 3.3180555163976457
92 4.505290880835952 -2.7370857905465833 0.14596762573373556
154 -1.6905073347792632 1.0889926765385336 1.4584528019923582
57 8.861025725764623 0.22972694782104247 9.071505457745175
133 0.48947899466840317 -3.066194255346224 5.17966194058788
163 -3.131928608049142 -2.485993300710976 -0.9897857944418658
53 -12.182284676259773 -1.6964852324352073 -0.4756963907585433
12 -4.214138464810858 6.3288317935363985 1.6348148336130253
178 -1.0943278745280214 0.925347039693931 -2.5618047349572572
69 1.2540999003443059 -1.0302728328982647 2.754065838005803
99 0.8780715144079219 3.9799695798272987 -7.010683213822565
83 2.267950027182901 -1.5831761972331726 4.082890613443296
168 -0.15568115540179273 -1.1247727831594185 -5.3359180742176
96 1.042939139385068 3.3449508549422973 6.763270686355414
80 -0.03820272858221114 3.066129913328912 0.4279384306786623
176 -1.4530623013751192 2.248691778590398 0.8637965138451517
146 -3.014001450269826 -6.275526541192363 3.316820182761423
181 -1.2288582416398703 1.1069267382057055 4.320953159155834
126 2.4022577560342153 -3.5095976187838387 -4.285960756246914
159 -0.8627257131085709 2.5018342715338933 1.3481853488553466
19 2.2676551495314548 2.9885590195292715 -1.975727668903377
