LAMMPS data file via write_data, version 10 Sep 2025, timestep = 893, units = metal

192 atoms
4 atom types

0 24.909354 xlo xhi
0 21.815299402435457 ylo yhi
0 9.619301915937136 zlo zhi
0.40926158522763945 0.019207506470194195 5.704494503559394 xy xz yz

Masses

1 6.939999998214724
2 91.22399997653315
3 15.99899999588435
4 35.44999999088069

Atoms # atomic/kk

34 4 2.895108700576327 4.427179619803497 1.0517453052563759 0 0 0
4 1 7.107690656693291 2.7805970071434647 2.852925949269055 0 0 0
7 1 7.092240275663445 5.400315539253041 0.8131218701742233 0 0 0
23 4 3.4908492893690584 6.828891703210525 9.197726497712901 0 0 -1
46 4 5.918297103476354 4.806717683734187 2.779627431808016 0 0 0
1 1 13.054216399201907 2.4983199716645 2.8156710465766017 0 0 0
24 4 11.966200642418988 1.6055101481638303 0.8493262962362109 0 0 0
35 4 8.7568516334608 3.6966991352697645 1.352837697602448 0 0 0
47 4 11.307126020650353 3.8143087314352533 3.7381385518962036 0 0 0
128 4 14.951802014256458 3.7682824110706936 2.2398538740993326 0 0 0
101 1 18.1761269700953 23.553829751928987 5.710968008695835 0 -1 0
104 1 16.8809381818863 3.844852342278015 0.8331430727262699 0 0 0
118 4 18.04712163442975 7.81019377747769 9.22607549278722 0 0 -1
140 4 16.782549068531363 3.8298516700131704 5.583098769292872 0 0 0
99 1 1.839520524045465 2.9454527182857158 2.499399219508064 1 0 0
119 4 1.2725091878104697 22.56651912282416 2.6591264809571773 1 -1 0
129 4 21.512090451550453 4.791632382604748 3.676176277367886 0 0 0
5 1 24.940912462283304 8.121032211277836 2.3554706885080705 -1 0 0
9 1 2.70397464631275 8.715193520005828 0.977813284999756 0 0 0
16 2 3.230303665150046 6.2831457499573355 2.6703924989557093 0 0 0
51 3 1.8818558973213255 7.505831960310754 2.2719702017232017 0 0 0
39 4 4.790923082746332 7.628386689881133 1.2301689982811612 0 0 0
43 4 4.1842539227992175 6.867581587165063 4.8959295750431995 0 0 0
8 1 9.069627841662099 9.25952555782454 0.3920937199019312 0 0 0
17 2 10.391281059295345 5.88114575402467 2.6021876528805232 0 0 0
36 4 8.57487550483329 7.186778823550457 1.3975294913237393 0 0 0
40 4 11.763407142503814 5.329081961009013 0.5444048288967035 0 0 0
52 3 11.628188703182673 7.208716349361514 2.9987191637852737 0 0 0
102 1 13.241317676700604 6.961650496729172 1.8293034739541332 0 0 0
105 1 15.36770826757504 8.98371398859744 2.630841639406056 0 0 0
112 2 15.884449841474805 5.773892343397963 3.622092310665165 0 0 0
143 3 14.992572128189092 7.108360728917843 2.641018195651267 0 0 0
134 4 17.945662324732343 5.4088522844047064 2.2615251158914105 0 0 0
137 4 16.898457263248826 7.34440931401665 5.256182273905077 0 0 0
113 2 23.930848284829317 5.259334930339124 3.923327743941475 0 0 0
135 4 24.238454089298266 3.9503901569186373 1.7803650176763188 0 0 0
144 3 23.964082749292384 7.103105740841076 3.72777980113024 0 0 0
3 1 3.3242046157531466 13.01572987599757 2.3590549335369695 0 0 0
22 4 2.229490768172326 11.037841962847258 1.4809776577346263 0 0 0
27 4 7.459544586310292 10.864132019004378 1.5751385218010974 0 0 0
32 4 3.6436121676926474 10.45794362889987 4.614889948943193 0 0 0
72 4 5.161878432581329 13.146707666747348 0.6463291437204186 0 0 0
10 1 9.96075643814553 11.438428125675767 1.9889814007045163 0 0 0
14 2 12.385735712678496 10.59600355442135 0.13952516480364263 0 0 0
33 4 10.16406696126625 10.50410240422469 4.231043761138611 0 0 0
50 3 10.670768585185316 10.12942309446388 0.7608500688121416 0 0 0
73 4 11.202318072855618 13.04778112185722 0.7541767848727816 0 0 0
117 4 13.365539770593184 10.411439144255793 2.491663665878076 0 0 0
122 4 16.965078096860502 9.649517442400635 0.9197826479129483 0 0 0
126 4 16.393443977980603 10.815306710459746 4.381542994782814 0 0 0
164 4 17.79378042561553 13.172329144092103 1.6255266690466121 0 0 0
106 1 22.705899221988705 10.612593479295438 2.2944733685176986 0 0 0
110 2 24.995707129728288 10.69139596847332 0.12899517811229275 0 0 0
127 4 22.50603386748906 10.349393732730004 4.6401358806680735 0 0 0
142 3 24.15266062759236 9.679919290392647 1.497182687175224 0 0 0
165 4 23.68925059575032 12.667377954204404 1.4008300799457747 0 0 0
64 2 3.3313544968893183 16.619517551549382 3.146902740482707 0 0 0
80 4 2.028918967184195 14.896416249718191 1.676767249249092 0 0 0
97 3 2.1738472135216487 18.07683027784335 2.5387875139062763 0 0 0
57 1 6.147893154916193 14.938911769217363 2.067188587075546 0 0 0
86 4 5.001450849833085 16.890479647832237 1.3613644450335953 0 0 0
90 4 4.6682948191408915 17.829663618316033 4.821770127896391 0 0 0
92 4 4.642670560294213 14.380883259937892 3.836623581644885 0 0 0
53 1 12.480175755058056 14.647167172012615 1.849454943982367 0 0 0
65 2 9.929630223890197 17.08730195072298 2.792770933577012 0 0 0
81 4 8.476456673911686 15.044226182409817 1.7234624327170691 0 0 0
87 4 11.492041645196512 16.5476355643276 0.7021258962004312 0 0 0
93 4 11.365428608534456 15.171579377992904 3.8845604455233906 0 0 0
98 3 11.175564366057204 18.454316731827355 3.2665729370640464 0 0 0
156 2 15.609381764790157 16.864768765541076 3.2096931024746373 0 0 0
175 4 14.798321089136369 14.679591801910686 2.4725691979387343 0 0 0
191 3 14.44537298931976 17.95821726846014 2.3098951972511568 0 0 0
148 1 19.1003677397231 15.447960210433907 1.094725995146727 0 0 0
181 4 17.39807157567949 17.042954607589028 1.4656354735620603 0 0 0
185 4 16.914626996575063 18.951835073985897 4.321996435191976 0 0 0
145 1 24.925594067960343 14.223848667810447 2.7841133836622074 0 0 0
157 2 22.2098753243067 16.681840769753812 3.814066339791498 0 0 0
176 4 20.756988961412 14.806625755752599 2.5167733811093655 0 0 0
182 4 23.718055293613396 16.324599578275286 1.6847520934269697 0 0 0
188 4 23.372477404451832 14.558989994688018 4.631943362045906 0 0 0
192 3 23.565630160604268 17.751340393063597 4.633707048017591 0 0 0
55 1 25.178366835967715 17.672150674657143 3.3438452902003357 -1 0 0
70 4 4.087667124302286 20.757194510368397 2.6341909661968255 0 0 0
71 4 7.208016786569266 22.390425592709825 1.6134705411460866 0 0 0
78 4 4.336750790713202 23.9510125079763 3.753573921132337 0 0 0
58 1 10.524647517418174 20.048606471492015 2.151780027254545 0 0 0
79 4 10.834308736914075 21.77041799641263 3.8681319299239143 0 0 0
83 4 8.617366800704067 18.738226792963147 1.5147550552724436 0 0 0
96 3 12.107507846607842 20.152177262079757 1.0629980304455753 0 0 0
62 2 12.964147960938263 26.890797631833074 9.39936021733366 0 0 -1
147 1 12.61853174635509 18.472783147924147 1.9174074736183366 0 0 0
150 1 15.485629203111163 18.970364266625406 1.0004114089378373 0 0 0
162 4 15.09424907143541 21.10810037503314 2.120406572499927 0 0 0
163 4 20.806756417596745 1.6609815537938089 1.5118933822577427 0 1 0
168 4 18.661179942278853 20.48004417803046 0.49208406188559656 0 0 0
173 4 17.78226939483199 22.4242459863527 3.6281681839043114 0 0 0
149 1 23.400140320601913 18.856606301258896 1.0113616950154547 0 0 0
151 1 23.399032177200514 19.593773853754502 3.8786692134968512 0 0 0
154 2 1.5417242921832268 19.94894165972076 2.110856824066372 1 0 0
174 4 23.07287498621453 21.87365821504891 4.761099888521323 0 0 0
178 4 21.312920383657058 18.66408394618882 2.620930947477264 0 0 0
190 3 24.641934721419453 19.43751971051785 2.400884868324083 0 0 0
13 1 9.977254381350832 3.8806927308033448 5.746211025560851 0 0 0
109 1 22.09796407944327 25.751542506302297 7.071370272441812 0 -1 0
28 4 1.518046215565797 25.716944540206434 9.340697570815589 0 -1 0
30 4 1.556657842598292 4.787806786138048 4.180215486017027 0 0 0
44 4 1.0306006412472952 8.77789050828269 6.123913585462467 0 0 0
11 1 6.471431452918148 6.2896263902507235 4.512120033932984 0 0 0
15 2 5.518503784003273 5.701743227850756 9.310732753652848 0 0 0
20 4 5.6837970030247496 25.263786048673545 8.82774638288289 0 -1 0
29 4 6.833651463555101 6.574519170845037 7.564765837825738 0 0 0
6 1 11.973936328346921 8.86578981906411 3.9182044283948785 0 0 0
21 4 10.848666881201902 5.266860909887362 7.718913304068909 0 0 0
31 4 8.890925900674693 5.96138018484979 4.6924699565506724 0 0 0
107 1 14.835895392281387 7.394926393397847 6.460273877966429 0 0 0
123 4 14.749147203693473 6.293958067783691 8.549306882998556 0 0 0
124 4 13.873291442088998 5.55741078956748 5.258595111038603 0 0 0
138 4 13.583262242835161 9.339889017262994 5.883365020919692 0 0 0
111 2 19.74070045790937 6.047504139929909 9.388738826241932 0 0 0
116 4 19.94567829120574 5.930855252262673 7.014677967902306 0 0 0
103 1 23.633120194432003 8.274196895037347 5.234391096383705 0 0 0
125 4 23.779842825450725 4.944980040885547 6.337671952290197 0 0 0
18 2 1.812043260078339 11.054894651558055 5.99979442683664 0 0 0
41 4 24.433049037277346 11.663801513903138 7.208796620671778 -1 0 0
48 4 1.221012123182104 12.748159613737284 4.410675328578472 0 0 0
37 4 3.1716694898156494 11.802111126579682 7.727028321248123 0 0 0
42 4 6.896036986313092 10.62079539682246 8.020868606437547 0 0 0
45 4 6.933489099144814 9.176131892310908 4.758661376297519 0 0 0
49 4 8.142129857079908 12.806852161071669 5.6251327296479054 0 0 0
2 1 10.615006378297316 9.043580744882645 9.586741791441757 0 0 0
19 2 8.363483354412114 10.502671624689546 6.066224797564019 0 0 0
38 4 10.054616476540252 9.238803552469335 7.288364841662696 0 0 0
114 2 15.11416415504034 11.417533060579919 6.287377834819024 0 0 0
130 4 16.486390503739255 13.269900550968497 6.790387545428485 0 0 0
141 4 13.103079539714479 12.67691940307594 5.8509455849516225 0 0 0
132 4 15.621664666587023 10.280976871623897 8.34626053601208 0 0 0
136 4 21.472101815791678 11.03762629718929 9.434694049522644 0 0 0
139 4 19.48440068923006 9.952969558460346 6.56283990835997 0 0 0
100 1 21.86146718761085 3.8047128694944075 1.542751739618565 0 0 1
115 2 21.653762368275068 10.672849880208615 7.022542826108403 0 0 0
131 4 21.18675584331133 13.043915797255169 6.723351671418793 0 0 0
133 4 22.68902762637863 8.468199126181533 7.487980580554354 0 0 0
25 4 1.2187570079042218 14.437300915904562 8.723788755243332 0 0 0
59 1 24.569257802634215 17.40592122794198 6.2963590651818215 -1 0 0
74 4 1.0235905487096182 18.15194479849635 8.073156471482957 0 0 0
76 4 1.5512189548214577 16.20828924947417 4.899344471750164 0 0 0
26 4 7.85620685186533 15.347706481956653 8.043883512472219 0 0 0
60 1 6.831844539911591 18.68025656951743 5.07156874691421 0 0 0
63 2 6.397939746055635 17.04894672524697 9.028190669002118 0 0 0
68 4 4.4454269929114245 16.076344139218435 8.213768708944741 0 0 0
75 4 7.288187806272844 18.74750200908303 7.632670304232805 0 0 0
12 1 12.803286941578342 15.119986150629455 5.78284639449883 0 0 0
69 4 11.807017904620851 16.68378117332448 7.275529381347996 0 0 0
77 4 8.512344662666287 17.054799722958304 4.7821186054412435 0 0 0
120 4 13.340021045179332 14.12094238282005 9.22046615254884 0 0 0
152 1 13.869848443237652 18.00481361957776 7.0487120926020745 0 0 0
169 4 14.372480116550568 17.962611235221075 9.270238481654895 0 0 0
171 4 14.872756288492816 16.36009877201145 5.5687768608400905 0 0 0
121 4 20.2899949784392 10.03909630054612 1.5986593042912807 0 0 1
153 1 19.828245853834964 18.391100778884493 6.88930370308981 0 0 0
155 2 18.620993374062355 11.328452423105377 0.4056675524743198 0 0 1
160 4 17.844766944267963 17.1015348678707 7.749767611661626 0 0 0
170 4 20.552632179671473 18.420990636642117 9.143887653894156 0 0 0
108 1 23.438943632019022 13.902187128147082 6.969864093471655 0 0 0
161 4 23.18870257629845 16.066234756396877 7.980497494415501 0 0 0
172 4 20.443386419359573 16.61610024841395 5.512450700306598 0 0 0
66 2 3.062478653915488 22.093796578090377 4.7122220686849765 0 0 0
88 4 1.5638151312444184 20.103388356316763 4.91099033851861 0 0 0
84 4 4.597053575027414 21.33410368055952 6.322770484113022 0 0 0
89 4 8.179204920782823 22.241508344480895 8.057991575422037 0 0 0
54 1 9.84094208603311 20.719497012640737 9.327336686393334 0 0 0
56 1 11.590726397800157 19.599067611001413 4.74202641947141 0 0 0
67 2 9.382854672534902 22.15158889593734 5.968146610746104 0 0 0
85 4 10.550771788806273 20.11746572531064 6.906340611153859 0 0 0
91 4 7.67215148261688 20.873738387636557 4.722995005631481 0 0 0
158 2 15.818513999659856 21.287660130365598 4.547777532485367 0 0 0
183 4 14.325677848757875 23.185091151825464 4.75968167431766 0 0 0
186 4 13.884423657482662 19.90285990279445 5.5439743203275675 0 0 0
179 4 16.75982911641689 21.734583990033816 6.772850866730394 0 0 0
184 4 20.550618800248802 22.07729373974796 9.06395211398903 0 0 0
187 4 20.106322833624166 20.536989455469783 5.967322128068305 0 0 0
146 1 22.188733864182474 14.499773404490654 0.5600231737504797 0 0 1
159 2 21.896996601292926 22.013034740374668 6.906388418355403 0 0 0
180 4 23.190174818722095 20.189604856269366 7.869040265575645 0 0 0
94 4 1.716999815671586 23.463096628956553 6.088786812847246 0 0 0
95 4 8.318637676638586 24.281298833375534 5.088975121896059 0 0 0
82 4 11.18383956591994 23.615506648914277 6.758139711066623 0 0 0
61 1 15.053234153696655 4.3953134455055 6.9527879835410715 0 1 0
166 4 14.321271595757835 24.856760077945207 8.555921935802806 0 0 0
167 4 22.216112940445445 26.450914155483705 9.465830796668893 0 0 0
189 4 20.514208512135845 24.035750534001625 6.149478994735271 0 0 0
177 4 23.431912674671068 23.686808529012836 7.878997647647942 0 0 0

Velocities

34 0 0 0
4 0 0 0
7 0 0 0
23 0 0 0
46 0 0 0
1 0 0 0
24 0 0 0
35 0 0 0
47 0 0 0
128 0 0 0
101 0 0 0
104 0 0 0
118 0 0 0
140 0 0 0
99 0 0 0
119 0 0 0
129 0 0 0
5 0 0 0
9 0 0 0
16 0 0 0
51 0 0 0
39 0 0 0
43 0 0 0
8 0 0 0
17 0 0 0
36 0 0 0
40 0 0 0
52 0 0 0
102 0 0 0
105 0 0 0
112 0 0 0
143 0 0 0
134 0 0 0
137 0 0 0
113 0 0 0
135 0 0 0
144 0 0 0
3 0 0 0
22 0 0 0
27 0 0 0
32 0 0 0
72 0 0 0
10 0 0 0
14 0 0 0
33 0 0 0
50 0 0 0
73 0 0 0
117 0 0 0
122 0 0 0
126 0 0 0
164 0 0 0
106 0 0 0
110 0 0 0
127 0 0 0
142 0 0 0
165 0 0 0
64 0 0 0
80 0 0 0
97 0 0 0
57 0 0 0
86 0 0 0
90 0 0 0
92 0 0 0
53 0 0 0
65 0 0 0
81 0 0 0
87 0 0 0
93 0 0 0
98 0 0 0
156 0 0 0
175 0 0 0
191 0 0 0
148 0 0 0
181 0 0 0
185 0 0 0
145 0 0 0
157 0 0 0
176 0 0 0
182 0 0 0
188 0 0 0
192 0 0 0
55 0 0 0
70 0 0 0
71 0 0 0
78 0 0 0
58 0 0 0
79 0 0 0
83 0 0 0
96 0 0 0
62 0 0 0
147 0 0 0
150 0 0 0
162 0 0 0
163 0 0 0
168 0 0 0
173 0 0 0
149 0 0 0
151 0 0 0
154 0 0 0
174 0 0 0
178 0 0 0
190 0 0 0
13 0 0 0
109 0 0 0
28 0 0 0
30 0 0 0
44 0 0 0
11 0 0 0
15 0 0 0
20 0 0 0
29 0 0 0
6 0 0 0
21 0 0 0
31 0 0 0
107 0 0 0
123 0 0 0
124 0 0 0
138 0 0 0
111 0 0 0
116 0 0 0
103 0 0 0
125 0 0 0
18 0 0 0
41 0 0 0
48 0 0 0
37 0 0 0
42 0 0 0
45 0 0 0
49 0 0 0
2 0 0 0
19 0 0 0
38 0 0 0
114 0 0 0
130 0 0 0
141 0 0 0
132 0 0 0
136 0 0 0
139 0 0 0
100 0 0 0
115 0 0 0
131 0 0 0
133 0 0 0
25 0 0 0
59 0 0 0
74 0 0 0
76 0 0 0
26 0 0 0
60 0 0 0
63 0 0 0
68 0 0 0
75 0 0 0
12 0 0 0
69 0 0 0
77 0 0 0
120 0 0 0
152 0 0 0
169 0 0 0
171 0 0 0
121 0 0 0
153 0 0 0
155 0 0 0
160 0 0 0
170 0 0 0
108 0 0 0
161 0 0 0
172 0 0 0
66 0 0 0
88 0 0 0
84 0 0 0
89 0 0 0
54 0 0 0
56 0 0 0
67 0 0 0
85 0 0 0
91 0 0 0
158 0 0 0
183 0 0 0
186 0 0 0
179 0 0 0
184 0 0 0
187 0 0 0
146 0 0 0
159 0 0 0
180 0 0 0
94 0 0 0
95 0 0 0
82 0 0 0
61 0 0 0
166 0 0 0
167 0 0 0
189 0 0 0
177 0 0 0
