LAMMPS data file via write_data, version 10 Sep 2025, timestep = 20000, units = metal

192 atoms
4 atom types

0 24.909354 xlo xhi
0 21.815299402435457 ylo yhi
0 9.619301915937136 zlo zhi
0.40926158522763945 0.019207506470194195 5.704494503559394 xy xz yz

Masses

1 6.939999998214724
2 91.22399997653315
3 15.99899999588435
4 35.44999999088069

Atoms # atomic/kk

144 3 0.7868645092324752 3.631856598658954 3.788436758529741 1 0 0
16 2 2.826831509954748 3.645945161358736 2.939928916105262 0 0 0
51 3 1.7883631936097601 2.497014547637778 1.555165457990564 0 0 0
60 1 2.1586033363184054 1.6280968477361193 0.08541421593507148 0 1 -1
3 1 8.176667874692795 2.1527711657073936 0.22650608453635224 0 0 1
46 4 5.015204957535383 2.821516779285478 1.9357661570081715 0 0 0
27 4 9.08327442846021 3.823611282941417 2.605287412947578 0 0 0
162 4 15.443877195143324 2.875873154230768 4.502373331446835 0 1 0
173 4 13.10241171198776 3.045120685544579 1.9777482962141801 0 1 0
104 1 14.555235762955997 1.2101734106243849 0.255471386447569 0 0 0
168 4 18.562488047055982 3.2694601072555356 1.4871539962877236 0 1 0
111 2 19.15462005682277 1.1851230396681889 0.6888587648373308 0 0 1
105 1 20.364617184354522 3.5097579848410105 3.370921527527078 0 0 0
125 4 21.450935141399626 0.8831986557298724 1.1679152501783199 0 0 1
113 2 24.732599047367923 2.7050646839321093 2.5003557530902274 0 0 0
167 4 22.352399767691306 4.065229051898678 2.3354711323874366 0 1 0
47 4 3.7690182193420196 5.928254652014277 3.3502691759046166 0 0 0
103 1 1.2411391553353264 6.027809011924296 4.540554898990356 1 0 0
45 4 2.655805993309109 8.794683104314213 1.340137936772824 0 0 0
129 4 0.47060846180137916 5.33384417669012 1.2962927561114999 1 0 0
72 4 7.147973168475422 6.447876091385981 0.31579759185404965 0 0 0
148 1 5.4565690725467295 7.847543613316128 2.04186056966422 1 0 0
42 4 6.48605912324843 9.085057166891369 4.588881330195311 0 0 0
21 4 9.953145962652453 6.8185399535619 3.2936183086376425 0 0 0
52 3 12.040903886474522 5.315240996779105 0.8059179212330221 0 0 0
112 2 11.333384901684823 4.882171642949792 2.5847212286061634 0 0 0
143 3 14.584734272023223 7.255615110218423 0.0691128744773443 0 0 0
137 4 13.286725817203543 5.4862459970287505 4.661736042837474 0 0 0
114 2 15.737030077116394 8.460379536996829 1.2583634943884938 0 0 1
126 4 16.04672101975998 6.595118188799905 2.7386746457989792 0 0 1
4 1 19.99047025555141 9.061312948687242 1.6885786851492328 0 -1 2
109 1 18.914932748923174 8.307964825866707 4.602616791081853 0 0 2
136 4 20.116426337793136 6.555111586690172 1.6101343940725588 0 0 1
1 1 22.594885057248376 6.45027348826145 3.792563313636097 -1 0 -1
56 1 22.183943508462402 7.4754411996446795 0.8155726179616777 0 1 0
134 4 23.87545807046986 8.908341127053056 2.6017060983077176 0 0 0
53 1 0.5342525397556441 9.210902102506962 1.3356803509640331 1 0 1
7 1 0.4289881568526023 13.596468541941334 4.782278328853104 0 -1 0
84 4 0.38131301404861756 11.432394958001334 0.6308956005744127 0 0 1
44 4 2.907177610542697 12.162343388822434 1.4301763946910855 0 0 0
142 3 5.540760391771324 9.664071705257284 1.4969889521685091 1 0 0
110 2 4.566647709058039 10.7890480418852 0.19053011922672797 1 0 0
87 4 12.363444761813254 12.80603367768477 0.37422578216170005 0 0 0
36 4 9.719371292876554 11.208146549477313 1.7336519907326589 0 0 -1
14 2 11.009036084411724 13.126443184681346 2.5708779936475943 0 0 0
145 1 13.032908114581273 10.756686062120242 4.578899532218097 1 0 -1
169 4 13.333741690363201 12.740099954270935 3.7115032626502034 0 0 1
132 4 13.399954480157216 9.696794940228045 1.9989838760329282 0 0 1
54 1 18.468262879685312 11.891991411577214 4.530235383454861 0 0 0
176 4 17.993183802562527 13.092285545128801 1.7993615189450625 0 0 0
130 4 16.892400953282753 9.871721846147246 2.8043459085120537 0 0 1
127 4 20.160682655503035 10.73285278940671 2.9737480631487507 0 0 0
94 4 21.68365578787945 13.545412435217955 0.8765405370100202 -1 0 1
177 4 23.746559650996197 12.25817074766141 3.373158136636463 0 0 1
153 1 22.43281638381478 10.19213812577397 4.283138815166228 0 0 1
66 2 24.127306370299387 13.446636313974995 1.2571598699564204 -1 0 1
88 4 4.215156205649808 16.55445864436178 3.1644772438712003 0 0 0
92 4 3.685004136146016 15.11586250962049 0.3730127912148445 0 0 0
80 4 0.9798012750003333 14.525495179547654 3.1574623202143264 0 0 0
149 1 3.9557333091851463 14.246061698434088 2.5642509603787995 0 0 0
86 4 1.4474968635063434 18.11727289801428 0.784402557147761 0 0 0
154 2 5.329836163651967 17.061454734166176 1.0449089771817497 1 0 0
97 3 7.102190379681363 16.96681197080757 1.8164177469759462 0 0 0
64 2 8.175969924944587 15.799024489857748 3.01319701835849 0 0 0
120 4 6.80806442044093 13.905724525921478 2.148764753872606 0 0 1
50 3 9.687295260559445 14.529526032973394 3.3630082891015145 0 0 0
82 4 9.987571365396418 15.25204481214005 0.41847557911735506 0 0 1
166 4 9.910127776432686 17.579144331606475 3.985133802753686 0 0 1
192 3 15.786549490536588 15.77980433310464 1.2340073401977396 0 0 0
156 2 14.900191578690986 18.030780036691596 1.2468223791360649 0 0 0
185 4 13.464882881851116 17.76787639690751 3.3148919349268553 0 0 0
69 4 12.721415325593389 16.858748120207032 0.19239875044210422 0 0 0
157 2 17.69891193638152 15.281576658191502 0.9386090656902294 0 0 0
188 4 18.730824575732175 16.724733374565925 2.640899141254466 0 0 0
55 1 20.97730641441484 16.66347446816634 2.3366762375852788 -1 0 0
163 4 20.990064714636855 15.105188765739591 4.5607045085450695 0 1 -1
2 1 17.228679979312332 16.67006542161905 4.747550623537214 0 -1 1
74 4 23.865664496564587 15.800383660939646 0.7885937635472541 -1 0 1
15 2 3.0263113406883835 19.900426328030814 0.4049488128818927 0 -1 1
71 4 2.8542366442476252 20.722043277033862 2.7109864596707425 0 0 0
187 4 0.4840796438117119 22.401874020863815 2.9091407928181496 1 0 0
189 4 0.44516147890430163 19.915451568502196 4.592380148272341 1 0 0
58 1 5.548553705629878 21.952987085384116 2.423718301265097 0 0 -1
190 3 4.63926594863839 18.82253565101658 1.0717799129270316 1 0 0
89 4 8.154214874390323 22.06513962910418 4.1522394608915905 0 0 0
43 4 7.715709577819326 22.197042688199776 0.8593932056920933 0 -1 1
96 3 10.843983636603484 20.718542236627485 1.8167584974471214 0 0 0
65 2 11.751508158633381 18.964199763124785 0.9902328202932666 0 0 0
150 1 9.811681687650923 20.167434628869714 3.4636796677456725 0 0 0
77 4 8.5744138907241 19.16344614492392 0.6873187599127513 0 0 0
62 2 10.10768038798696 21.328974851120577 0.07352907552294821 0 0 0
171 4 15.959051014548573 19.597425326341163 2.5597780034010307 0 0 0
140 4 14.69820039510684 22.03461785165245 2.5415491566160546 0 -1 0
191 3 13.60262339994688 19.453420988125107 0.7256730076097986 0 0 0
123 4 17.816711544771003 19.063360829315318 4.765390548719323 0 -1 1
13 1 20.95369620246145 20.44429732677345 1.2173485552430674 0 -1 1
119 4 18.91500866851728 21.74356679176146 2.8303387029875964 0 -1 0
172 4 22.682886756363988 19.055375379188526 2.0513531622747947 0 0 0
151 1 23.723246596785135 19.088048068789625 0.21789193277658123 0 0 0
28 4 3.480886012098095 23.620750726448833 4.349368428648888 0 -1 1
158 2 13.946924602875217 23.244960967052428 4.422568320711526 0 0 0
39 4 22.72036454906552 23.434022078131342 4.70710814343553 -1 -1 0
61 1 8.49985081158947 3.6212871063300596 5.179529838584984 0 1 1
179 4 11.778709016056679 3.094108490804902 4.920236120789749 0 1 0
128 4 19.473267685323997 3.4828039356413463 5.549533412531759 0 0 0
32 4 1.603564401450387 8.625745695520271 7.019130789988076 0 0 0
20 4 4.177656331283574 5.699848291572175 8.812904790685764 0 0 0
38 4 7.118239365099815 8.55816668528776 7.470204271463166 0 0 0
19 2 8.104083677416554 7.627485276760929 5.57465222460781 0 0 0
29 4 6.788664270516642 5.7516417626743355 5.203664294811492 0 0 0
183 4 9.196032083261652 5.6669370296190085 6.939051154159658 0 1 0
24 4 10.391249191048106 7.471601420833656 9.242787049558151 0 0 -1
76 4 10.32621231430471 8.645892719939383 5.594683135905204 0 0 0
107 1 12.496983009124538 7.1013348927677455 5.950027405642648 0 0 0
83 4 13.694971276841919 5.769023094098198 7.992322757348983 0 1 -1
35 4 14.769459370997534 8.47239550413486 5.209290229588624 0 0 -1
108 1 15.928891073014986 8.828071337371183 7.170997815438646 0 0 2
133 4 16.616120857558634 7.450500908216101 8.951765941840781 0 0 0
12 1 15.620744378722115 5.627510211483667 6.186767243504214 0 1 -1
139 4 19.97883997613568 8.02987096231485 8.457961343839774 0 0 0
146 1 19.25958703475608 5.81731269395514 6.413288596503127 0 0 1
118 4 17.494207335303447 6.5022549917239285 5.566428061822105 0 0 0
11 1 23.38603008179743 8.484179530076265 6.726294887673072 -1 0 0
34 4 24.045879824159748 5.669008660432474 5.4108019910440825 -1 0 -1
135 4 23.866099279878433 8.687945650445986 9.076936618498404 0 0 -1
116 4 21.298504430751308 8.012262969270129 5.25676095536498 0 0 0
18 2 1.2619705535803838 10.767040462716729 8.37472249522307 0 0 0
165 4 2.0456402080314837 11.862224482647346 6.268092841645457 1 0 0
161 4 1.0282065485123333 13.243743793739648 8.59554542050689 1 0 1
48 4 3.55756647109027 10.760958358061238 8.832075336176993 0 0 0
5 1 3.8129502557848154 13.007266180355202 8.975890651332755 0 0 -1
75 4 6.294069915412896 11.647961597315081 6.553215160837777 0 0 0
63 2 8.285033530863268 12.092280111004522 7.669773538724884 0 0 0
33 4 9.738225706571379 10.42533713075564 8.631039568645903 0 0 0
68 4 9.520439394322116 11.68759501824436 5.060430570398051 0 0 0
31 4 11.905819055806953 12.860413201208905 6.787328434452608 0 0 -1
40 4 13.824652363482336 10.069298455648521 8.355758051502953 0 0 -1
17 2 12.984167575668856 12.294886851894521 8.954160827052537 0 0 -1
138 4 16.322502171332697 12.80451115616965 4.848192558035873 0 0 0
102 1 16.229926068474033 10.506771567063778 4.837484785030887 0 0 0
124 4 18.35604887567772 10.473632483632683 6.40929648802574 0 0 0
131 4 19.62223671079661 13.69069359485286 6.993693457962574 0 0 0
100 1 20.496357728076376 11.338408586796444 6.978949603566099 0 0 0
25 4 22.68223086816258 10.868285703661043 6.540628881291562 -1 0 0
174 4 0.5084788921468767 17.25408069860186 7.118596557403784 1 0 0
26 4 8.37422630899359 14.27701419984493 7.522184741126892 0 0 0
49 4 6.4779786945678515 15.22102796912582 4.813210063089468 0 0 0
78 4 4.345758978623947 15.298465824534345 7.531330974001358 0 0 0
22 4 6.173252033025079 17.833293343972866 8.979232977852734 0 0 -1
117 4 11.814762712432922 14.623897284614815 9.528294209422766 0 0 0
57 1 10.008332910931504 15.201048868228693 6.020239938847686 0 0 0
73 4 12.295544065537715 15.845839766488291 5.975124626280876 0 0 -1
181 4 15.889055639960349 16.215729634516418 6.616413575321843 0 0 0
59 1 13.437330617783262 17.937496908942208 5.828989417601892 -1 0 0
10 1 14.142315605300853 14.749172118693851 5.748907335214029 0 0 0
141 4 17.348617083688413 14.994870541201282 9.253575160943075 0 0 0
93 4 21.083899815943397 17.976869818087273 6.653083227361165 0 0 0
115 2 21.154628371290638 15.697515446817658 6.782892848588375 0 0 0
37 4 23.512910124265023 15.064711014789609 6.385836314049816 -1 0 0
41 4 21.609067441824934 15.54733184759858 9.034680636695862 -1 0 0
180 4 3.595169693785354 18.617626818994864 6.66136038656015 1 0 0
184 4 1.2033534633428544 19.64311993219165 9.240274697473316 1 0 0
159 2 1.4969713162138278 19.45644903719588 6.7930868044057116 1 0 0
70 4 1.6503887157865709 21.897855079787437 6.612115027848321 0 0 0
106 1 1.9097036214974743 21.87198031392357 9.133869395121192 1 -1 1
91 4 5.011464040803261 21.406771358335142 5.3379500668495785 0 0 0
67 2 7.098245158292222 22.005399270101083 6.212636748009985 0 0 0
85 4 6.530273645430985 22.223647587441445 8.408606977453786 0 0 0
79 4 8.227630969054648 19.902777022136632 6.848737308244433 0 0 0
152 1 9.589996111413589 21.215155191736496 8.09287594500288 0 0 1
175 4 12.765456506980563 21.34607980342013 5.430964190265341 0 0 -1
8 1 13.625435688624018 20.436718621286992 9.08696561605415 0 0 -1
81 4 14.673499197848853 19.553817907705348 7.400352869090312 0 0 -1
6 1 16.60052050001629 18.685435635966858 7.00746632703163 0 0 -1
99 1 19.627491240252454 19.555047701463103 5.834890394792032 0 -1 0
164 4 18.21117150294505 20.464878478544115 8.276729972955543 0 0 -1
160 4 20.23371137636513 21.886214974827745 5.792983492448304 0 0 0
122 4 23.125520966528306 20.577021011229885 7.043864752855783 0 0 -1
155 2 22.031652457679026 22.799221855887442 6.91035473747501 0 0 0
23 4 0.8594622480424627 27.43006625536223 9.509546388411719 0 -1 -1
101 1 1.07533823530447 23.5239081571055 5.146382102443015 1 -1 0
30 4 3.5590697608945687 24.27140019786358 8.018121646469115 0 -1 0
90 4 6.5807447033677455 24.324746867740426 5.337734575224989 0 0 -1
95 4 10.017944447452042 23.14730254382989 7.086810854321341 0 0 0
98 3 11.372848862925721 25.392302513597816 8.923165570893284 0 0 -1
186 4 14.612421651151681 23.523607688040887 6.9287707429724845 0 0 0
147 1 13.029430509040631 25.870727403031506 8.287297099547116 0 0 -1
178 4 19.978470535759726 26.511212364087612 8.631778827750232 0 0 -1
9 1 18.544863758832292 24.422009898550577 7.284223334048828 -1 -1 0
182 4 17.102471190218235 24.040921216459672 9.414381285225105 0 0 -1
170 4 20.408200555446882 23.332433938955134 8.897778899629678 0 0 0
121 4 23.512107508906837 24.504462563755375 7.661129572053731 0 0 0

Velocities

144 7.102849644322544 -2.349082682856035 -3.484743232287535
16 3.8737273741669203 -2.63450132281218 2.968005194575501
51 -1.7423357467049634 16.108671351138582 -6.361104641368044
60 -14.01759277667168 5.156045635107962 -12.515257148771227
3 0.822707382743813 -19.573059789662544 2.118380619581782
46 -9.898427201992433 2.4497999185390267 -9.012263014140139
27 -11.070064186360986 3.021111758299548 -7.1698387136986055
162 1.1451896364720622 0.4479537130872164 -0.3984768390437903
173 -5.582255897935147 -0.2836655495892856 2.16429618010081
104 -8.554356499441623 9.823568483183239 25.02432701140621
168 6.6133031139688505 9.074490071231624 -4.60660174763783
111 -6.894573829916949 3.5380620697274856 -0.534256659871883
105 -19.77601595693804 12.525124056859882 -10.044216172656187
125 -2.1621648087548393 1.5011985826652194 -0.49883629602857266
113 3.8662616045850444 0.8981119328507442 -0.8651869133428238
167 -0.5942884084068449 4.204353670208912 -0.06432450732253478
47 -11.261205365820134 6.0865586545538735 -1.9109326879816517
103 16.04987441492907 3.771836486742131 -0.7576869524475064
45 -7.177001448365894 5.008395290422941 -2.5114560149798777
129 0.35754342556269236 1.0635736323524405 1.7766768174538923
72 2.745089074119641 4.249353585985046 -8.02815311173883
148 -0.6793366394738647 -10.794517316508378 3.31870774454293
42 7.165333964155742 -4.095031294149775 -13.374898763838015
21 -5.700318807053219 -2.213146744983888 7.253735561105188
52 -6.775972917286791 17.961396956569992 -11.570267910623366
112 8.779889939461318 4.699428042150219 1.7049762171778422
143 -2.4265843573444075 10.151232905934704 -1.5299995636815125
137 -2.358420621183883 -12.390066907776147 -0.8197293509230217
114 0.9511996696245868 -1.081388594830471 0.6459081586136619
126 -10.099759905522465 -1.508518330330978 5.946505114871733
4 31.614603107596793 -6.778499029039726 3.451434320907479
109 8.550984584177039 4.576954891902544 4.042607892190758
136 -7.121181076922757 -10.005471473196744 -4.114392486056563
1 -15.172953109879336 16.190247622195727 9.783457593481174
56 -14.451673121818011 15.619018567846698 21.164213060798495
134 2.515877360631589 -2.994372439459902 -0.8961933585373348
53 -2.067904800283759 -10.66402111610624 1.1199697605156818
7 -16.968002252193173 -6.123227689345259 -8.523014847140947
84 -7.975377152459489 4.9768882614756444 -0.09567751682899325
44 -5.7696223099380575 1.5829184782869221 1.451413499981705
142 -2.0472127665210715 1.6113409411011566 -3.665833235040921
110 0.5566093337347121 0.9973807126785338 -1.5256586511249584
87 -5.670879481999825 -0.19653677165390349 1.527943632739224
36 -8.762605806735582 3.872669600297981 1.0835336102201425
14 2.3091662195325844 -1.2142027901793462 -0.551983396436285
145 -14.13342080171981 -15.697233704216396 -20.970802978090976
169 5.403509948671155 -1.1561677897426308 1.60269946510516
132 0.10994297106278307 -4.6475146308044275 4.5614639385819995
54 10.845503503942183 9.677052701591306 -6.662571559441779
176 5.287053129710362 0.32395327416918984 2.7579401103914876
130 10.672105872709576 0.6512861063793796 -0.11867779573873295
127 0.38394393535941873 5.565064111212982 -0.6491161667238602
94 -3.492637497411485 6.28859991635944 0.14993446603376637
177 -7.592410231310106 10.083187539341507 -2.2843517302368594
153 -2.2356305385116917 -9.331279115624731 -17.514816470942666
66 -4.234518311239989 -0.9454160292899992 3.471896371335449
88 3.9581381517863283 4.577690316592998 -0.7297828045536271
92 -9.254330017611403 5.293188203548084 -2.878292521423738
80 2.150016369796566 -1.1466720865583944 -4.066030974831683
149 -26.476847769884355 -0.6273710816315724 -13.779468059944605
86 14.749890654821744 -1.6291471754771154 -2.4883952034361814
154 5.240323627160248 1.8094596749809904 0.7287844154913763
97 8.867730225601669 -6.861124419401703 -8.731559362280528
64 -2.555779124657757 -0.18329122167037873 -7.6906002756075935
120 -7.914438002796475 -2.6221445627280118 -2.053024687440017
50 -11.378753613863765 2.716861143753757 27.169256700675465
82 -4.813725500984229 -9.230519338134355 3.6554355353473738
166 3.190978038637303 4.53567302776823 8.498714083715301
192 0.17117060710600765 -10.918553376470898 4.821743131142856
156 0.12804702778476756 2.2264175866807467 7.011466509703378
185 2.5913749664034937 -0.8923997744533237 -5.215989103738593
69 7.092384142163622 -9.2567485238526 3.5111891475082424
157 0.2826420449213445 0.8981480471559388 4.906878872361448
188 3.648870735374195 2.3223832330259793 -2.305500030164503
55 5.6403808389338 1.4235029752595167 -14.787152533884644
163 -1.110949158995703 -3.882608733463727 -12.70826736308622
2 17.03737069621623 17.04796335297592 -0.7741381637883321
74 4.007945852088737 3.7706131900396493 4.45614790145906
15 -4.255904189687169 -1.5328041635986878 -6.683062376453025
71 -7.621491090895543 11.917364411576914 -3.1815035853117535
187 -1.2517021944581037 -4.149149529149361 6.356619347330797
189 -6.966776041656046 -5.493941838407277 5.589199670609092
58 9.269574145591474 5.84859696110143 -6.725214465174659
190 -2.223692832609606 -6.8704651914106165 -10.861854973355342
89 4.195519751790413 -3.4441207210587823 7.860550775511682
43 0.14292914793888542 -4.241273258830449 -4.147666543121939
96 -12.358647281291715 6.429730155496541 11.864877240920338
65 2.4859143626197526 -4.926112470015742 0.8121036545841969
150 13.179204577504496 -7.11434164898564 2.5854816660766033
77 3.376616953448949 3.628887355741394 3.9080643390629928
62 -1.8146140604082057 3.4707148001292762 -0.8325367517087936
171 0.5867520996464235 9.92054180460996 1.0695987797526048
140 -0.833646990575987 -7.210148825618713 -4.092154361747478
191 2.310036823606524 -6.262979717718885 10.994319531882724
123 6.676042587697837 -10.836510351372608 -0.5707530259426047
13 6.236756863481417 -13.9808315317243 2.793850339006358
119 -8.189564186692419 1.3876571988580848 -5.153742401001256
172 -8.477207423631281 0.5142506623645308 -2.302798773521068
151 7.706837328886196 8.544280971878836 -24.910606133757128
28 -8.436230728035328 -1.5315652470482564 8.224865958218352
158 0.9585270817230129 4.425855291833781 -3.304929417772196
39 1.5959274077470054 -0.847704351558951 1.4544347489240874
61 7.007246994198468 -16.432113847348873 6.937983087963017
179 0.8266932391354559 -2.0824658039532333 -1.5858556072287782
128 2.099049311976547 6.299225322887615 1.8443008100545244
32 -2.3440150774586344 -6.19306050980548 -11.229524455343276
20 -7.366914064273629 -4.053963713187472 8.197885331428477
38 -2.115760174076224 0.24940394462603632 0.7054220299844629
19 -2.8953923359238756 -1.5221239217548577 -3.430674397320032
29 5.6186746292746035 -0.5193562730421365 8.331265201796198
183 5.859510990841376 5.550004987238415 0.3474045303352574
24 -3.610989531478203 3.362216457403033 4.511951862981355
76 0.05909328481250562 -3.327745388037509 7.858996480401831
107 0.5816213998608087 -0.5538629115756633 -7.772287660156065
83 8.241468595755714 -12.322664374854886 5.965400246466462
35 7.326132912036024 8.814744819262904 1.5656038502053962
108 -2.26417824259959 -0.9440345023964934 -2.6214353991104593
133 0.8806689477697006 -9.48294930651394 4.328371478900858
12 13.794717763841987 -10.075961460436124 13.575346725516658
139 -3.808957215740895 -0.9180906221788656 7.4731373783145445
146 -12.09667718548311 16.71406419590997 -6.894476708804726
118 -1.5667130718387545 1.1078067075932403 3.2684500832188634
11 14.547180642984701 -7.6222859446967925 7.385623926299015
34 -7.254440113765463 -10.591366203147318 -12.39239381651839
135 4.873345718286114 4.19854726546438 -5.337048466791102
116 9.711985897255719 7.403725750234817 2.8307944244242633
18 0.011409940521939787 -3.630429935858992 -1.059748247566892
165 2.40680277094878 -7.376946993748972 4.458736208391972
161 4.697674102385994 3.625553747740842 1.2643184593046894
48 7.975995426568337 3.277826134889775 -6.2000670180658295
5 -3.238481206457173 22.384054530146987 -9.046715331748839
75 -3.3566415376307748 2.280771870902398 -0.40850827337802964
63 4.604768218951377 -3.730471744102086 4.673123588709089
33 -4.29610850375277 -4.414114672696195 -0.14840030743330512
68 -2.8246117474114447 -4.340452325171356 3.6675174271636712
31 11.688182051713335 4.4262858692373905 -2.6931900905939608
40 0.5188856100174546 -9.484167470739303 5.703398945895861
17 -3.0471403951820673 1.0232922043467698 5.005744370913384
138 12.73339578739342 -8.248196851413551 17.818155904115272
102 -20.10392306587892 18.28705371863848 -3.8930703841975602
124 -1.2537892855318082 -2.42309810807193 -4.461994272394562
131 2.6371102480604116 -7.705543307038398 -2.603441764057272
100 2.0146015270146034 33.77688504502236 39.889424190101124
25 3.056719854632442 1.4465597811156732 9.545961968779432
174 -7.280209484150204 -3.6360308303818516 -8.231810445871982
26 1.0362037769805832 8.560117123093699 7.646091093818581
49 0.5982499541736518 3.458416342861876 -0.9396808346996027
78 -2.8838493409489 -4.723188851631957 -6.085459725709868
22 9.467142838041251 -2.38248053998985 1.4605018309649118
117 -9.275627295749855 -3.521284704889094 1.3005777940755276
57 -5.040753831451107 -2.528372810967548 -19.594373926110745
73 -2.4964591315277667 -0.6546744433280263 -0.6745108248237033
181 0.8485428418196082 -7.2198177678886015 -3.883809280226444
59 25.124307963931624 -5.072597353003241 -14.231512352361733
10 9.48263770553162 3.4154193234278307 -13.637108390611505
141 -0.18993518322752798 -1.1197165944595235 4.661145911984214
93 6.592079790899776 -8.218808338776611 -2.193099444971348
115 -3.8110003846276257 1.3763746526669014 3.0259453915346213
37 -4.808462603653695 -0.8958398781966618 -5.3794214791971315
41 3.768852561571983 -7.648473775484245 2.38222701387757
180 3.7569843603826225 6.386536517875719 5.4303922766936665
184 -12.12243950316315 10.50307017403718 -0.8264525214481218
159 0.6056260123887567 6.161730863395256 -1.4632214902748926
70 2.2495161828973806 -3.9418403680312495 -6.708963868514716
106 3.3335796274318685 0.4096653966450826 -21.52737358053742
91 -8.970372263982249 1.4282838127865276 1.7557727276340709
67 -1.1746895837246927 -0.6998768193078108 -3.114998811433412
85 -0.2408789870941873 -2.5818171997887784 -1.7779356356886347
79 4.055902745150319 -0.023457624028013314 4.273335710316294
152 -21.972592834369568 22.849016266934534 -23.338314024685584
175 11.856593747441764 -5.7178473860718695 3.651708450813392
8 0.23912053587808016 -20.248066536234898 8.015905755821686
81 -3.4880114444127766 1.467890496942733 6.6837768206027075
6 -14.486318811299352 15.577841450612526 -15.437506587211264
99 6.757346890809696 -18.720328621889653 2.289682056259701
164 7.176464584946722 -1.5269530827029647 -1.8541496161954916
160 -0.07469323345555623 -17.103902023528168 -8.945503873040517
122 10.149787654707467 -0.36582650125807287 9.565027219871919
155 -3.6040335128970526 -1.1041010629960613 -6.9840384140739875
23 -3.7945093958663554 0.9710311325110216 -2.0657021051670954
101 12.07088699352622 -3.240804617965085 -2.036347069657202
30 6.371320005748042 3.8799922702084633 -4.62325705053058
90 4.249529847016704 -0.8766759563516363 -3.069873346291809
95 -1.3109424119816275 7.936358326620759 0.11131845681947027
98 16.158605642194296 19.29840836819366 -12.472453639390077
186 0.2531811522285272 3.6847635378407184 7.004296121540739
147 10.760164449964847 -2.9865052664436114 -20.11679717282621
178 7.247718744699696 1.9216683663362446 -0.880838914694121
9 0.6213379575429865 4.719696632342539 15.849682500368163
182 0.4653455182589419 -1.1429216482403954 -1.7577653714086892
170 -6.502353186570783 1.7656574254121657 -0.765422644612237
121 5.868558088288044 -1.151659927933396 10.57494368903343
