LAMMPS data file via write_data, version 10 Sep 2025, timestep = 80000, units = metal

192 atoms
4 atom types

0 24.909354 xlo xhi
0 21.815299402435457 ylo yhi
0 9.619301915937136 zlo zhi
0.40926158522763945 0.019207506470194195 5.704494503559394 xy xz yz

Masses

1 6.939999998214724
2 91.22399997653315
3 15.99899999588435
4 35.44999999088069

Atoms # atomic/kk

44 4 2.480167531540666 3.3945417715368356 1.2426599277848953 0 0 0
134 4 1.4055595732932677 4.403774971141729 4.41444578360445 1 0 0
48 4 5.086779239933637 3.588532654161444 3.797685207669429 0 0 0
31 4 11.366796685961402 2.9902160291977737 4.352319520278436 0 0 0
175 4 11.208280968162937 1.4262762681496721 1.1153474363939826 0 1 -1
158 2 11.320899645379427 3.7174782339020123 1.886684892438975 0 1 0
185 4 9.034874628746195 4.025895821578666 1.5712182276334876 0 1 0
186 4 14.010624831720525 3.3716191046894224 2.3989573636599824 0 1 0
58 1 14.582874898148278 3.507293493689209 0.14672464048774844 0 1 0
168 4 20.305705405038996 1.5085666210615913 2.53848700862458 0 1 0
111 2 18.75517309281331 3.1809924151084945 3.2891388106015365 0 0 1
119 4 18.014413399555014 3.670174127342033 0.980021548377339 0 0 0
133 4 20.785209128848184 4.470129517173946 2.941317879213384 0 0 1
150 1 22.396339248204967 1.7437331065412074 1.3441260042871137 0 0 1
116 4 23.852182594115515 3.1783110839268507 2.524603576972446 0 0 0
110 2 0.7725422267971256 4.95089942207324 2.1615122477281874 1 0 0
63 2 3.2948676020170606 7.938924572258885 1.3725950629404495 0 0 1
142 3 1.8471235229744498 6.63186063383206 2.1612718364770673 1 0 0
147 1 0.4908024778897555 8.205249026540844 2.904549218113238 1 1 -1
68 4 0.9838585086429962 8.887353985700907 0.5342011509567206 0 0 1
135 4 8.198123340960551 5.797798443599196 4.563015259457289 1 0 -1
161 4 5.161231774909402 6.478920460911046 1.8379713841048961 1 0 1
141 4 11.382821192338525 6.195610713053371 2.5853348907494653 0 0 1
2 1 11.176071475559144 9.155035528585055 4.097308908785701 0 -2 2
5 1 14.094939555021833 6.055870651980638 3.2656074453613764 0 0 -1
130 4 15.813183890842302 6.973953525155884 2.0392162569425643 0 0 1
55 1 17.09014838296051 9.005095324872176 3.769006413905157 -1 1 0
125 4 17.68879217048739 5.2377277286557495 4.41501551143991 0 0 1
179 4 19.56557070545301 8.636750033394948 2.83868250583463 0 1 0
32 4 20.640872887953925 6.942274880909479 0.12627699420982935 -1 0 0
22 4 23.710361700559353 6.6428796103850445 2.6974630775835307 -1 0 0
153 1 21.353737361823114 6.868141059665104 2.9334181590101047 0 0 1
75 4 3.2691099526356844 9.203804110130266 3.2459536172814585 0 0 1
88 4 4.138933003974833 13.532346935916157 2.9333028121330043 0 0 0
89 4 4.607474901731651 10.404674616424236 0.5687643149240513 0 0 1
29 4 6.526525327383396 9.487772061460486 4.322252645077608 0 0 0
57 1 6.555901964969912 13.117272501736991 3.11529865477 0 0 0
26 4 7.714941514791521 12.160165087419632 1.3639020107390296 0 0 1
182 4 12.5753912170482 9.79548146050125 2.389477709678064 0 1 -1
8 1 10.045968944236417 13.531262348594808 0.8232575024923403 0 0 0
183 4 9.732077509716461 11.152997461889443 3.799474194780057 0 1 0
87 4 14.269776713463932 12.311941944098718 1.2353146631505862 0 0 0
118 4 16.38643409311371 11.324945021731342 3.798847487026888 0 0 0
60 1 14.062350979495198 11.128466778439806 3.696415297672925 0 1 -1
112 2 19.60061934641326 9.19144012626671 0.25460953731874714 0 0 0
101 1 17.17988787380603 12.776595480618148 2.4790535282053994 0 0 0
137 4 18.890759874919848 11.607893869029118 0.7483654990276556 0 0 0
56 1 20.326131866545563 12.801496143492898 1.9770162949569001 0 1 -1
11 1 24.168213954624274 10.706313274285156 0.11176246983518695 -1 0 1
84 4 24.988404505687797 10.03534716789065 4.712290314757062 -1 0 1
177 4 24.611594513106436 12.290967609229812 1.771837831860252 0 0 1
25 4 21.89095410498976 10.315213906599976 0.4408499279473342 -1 0 0
66 2 23.882552446149425 12.181408725505666 4.1900063461869514 -1 0 1
120 4 21.622852243128104 11.126557854602583 3.665238531514956 -1 0 1
15 2 2.2925579964022025 17.95220586066995 2.9221953956515 0 -1 1
190 3 3.166749718233864 16.469912846133735 2.0385798818550644 1 0 0
154 2 4.368325834896515 15.205047481772061 1.1469769068462816 1 0 0
36 4 8.130651959865098 15.299275241501716 3.694936218227061 0 0 -1
97 3 6.112687505629396 15.806978119788187 1.6213111720867368 0 0 0
64 2 7.8926904691748385 16.68281061904717 1.619991277156178 0 0 0
50 3 11.628277924668616 15.076976926982715 1.1185812284076115 0 0 0
96 3 9.879412442113544 17.452250763684564 1.7590482674190882 0 0 0
65 2 11.48055266169495 17.02600852602819 0.6250240562414915 0 0 0
14 2 13.668065022984583 14.76105631966021 1.2165630184127703 0 0 0
191 3 13.520255921313284 16.87662990146537 1.1557712740691017 0 0 0
69 4 14.693167082312359 17.890900938634076 3.984308337453282 0 0 0
82 4 16.257141261770837 15.043284609457652 1.8277929872345395 0 0 1
181 4 13.389885242116522 14.395703013699459 3.8763340241617925 0 0 0
188 4 18.465931769425612 17.81999169167617 2.2565625084592087 0 0 0
103 1 19.386180500435593 15.639029616801443 2.3555379231389844 1 0 -1
93 4 20.543291128649113 14.693438677219374 0.6025840246636414 0 0 1
94 4 19.252977238507107 13.816236012321351 3.904378644500974 -1 0 1
70 4 24.800564950547777 17.592491513598645 3.840449179956807 -1 0 1
45 4 22.837775253954543 14.379291971240262 4.070687942632522 -1 0 -1
41 4 21.18107549388768 17.17716137988165 4.768181496810997 -1 0 0
144 3 3.527700235603805 19.497674518758725 3.235906833766104 1 -1 0
113 2 4.030688843546167 21.38223725268348 3.1939444308713534 1 -1 0
43 4 1.0540087482964273 18.856203714532764 1.0888515430808607 0 -1 1
167 4 1.822090907049009 22.34414371579536 3.2745170290239165 1 0 0
20 4 4.262308228340419 21.487778733431902 0.7493308408683969 0 -1 1
46 4 6.685939055391168 21.91159057835035 3.428238360199483 0 -1 0
166 4 7.63468230642946 18.44555129992288 3.689350844952148 0 0 1
95 4 7.489737558931109 18.473887936520164 0.03677026592561888 0 0 1
98 3 11.928879785730508 18.672530280577213 2.202275588177597 0 0 0
62 2 10.298907363467118 18.90474722649327 3.210286359475471 0 0 0
24 4 9.31874528647711 20.577646392004308 1.8012335115248592 0 -1 0
6 1 12.34130134475728 22.438750694329038 3.5712491668783493 0 -1 -1
79 4 11.309960670401024 20.919641594658874 4.749899044740609 0 0 0
192 3 15.834703742512643 18.629287161631716 0.7150707127018231 0 0 0
156 2 14.026637233096904 18.68330590788702 1.7704394973307132 0 0 0
83 4 14.08736455591588 21.139451368038614 2.051974192478741 0 0 0
127 4 17.977192071785936 21.138638623953685 1.0929925425582425 0 0 0
37 4 20.74680806594484 20.044139149658307 3.2736279820549288 -1 0 0
107 1 20.491472474982487 20.835145678969983 1.106629878281093 0 -1 1
163 4 17.223027130179446 20.283063529273054 4.609191404795144 0 1 -1
115 2 19.073339275894618 18.916856345073242 4.7523762011540525 0 0 0
53 1 22.80450887613447 18.96965460015553 4.315648377201002 0 0 -1
136 4 22.951973979680645 21.560474053236213 0.16070755838571502 0 -1 1
180 4 23.810367319752373 21.16930926969228 4.537652916051058 0 0 0
145 1 0.6999184354304346 24.02127809446372 4.204144256802814 1 -1 -1
139 4 17.240235260984683 23.559478373336514 3.9337586207050483 0 -1 1
152 1 13.631785454347686 3.424752251011476 5.029009006210982 0 0 1
151 1 1.4027433503255566 9.142268766772291 8.790109502769225 1 1 -1
18 2 6.4922608181821655 4.847358307461939 5.730804124842926 0 0 0
80 4 4.727495414238293 6.559179390129582 5.922123505680449 0 0 0
74 4 7.3678657602901145 5.406215825204241 7.941627704028895 0 0 1
106 1 5.330420776540151 9.051239376611779 6.275824573327727 1 0 0
47 4 9.772120559137102 8.650468677809496 5.982506505329997 0 0 -1
162 4 14.190731175171956 5.757835499803604 5.515485488892937 0 1 -1
149 1 14.156981052777635 7.927416695386566 6.607233541015064 -1 0 1
81 4 14.378084756663652 7.324462999869733 8.648561301590016 0 0 -1
109 1 16.335968076657263 6.034324267715311 6.44808737209214 0 0 3
124 4 16.297067371094524 8.603185445932521 5.975436610484751 0 0 0
128 4 19.972124562582472 6.2682646451849235 7.804012855444332 0 0 0
121 4 22.91812396030943 4.704939550761334 6.464558954069204 0 1 0
160 4 24.83536166017282 7.432435871432849 7.587145496217338 0 1 0
39 4 21.988352261110556 8.791142743385194 9.197261930107361 -1 0 0
170 4 21.767979301272195 8.147937606621703 5.762829471983372 0 1 0
155 2 22.495891284479764 6.818542094780237 7.594316593693583 0 1 0
1 1 0.284902744372463 13.142004846930632 7.986533052831564 0 -1 1
129 4 3.361705386951727 9.285283127038031 7.541396455718019 1 0 -1
33 4 3.4253562203199035 12.867660536704559 8.48646833994805 0 0 0
184 4 1.0927143436005433 13.246042847761023 4.994489043743154 1 0 1
61 1 4.242512029387061 10.833159107749479 8.835287886315445 0 1 2
42 4 6.987240197352293 10.024379238704967 7.828258598391547 0 0 0
19 2 8.164869409902686 10.671380879015675 5.7505451387797635 0 0 0
76 4 6.651122239413903 12.691355358472592 5.500265342273692 0 0 0
38 4 9.78163164018531 12.010449052725681 7.277394549112531 0 0 0
108 1 11.149857765924262 10.376102829248813 6.9633767009155765 0 0 2
173 4 11.96357302023732 10.298433007177078 9.327839794184257 0 1 -1
126 4 15.427484306757574 11.132941313167219 8.575408367742243 0 0 0
114 2 15.94215550497678 13.609900840083103 9.315111486690666 0 0 0
132 4 12.961675756993964 9.783299061697809 5.681178222016815 0 0 0
102 1 16.826699629563947 10.869370414569412 6.660836863258017 0 0 -1
99 1 19.926433847899933 10.28594855625508 9.292617443720088 0 0 -1
34 4 19.20691933415466 11.055819975609893 7.13298313105076 -1 0 -1
100 1 21.153205247320567 10.55372472053661 5.874112167243161 0 0 -1
78 4 24.903600642574606 10.949069312378056 9.289793651959966 -1 0 0
86 4 23.134310189786415 11.891932226538874 6.651729352967685 -1 0 0
23 4 2.7241902071670085 16.71373769876277 5.054095319690909 0 -1 0
54 1 0.6136896486729916 15.591822949934574 5.721085300673286 1 0 0
67 2 6.7584328697280895 16.81787731682024 8.840799813930092 0 0 0
85 4 5.575766566884269 16.020611501921703 6.832944176203164 0 0 0
140 4 7.761438862753925 14.738884026165202 9.221143230874603 0 -1 0
105 1 6.770371330631662 17.075086723056586 5.371056936780337 0 -1 -1
49 4 8.046623536553604 18.0888172109369 7.204855221932362 0 0 0
40 4 11.423472745516964 13.993741510734875 9.015393387012757 0 0 -1
169 4 11.11242822828208 17.300724989154645 4.890734469141624 0 0 1
27 4 11.240365189783368 17.6611503727271 9.387681032733221 0 0 -1
35 4 16.019004118680726 13.963272310738358 6.843070983892737 0 0 -2
12 1 13.236770669474616 16.394940682727675 5.077946674843418 0 1 -1
117 4 13.551703394371456 16.803563301523877 7.338919826286849 0 0 0
143 3 14.49947613675338 14.803780459901807 9.60767802315983 0 0 -1
17 2 12.830166253010116 15.801239498536257 9.58826670944019 0 0 -1
10 1 18.07937426633782 14.5032388289221 5.773637164886119 0 0 0
21 4 19.810645095021936 14.937215386646107 7.318369092415194 0 0 -1
131 4 17.899923248039947 17.223422427705234 5.9455981512223275 0 0 0
52 3 17.795290853825335 14.208075387620715 9.535943714011307 0 0 -1
3 1 21.933362692537347 15.304115142432307 6.3708932506765095 0 0 -1
138 4 24.177081077694428 15.236391865396358 7.575314254650912 0 0 -1
51 3 4.1877423107911715 22.155789920579117 5.12369098399261 0 -1 0
187 4 1.5967045778924984 19.832593767485626 6.394520537674211 1 0 0
30 4 3.433726539533504 21.990138179519896 8.391909804779075 0 -1 0
148 1 2.7264062784060976 21.839844018263673 6.31570530752422 1 0 -1
91 4 5.172471950095665 19.128334395823934 9.04079269405002 0 0 0
71 4 6.562722407311506 21.23859803712359 6.681976701188748 0 0 0
73 4 8.713559055424444 20.929636639789088 9.52169024717822 0 0 -2
77 4 10.906602769010943 22.65449495392531 7.832775823712633 0 0 -1
72 4 14.030821676402615 20.3918473586699 8.374601487159815 0 0 -1
4 1 12.774825672304026 21.500579978522552 6.754044489761256 0 -1 0
90 4 14.260023290696349 22.832121320571098 5.70959183732546 0 0 -1
176 4 19.951132691235312 19.964135163630495 6.682636408346171 0 0 -1
9 1 20.381109809226018 22.06829820773652 8.687436107083762 -1 -1 0
171 4 18.063635676716167 22.464325988055446 8.204509398326858 0 0 -1
92 4 24.96059715062713 20.831967216196887 9.372453732818297 -1 0 -1
159 2 24.26184085095428 21.00749516026415 7.07269888982514 0 0 0
174 4 23.20790581309254 18.87654288413077 7.120149146878693 0 0 0
122 4 22.56125284708356 22.62863213847828 7.6898831035545925 0 0 -1
13 1 1.7361868032082681 23.469329027359816 8.737395345554177 1 -1 0
189 4 0.8444146275522355 23.190553942043355 6.512403390562296 1 0 0
59 1 6.171613108832153 25.94098667354348 9.408033316335862 -1 0 0
16 2 5.858545371676842 23.14885258072652 5.490760476582508 0 -1 0
165 4 5.278234974023962 24.844749228138642 7.177913941356037 1 -1 0
28 4 8.238585587423616 24.432394870413997 5.803369889914855 0 -1 1
146 1 16.43458704334221 23.343765468076263 6.08341542161511 0 -1 2
7 1 13.201010582714227 27.369234186235254 9.392523157737344 -1 -2 -2
164 4 12.933805797132411 25.0805150277684 9.26069666414129 0 0 -1
172 4 16.942242511134683 25.546615843242108 7.316039957388393 0 0 -1
157 2 17.63051254003906 24.53809079311087 9.578337745305351 0 0 -1
178 4 20.30884100600254 24.604988357521254 9.159505867515684 0 0 -1
123 4 19.978516807329473 24.647636942076467 5.558231621348318 0 -1 1
104 1 20.88847309862239 26.075722902959633 7.25715667935323 0 -1 -1

Velocities

44 2.430281910654769 -0.6178182098154321 -2.0751455743942695
134 0.9353186077397942 -2.524278529404167 1.1647710927486195
48 4.944825168661548 1.4658123319458194 5.018210420675235
31 -0.8471448733399312 -0.856745379389056 -3.7001404479730797
175 -2.8919611984697 2.650064001409967 0.8125373616662491
158 1.3172115584628257 1.0373245578535684 0.47676797063841053
185 6.555928584818623 0.707219178024973 2.039509473931788
186 3.593062341446657 -2.8128672042330027 2.8969070843481144
58 -2.933642820724675 -1.1540608019984022 2.160871204854299
168 1.123721440909069 0.24229064838326198 -1.5945451077720365
111 -1.3435528456958794 -3.7961443820960272 -0.3772412952586463
119 0.7729101142028834 0.39694913486728445 0.14886045114849877
133 -0.6677215202596221 1.2411894880846772 1.1218370394690516
150 -1.6517927042298501 -1.8589570979528272 4.504679868822199
116 -0.1986059742694527 0.9077280260105444 -3.607560685898836
110 1.7660712370630192 1.4025516222883618 1.595087854029648
63 -0.5569487092228634 1.4934491020584932 -2.4003298529005215
142 0.7218968731360591 -6.214688363462567 3.5218274567536554
147 11.841096196114234 -4.677465796515944 -4.639601208348842
68 -0.2780102381124533 -2.8728000025684883 -2.871978100608038
135 1.1603307281027289 -1.4919070277055677 4.163118216983374
161 1.9515632263262346 2.681353246340103 1.6586799697803984
141 -2.615581513663122 -0.5700308548773031 -3.1130187738298343
2 -6.061284976626948 4.152915744482532 -1.225340610464834
5 5.48336502182942 0.8953196947217641 -1.998363751314486
130 -2.714830799942844 1.9967780181621129 1.19975902734765
55 2.7957096757511795 -2.7550773438680927 -2.264848306655444
125 1.658692091521317 1.2808302837146732 1.8999004601639418
179 3.726606305679188 -0.1718272260113493 1.306015163349319
32 -1.9851861366049668 0.060329268882132484 5.9318919734005
22 -6.114485078756146 -3.047038870538239 -3.541789155657064
153 -8.814846977787287 3.5877676905365856 -0.8906204956082079
75 -1.1041525834639023 -0.022790423870424566 -2.1807905220419936
88 -3.3328619539554922 -1.3300281759078716 -4.732305766030076
89 -1.1318289541332378 3.5459729400607376 -2.6766401160095628
29 -2.2860716356838546 0.6564209761812866 0.9117487297091391
57 6.469305847695865 -9.916168307894116 3.2475639367821123
26 -2.703550173793765 -0.44293725546817925 -1.340299521287992
182 1.1273464441203687 7.558678088275273 2.0639462484224462
8 -4.559822249790387 -11.534167978821271 -2.075772647925698
183 -1.3666373417681261 -0.09799029167038847 -0.27178492637995516
87 1.2462452629541483 1.526788336007021 -0.23754429745274303
118 -5.385446350239097 1.8337460043870977 0.4722789820679047
60 -20.513570646260895 -6.441956555887442 -5.817085683423293
112 -1.8025030452706494 2.583842266958207 2.4858924047325432
101 -0.4615675340459498 -2.0504128009868685 3.2920314096468632
137 -1.246876670876426 0.8790596238318029 -1.60470788603481
56 7.715203146029019 -0.5652750512538206 -5.3576223802078315
11 -2.4546336954199055 2.981313419807672 0.6189703838319185
84 0.8616511282124708 0.480826256787705 4.066745255911717
177 1.7189431242376942 -3.979604401527603 0.2090808943729804
25 4.476350064682206 2.9743308239626454 3.4391530787861746
66 -0.7513955258161759 -1.8791373254540296 2.32755407401037
120 -1.5986602680910666 3.724935488407922 0.1082331116097565
15 2.4626813993536807 0.888248892587271 -2.633482434592306
190 -1.104939587000873 -4.187829918747382 2.3577644509143365
154 1.1288882380553653 -4.199707094696113 -0.9541192987565692
36 -0.39611598026580325 0.2852163914158532 -2.370100601781723
97 4.22677775869572 9.26108394382497 3.7749601366965186
64 -2.7132084161594983 -0.7145971008814759 -1.5433374986112283
50 -0.07009197640006364 -1.829675724399654 3.5127271346533164
96 9.42203073678205 -1.777287939379879 -2.290819425500108
65 2.5010587092269643 4.169783842651445 1.0964786627291543
14 0.7868761671558917 -0.9129994358265716 0.6801967271902892
191 6.551696059962192 -1.1139055219002385 3.0450944047060866
69 -3.3947471270723053 -1.3651417699992272 -4.248163316184125
82 1.6084586132875556 5.4350573289566455 -3.736107360054985
181 -5.299587147145006 -4.231073917915695 0.253598055847066
188 -2.667934890098658 5.9846618641344085 0.7280267174402149
103 3.621181330494955 5.560615517018633 -10.715048439076062
93 2.6797050819542245 2.094941650770785 0.2256279287571301
94 3.7214302066651896 -1.6084530323217419 2.804941961066304
70 1.4959065816169124 0.5191540869669211 -1.8422298247247402
45 0.7386567234736471 0.5240181895835991 -0.6918643260135695
41 -3.913949488164312 -1.5107204549644588 -0.21174805096982444
144 -0.012648633384035993 1.4775045378836476 9.219087667728253
113 -0.2243778803421068 -4.25511615422931 0.09217464765793408
43 3.4235410184948045 5.9016644177246 0.5761260005435483
167 0.21378648773190442 -3.287416755914839 -3.135624121615663
20 -2.0864204692052155 2.2366533736985468 0.03089712950270949
46 -1.0214266883258867 0.6764651828404256 -1.590844557177677
166 -4.588541522448925 -1.1254131510270573 -1.8873749677170633
95 2.2590138121667014 -2.3763886165432515 1.761355420110263
98 4.767152583166696 -3.2580370823490292 -3.789257946495616
62 -0.5937094286321412 0.05079686315997446 3.0839167217836927
24 -4.023846618863048 -2.440773254355799 0.603115848627922
6 -4.816603234084326 -4.314217310693933 7.47505286107937
79 0.9377728777449378 -0.5344265415379948 -0.9563149015631786
192 -0.6724684843476937 0.1334000272559205 -3.322848370424492
156 -2.493731397534542 4.526371039215619 -2.7746800641150084
83 1.8930978802850806 1.4097825937646418 1.5524551699387847
127 -1.210893831675937 1.5433234349688634 -2.187623750886877
37 3.9589733357999473 -1.737759745490664 0.2297027027449671
107 0.5681368814404931 6.768085452903246 8.811075739975005
163 -3.0995439450832714 0.04048131103392616 2.0947557588895895
115 -2.4127621486578743 -2.1651596446912684 -1.6878223060590882
53 -5.379120933865098 -1.030527012337509 -4.288739354517924
136 0.8876928183938383 -0.05049285830849059 -1.9784846008524222
180 -2.746467183605697 1.5446354572299092 -0.0901226831162235
145 -1.552430102661509 -8.234812364379767 -13.717158061215935
139 0.6017304852670584 0.8346370408657738 -2.9848675314394892
152 4.682532666926188 -10.011162562198022 -19.101334918520244
151 9.881452921141038 9.795827786296243 6.412558261284932
18 -1.4987539026146497 -0.30723460119715346 -2.0450324959545014
80 0.0629138611542359 0.1484988027827427 1.8099740218724965
74 -1.4223441214272003 0.12956929122268146 2.019652830054733
106 1.7847930277095165 6.603422031325245 5.182683179232806
47 0.15552906833329172 1.7066690949794092 0.43266462870608846
162 4.97032293412284 4.48382512918436 1.031477463607251
149 4.331760707517007 11.396977965757884 -2.6215271261194264
81 -1.622544333520373 -2.272020659385123 -1.6199827376429132
109 -0.015044883978164262 13.014552283702733 -4.6029604387343594
124 -2.485051551322549 2.50428864069561 1.6508373382159125
128 -1.3675134428668454 1.872277241438101 -5.791405497857125
121 3.916709308256067 7.069767174103233 1.0434667359778214
160 -0.04624957409984546 -0.6650917981423374 5.486164013003799
39 -1.890815156854669 2.033078370066806 -2.8279230431170483
170 6.186757788504247 -2.849454107954847 0.6091341977171263
155 -1.037376218882205 -2.5739828044310453 -2.7643424196036404
1 -10.34898710170268 -2.5140344698001957 -2.114314081915268
129 6.231933836261266 1.8765046537106223 -1.3643433688869442
33 -0.9829195308394064 0.5763893753829532 -1.5286686963045113
184 -1.6820412120774697 -3.187018811957352 -2.998946538487304
61 -4.4468185897572035 14.878130247628732 0.0723065551030731
42 9.796209891707038 0.02391237909482784 0.9206695861001912
19 0.8815150930131742 0.6971453118333706 1.2238436010850873
76 0.23117896412098488 -0.778950192233863 -3.417118797897843
38 -1.1187494645167542 0.47480627708600365 0.876031315303549
108 7.40612188182568 2.8133883397108157 14.598021277863527
173 -2.3521575786260973 -3.4985549684091497 1.9757445457890133
126 2.39642374364684 -1.546505542750328 -1.1224672184409017
114 2.547884528778422 0.6494160921057149 1.9075073843717794
132 -5.026614758851015 0.20461150582874782 1.1481177287140876
102 -3.936557543193946 -5.3769494322984634 -8.138176888701183
99 6.748816031255332 6.323211162237624 -10.632791320246506
34 -1.4145138337159375 2.414779614490944 1.3182322178694779
100 4.229080780531802 -3.9179097128490716 -4.723306931048139
78 0.28889319033045935 -1.6374199041015556 1.5064755481507146
86 -2.1630291745548735 -1.8239638192477294 0.6655961259167912
23 2.69201969155642 -4.023171025189218 5.719015023142603
54 -4.015583041517392 -3.8161531862976097 -4.1778598878466475
67 -1.27998989967205 -1.0617840741953855 3.591730371559252
85 3.0122139038450313 4.603677752041333 -3.7277737159308555
140 -0.25806175409386634 -2.2971499395901587 1.697529645269641
105 -0.28533609676160215 1.0218856765764528 -4.463747647531221
49 2.0118696302565326 2.2497598065120448 -3.2309554554447617
40 -2.771637831959753 -2.078884262209475 -0.8413936444308668
169 0.03355130415819005 3.5830188300561283 1.8528741619007463
27 -0.7512057640610417 -1.5222764181357427 -3.8752562062610236
35 3.9873223448186654 -6.919672694784323 -1.603308386315557
12 11.780938798766817 1.7649340829105316 -0.3205044599706058
117 -2.1781642659421148 5.370820559656734 3.724953374222348
143 -2.5783082300578815 -1.8634742303618743 -7.64754980558777
17 -1.4623800354866827 2.2776935774878484 2.121866914881473
10 -1.9068055638987162 7.64673213083498 -4.154565237823474
21 -7.93670054252191 -4.015666608389856 1.97259221242442
131 -1.1329565967132336 -0.21888733479466094 -2.902310237843049
52 -1.204173283724925 3.7925436974077957 5.355197303634939
3 5.377106531727332 -0.2570885034789221 -1.4411399381394037
138 -1.4225592689672635 -4.432240055608132 0.4433813168909642
51 2.4239263541098914 -1.3089019305482068 4.184666960002442
187 0.7811152042381944 3.4417084374974003 0.5921017820806724
30 -1.181301211839023 -3.2339198865959258 1.8589631589899782
148 -4.51473711127681 -7.686424334608895 -7.428116327828916
91 -0.7243565562871845 2.081098571332715 3.8604894118775843
71 -3.502615836321908 0.2185131734556473 -2.0050354670282897
73 3.392921388114578 3.8972095890911014 5.368720600116039
77 -0.6919801208449132 0.8436458143967214 1.7719967142205766
72 -1.9336592796045562 1.7125330844864508 0.6012865967105218
4 0.7215647283253523 4.121569363703603 3.515394350132456
90 -4.934968272251356 4.3071033406089505 -2.5862839373805695
176 -3.9452007884326132 -0.6907284789770373 -1.1134321136769973
9 0.39906912719943677 -9.330511205720153 10.786352535088348
171 2.0745584971036988 -0.9974775292958155 -3.072857837410081
92 -0.2593225880339594 1.4758553445634384 1.8305973830723914
159 2.3786916711887716 -1.3370212024424615 -3.7371756187806606
174 1.1082451178923347 -2.9901542730494235 0.5647155287257355
122 0.3137829539293881 -0.3858014276145328 0.7459418323030872
13 2.8504650001388 -1.3911616815335381 2.0998028231490666
189 -0.6993232172234592 2.4263171522170848 0.41020888359081403
59 -4.7683293067825465 -5.617727926923306 -1.2813930984307467
16 -0.3870415890417076 -0.741791646557295 0.9931040876731768
165 -1.810063516836658 -4.366240368054741 -2.4999559261941813
28 1.8537532216958972 0.523243614133403 0.10723728657085432
146 2.6645484547288776 4.367656257512395 -6.166594944473115
7 1.195455496277517 7.406404779222672 6.962380087258042
164 -1.1807323013197106 -3.315981271177505 -0.3931250032168024
172 -0.13330317462009245 -1.989142720128218 -0.5587985319335335
157 1.84833498355736 -2.106395055903901 2.3413318797880605
178 0.4950135118076196 -3.4811829685265963 -0.5379972355174041
123 4.105387293618574 -4.1186529500732165 -1.679070210636394
104 8.325277985255134 -2.4613213368694016 1.4060918871163808
