LAMMPS data file via write_data, version 10 Sep 2025, timestep = 110164, units = metal

192 atoms
4 atom types

-0.46426546791675527 25.37361946791714 xlo xhi
-0.4065978662000198 22.221897268636152 ylo yhi
-0.17928645219118433 9.798588368128229 zlo zhi
0.42451738201514844 0.01992349308140057 5.917137497827613 xy xz yz

Masses

1 6.939999998214724
2 91.22399997653315
3 15.99899999588435
4 35.44999999088069

Atoms # atomic/kk

94 4 0.9001532849307168 2.332080334919739 3.335115075210506 0 1 1
81 4 6.4560296126732455 3.1760960884608354 1.8016590926063216 0 1 0
64 2 7.435731847733705 1.9965144006220163 3.743741529856534 0 1 0
115 4 13.01059232148606 1.3119939467652704 2.633689325164606 0 0 0
102 1 13.351946485702756 3.0278363015345993 4.401292501561504 1 0 0
137 4 15.46413717079187 1.5798066707221912 0.14703766029073267 0 0 1
113 4 15.60446888764582 3.2948523812570705 3.3677131041269948 0 0 1
110 2 24.391250271143676 2.548766024890522 3.048980004381133 0 0 0
28 4 24.875419565940454 2.5019397665286487 0.14095175981584943 -1 0 0
122 4 22.081442236668344 3.2082206976406744 1.8538632383010671 0 0 0
21 4 2.6344030688808044 6.1834966528148145 2.1515516326634216 0 0 0
51 1 0.7531420569637972 6.172205258793377 3.6344354290388083 0 0 0
116 4 8.270073213905464 4.160723811298916 4.632131771787019 1 0 -1
25 4 10.64306098128158 6.680803488299107 1.683142183198538 0 0 0
45 4 11.58654681770355 9.739459506007707 9.70825541584679 0 0 -1
59 1 12.36086372082001 6.023834680256427 0.029718799813829834 0 0 0
114 4 16.24844007371891 7.382498604403234 4.735843405196514 0 0 0
48 3 17.24215467139566 6.809692194260063 0.8437153124935025 0 0 0
138 4 19.179696058398576 6.007217215012144 3.2274840105485154 0 0 0
111 2 17.42717034149441 7.776356640728483 2.535415718977376 0 0 0
56 1 21.542608803994078 6.680037340226849 3.0972438008539336 0 1 -1
161 4 22.08799026224397 6.5433433184050855 0.7064063587024698 0 0 1
112 2 23.433543758221724 4.608973969809823 0.0652494019836237 0 0 1
130 4 24.75106628047724 5.074775996684339 2.326802035945552 0 0 1
83 4 0.20764038704573096 8.401780211282777 2.983124374922304 0 1 0
13 2 2.3501774669281574 8.58695856195168 1.7991486385607296 0 0 1
37 4 2.12540171757924 11.05390307604968 2.2950370540028 0 0 1
75 4 5.426651728065059 11.434514867393938 5.1598597300064375 0 0 0
35 4 4.74464255703526 8.99550569039219 2.061794626796121 0 0 1
106 1 4.510763469597543 11.237372647058978 2.9423735956712185 1 0 0
62 2 10.397881722484923 8.934478258324837 0.7610444915930076 0 0 1
150 1 10.768266188949712 10.608029237584336 3.807732052575027 0 0 -1
34 4 8.882985499166097 9.644489359531077 2.563487434151453 0 0 0
91 4 12.293501257270938 9.853211451449187 2.1460912307337603 0 0 1
123 4 15.733417254523294 9.456498745949027 1.9109448246623388 0 0 0
143 1 14.318079920508355 9.480833518574624 -0.015524467295805849 0 -1 0
139 3 18.86290661177891 9.101608384159519 2.608911417194523 0 0 0
107 2 19.934088414284645 10.47216757253445 3.479241795793781 0 0 1
129 4 18.02440577103871 12.111085846987768 3.474077430583602 0 0 0
23 4 20.81655649924071 11.674788200588473 1.5337819123144292 -1 0 1
128 4 22.049858290531013 9.068904540212674 3.471038033080036 0 0 1
55 1 23.015638635226672 10.87350368738242 1.999733355742877 0 0 1
90 4 24.179472201272887 11.216117662542667 -0.03468943758059221 -1 0 0
178 4 0.8142907445103367 13.87584981752434 0.16552123908786676 1 0 0
142 1 -0.07705004953580291 12.153000404244668 1.5495278541766357 1 0 0
30 4 5.260776458264843 13.460656198723644 2.548412512373656 0 0 -1
22 4 8.211738630176505 14.663283098053968 0.30309793995820816 0 -1 0
86 4 7.6330882762478165 14.462649319332995 4.934066694039318 0 0 0
152 1 8.710105290440126 14.581870563972181 2.7671309016990397 1 0 -2
27 4 10.562320728464222 12.994639265162448 3.381396729464014 0 0 0
17 2 12.329297225926817 14.82721852886443 3.461467915026529 0 0 0
47 4 12.551978389682889 14.485919335479675 0.8169528025176791 0 0 0
104 1 10.468206322828635 21.421141656413944 9.703897938768518 0 -1 0
145 1 14.620031102659201 15.744011173187815 0.29584101517544903 1 0 1
127 4 13.964206267284908 13.013324144508042 3.808591943503995 0 0 0
173 4 16.52622152112943 14.131704375790564 0.4362661303688913 0 0 2
144 1 16.173791824120798 12.933500103914437 4.832463911805581 0 0 2
11 1 19.415985787505058 13.866172375469683 4.518498997511173 -1 -1 -1
153 1 23.08067080396183 13.699034156860705 4.496869138120071 0 0 1
46 4 24.38119008890868 12.058165277529508 3.433116984962411 -1 0 1
175 4 21.29694045289059 15.405362762216802 4.523610531994111 0 0 0
26 4 1.2015782507472283 17.685203581458758 1.3310258146306342 0 -1 0
78 4 4.303786037644067 16.333117006853733 0.3873675041551645 0 0 1
79 4 10.440306907419815 16.315973006528424 2.739695389653203 0 0 0
147 1 16.39034199092029 16.941743282366613 3.962171505619682 0 1 -1
135 4 14.143432414366872 16.458147987841848 2.9910486601081043 0 0 0
5 1 16.12774546161029 19.2176673953063 0.7797851376798229 -1 -1 1
52 1 19.74752382564555 18.323413952750936 1.865938100740088 -1 1 1
185 4 17.467954162250273 17.83257024094431 2.0685409707405973 0 0 0
133 4 20.646490644245887 18.760175446515934 4.148905714273013 0 0 0
92 4 24.398859091525836 15.594331555933149 3.0704129823535915 0 0 0
171 4 21.621593250082107 16.940572526793094 1.382984182684514 0 0 0
156 2 22.691524767391677 17.35609822213689 3.620556887628869 0 0 0
119 4 23.979486805938272 19.238732494069033 2.751370717092675 0 0 -1
54 1 25.601919326122328 15.905410129401044 0.9658330288389296 -1 0 1
19 4 0.7314591245295519 21.008978756048194 0.3415779123628747 0 -1 1
38 4 6.6288609706415125 22.54547036778621 2.972545337677118 0 -1 0
76 4 5.182112648380664 20.144681948079796 4.8094111739335625 0 0 0
89 4 9.98304232082459 23.54799823129927 3.826840252946671 0 0 -1
74 4 12.465468637257583 20.912304605498928 4.691262471331854 0 0 0
80 4 11.712142187563808 20.364917986185617 0.8408382399482649 0 0 0
60 1 12.974435013250092 21.501624438456684 2.538844887047537 -1 1 -2
163 4 15.353705384811587 21.224887052835903 1.947912303818292 0 0 0
108 2 16.013129099758956 23.610349747608083 2.5502031162272623 0 -1 1
168 4 16.12418476261066 22.80523048646012 4.907372921697569 0 0 0
177 4 20.326693712250822 20.381147083658938 0.5531247576176344 0 0 1
125 4 18.456880999135464 23.33656606548983 2.4980819649430765 0 -1 0
98 1 19.457938517792925 23.211138130772422 4.79961069391047 0 0 -1
126 4 24.222189723098936 22.833578242322965 2.6866697744279397 0 -1 0
1 1 24.37349244313861 0.04921604520814382 0.29640112484842174 -1 1 -1
10 1 24.910608738174737 19.256220773423596 4.976455775218762 -1 -1 1
141 3 23.88595476092852 2.929713941105191 4.848329077507603 0 0 0
132 4 -0.03301758866747928 5.5223098929990275 5.764076550182094 1 0 0
70 4 3.0850887995772043 5.895476795242229 8.31375933006078 0 1 -1
41 4 4.316539553717242 4.633807083946611 5.277128712862393 0 0 0
88 4 6.641191359082292 5.3641536695226435 7.654861516092316 0 1 0
66 2 4.672817682333411 6.689785573144325 6.586551898022899 0 1 0
57 1 8.234131345648779 6.155271402722552 6.027558913474988 0 1 0
84 4 6.547357658571861 7.6920063922 5.176462499142678 0 1 0
131 4 9.123610381360646 7.275644319352282 9.718938719928165 0 0 0
166 4 12.53312819608648 5.304343115890514 4.669293787090926 0 1 1
50 3 9.919365520322742 6.828395506229651 6.638882409865653 0 0 0
15 2 11.581288392375475 5.696491881136316 6.903783338402786 0 0 0
95 3 12.055714521712332 7.3024086805289095 8.020160045699448 0 1 -1
36 4 13.670212467699743 4.596994102386184 8.162495930860457 0 0 1
187 4 19.476787408202178 5.584903790430438 7.582369913016952 0 1 0
100 1 19.727339834934497 4.98003454626011 5.271977463253523 0 1 -2
14 2 23.886449621647806 4.141486631703968 6.492762527695276 -1 0 0
32 4 22.04682547254484 5.452535648048021 5.0392116562587645 -1 0 0
69 4 23.200012023422545 5.791721954783405 8.271092353533415 -1 1 -1
180 4 3.0633803805150475 7.954338201472609 5.318985415887391 1 0 1
58 1 7.2537657429820666 8.6948989159363 9.540195459874969 0 1 0
33 4 5.11799526997214 8.609527714807497 8.205919510755127 0 0 0
151 1 6.421596929204996 9.769399148010242 6.476414801345512 0 0 0
120 4 8.315936235428874 10.041365509795337 7.84269405014165 0 0 0
61 2 10.354048500187211 8.411041195402337 7.8436780892245155 0 1 0
18 4 11.275851955213065 9.80338261466911 5.980941215471192 0 0 0
6 1 13.211043002300315 7.960677282811414 9.414026829178557 -1 0 0
72 4 14.672912789462154 5.201359018604579 -0.13053777343728265 0 0 0
68 4 16.023700872854384 11.24799922771063 6.556475930660045 0 0 0
148 1 16.93506549448844 9.162848823305003 6.13756327484485 0 1 -1
12 2 16.82246395387439 12.054050415036619 9.047518300018261 0 0 0
182 4 19.258626530257004 9.397256381772277 5.743891426258263 0 0 -1
53 1 19.994154936350164 11.028353637284871 7.419011874258716 0 0 0
160 4 18.193225894534137 10.011761012143396 9.055329824832537 0 0 0
42 4 21.99873638293264 9.800297197701491 8.27511893709992 -1 0 0
136 4 25.072575739652194 11.676691135685278 8.784245219747785 0 0 0
43 4 2.6899142107041527 13.643250433636885 5.107959521809841 0 0 -1
31 4 1.909352748233096 14.536170399577037 9.51428617335915 0 0 -1
87 4 5.37600716922603 14.138600487376893 7.420178596384475 0 0 0
16 2 5.0263094016026955 14.045815808567534 4.994667745904405 0 0 -1
4 1 7.479748930826132 15.33835901298716 7.285196526031318 0 0 -2
67 4 8.668523352504042 14.214453490337858 9.158783410333971 0 0 0
29 4 12.303970833786282 14.174364737283337 9.12749727466183 0 0 0
40 4 12.095924733172838 15.417822889285095 5.722157809978872 0 0 0
124 4 15.649804209180092 14.191582562778661 8.28903856942346 0 0 0
118 4 21.045770302395326 12.151202346632408 5.22184556456233 0 0 1
73 4 17.38098017926668 15.030020317094447 5.098585766626798 -1 0 1
2 1 17.621052059317954 15.190664760926348 7.424267194745274 0 0 0
121 4 18.89796292442672 13.180763373820877 7.962927614266751 0 0 -1
181 4 23.466200042660823 14.949015309511372 7.164813541923488 0 0 -1
170 4 0.5043661789656985 17.11402670354828 7.299083785985252 1 0 0
44 4 3.5443792732150206 18.493370573196035 7.968548748072709 0 -1 -1
65 2 1.478093194274982 19.71379449664795 7.668106848836436 0 0 -1
172 4 4.767356415554635 16.4252845824428 4.596636088187576 1 0 -1
149 1 5.3761933742101995 18.176944941099798 6.153755577872981 1 0 1
71 4 7.26721141612176 17.66804885623228 7.426962628677174 0 0 -1
24 4 10.407625570870938 17.155865323369678 9.634473366478806 0 0 0
101 1 8.894800913835562 18.849990807229638 8.585121029079067 0 -1 1
9 1 12.235399114631221 18.64090428438667 9.161969132941469 -1 -1 0
169 4 15.78541265334069 18.322177992006434 5.871655872547564 0 0 0
184 4 14.36227544534914 17.606266928150955 8.97523739114802 0 0 0
158 2 16.35318678979801 19.062419396786495 8.149152175058768 0 0 0
179 4 17.84753704755589 17.188840390397914 8.697059999970818 0 0 0
7 1 20.454664422047273 19.85945686703708 6.326365994666429 -1 0 -1
164 4 21.58570239528394 18.25878473667043 7.845739671284293 0 0 -1
155 2 23.807177207088785 17.31987251823372 7.345831223990369 0 0 0
191 3 23.630231936810745 17.692635765639785 5.398622954812161 0 0 0
77 4 1.39465182452731 19.87180458565938 5.219883425423453 0 0 -1
192 3 2.239862847118721 21.48063259958099 7.853896012093878 1 0 -1
157 2 3.618369974386983 22.936518808308968 8.103316201834684 1 0 -1
39 4 3.6746704184259436 23.429436388725183 5.504433029899539 0 0 -1
146 1 6.248263779790938 21.444788638872712 9.194191374416466 0 0 1
63 2 6.0083985519469465 22.316979621476467 5.637423244949893 0 0 -1
96 3 5.4119483920484495 22.097774003469446 7.500554441613826 0 0 -1
82 4 8.225437427324463 21.41678313607459 6.245153559235764 0 0 0
105 1 10.559966895274398 21.408554329488904 5.899323877681565 1 0 -1
183 4 10.855433788275034 20.00119703482097 7.82786076445655 0 0 1
85 4 10.60216802520828 23.609242152262116 8.672974203104047 0 0 -1
99 1 14.010219671036651 22.130234776664228 5.892585867461118 0 0 -2
117 4 14.638268398389314 20.931359785016337 7.8474260923019346 0 0 0
186 4 18.226128604792827 20.36013415133408 7.267620908933575 0 0 0
165 4 19.682021983865255 23.420687087619342 8.571810002897372 0 0 -1
20 4 21.24069963629468 21.99801742790851 5.685339838278396 -1 -1 1
93 4 24.641019517913392 19.920793430148095 7.408454834254123 -1 0 -1
3 1 21.909322561333944 23.07343488600995 7.641406457627656 -2 -1 -1
188 4 24.56224049884235 22.957213893606298 9.073396859272815 0 0 -2
8 1 3.2305466361796076 26.16430831166638 8.014207294902992 0 -1 -1
154 2 0.49903370936238733 24.768820099949675 9.175023329092657 1 0 0
190 3 2.219983249822467 24.488936377711735 8.321397162945775 1 0 -1
97 3 6.831742654152445 24.269686640374736 5.36281445759895 0 0 0
103 1 6.394663815783509 25.85505525432676 6.52582363078102 0 0 0
176 4 5.218444776123673 25.094183044633994 8.43722895800159 1 0 -1
140 3 11.245345943873094 26.657728254643587 7.665623128434007 0 -1 0
109 2 12.346869504550021 25.37131090755644 8.63400590712407 0 -1 0
134 4 14.285500030048505 24.016644211026144 9.757106040984695 0 -1 0
162 4 13.160457326597825 24.360781760089264 6.363127443208674 0 0 0
189 4 19.198981627433476 25.43071535277634 5.717658899759632 0 0 0
167 4 17.27768701403445 25.987591625712593 8.707706790458067 0 0 0
159 2 19.632304105341774 25.870842560701156 8.263433672071917 0 0 0
49 3 25.354524050950232 25.650754894277934 7.674219365056997 -1 -1 0
174 4 22.168106147631043 25.417433488616616 7.4933605618908175 0 0 -1

Velocities

94 -0.654214379867426 -5.0977272293286005 1.0572474323316048
81 1.6494114595245053 -3.891854923952154 -3.844583367654561
64 1.6268562568870049 1.1994015208098046 -0.8119338463611185
115 1.1283580442337444 3.3546565170033125 3.137462002949338
102 -9.930185496521581 4.229238018634194 -6.614160045168195
137 -5.644353445584595 -2.9743058528268946 -1.8755686410148904
113 3.882762941391411 4.0410790337879625 3.1924060136947205
110 -3.064805198958774 1.4247323587132714 -0.27198782436899427
28 -3.794509474266315 -2.7534588621855955 -1.8173661792418558
122 -1.1174724020236515 -0.06299320159962314 -1.5924467889032425
21 -3.3524953219717015 0.9400625526069454 -0.33352185399339185
51 0.9993337469163915 7.80124604416855 -4.665781019727459
116 1.662847841560347 -4.164899169794487 -3.7083099468579346
25 -0.0895741207489426 1.664974212045768 1.7947976357575284
45 3.02291972779292 1.139368721763059 2.3711758331715216
59 -4.905526024648773 -1.6988201728867396 -6.867646196368314
114 -1.7358585235313544 -0.5348266580007536 0.7181125507146806
48 1.972334317230922 4.560903298600657 2.528352116124069
138 -0.6613105529302444 1.4498677184157394 2.2471562768248217
111 -1.5641726691223914 -1.8855589975528215 -2.5624689400144134
56 5.949423826149365 -6.025281634387977 2.7269139764566543
161 -3.3516517233682253 2.8089854946165955 -2.918741540510523
112 -1.3937554271767356 2.2874206328702695 -0.42203882729973347
130 0.5409061650830984 3.408463948546152 2.73410335703658
83 2.2711221443271734 -4.817262849124482 0.15702328579630684
13 2.4655992470336923 0.9428776874358809 0.31865753210198255
37 -0.7072469318629655 -2.7956370175154612 2.258737761681404
75 2.464667976101149 0.9011318750506994 -1.3839226745545112
35 -0.7572702402744464 2.351673476836628 -0.1183226011002948
106 -1.0495219163149594 2.505887180711477 -8.639443297689331
62 -0.5542201788107317 3.4175747722053598 -0.0914655591892573
150 -6.367504705291222 5.643111612528778 3.1808344913188353
34 -4.029934762653067 1.0291546788079131 2.522528994932875
91 -0.9429937013171785 -1.1494555516929967 1.8431506832452675
123 1.0599144658534982 -0.5503954112184268 -3.311267147348275
143 -4.400650538496633 -2.9250363505447106 2.7972298668882876
139 4.046685591637424 -3.9443300915297392 0.42215304897025846
107 2.2501143070595107 1.0856276947715455 1.2840374578744365
129 4.702961229233554 -2.2403944492801453 -0.7808831405255905
23 1.3346919182958528 3.5903181522481784 1.353574502560444
128 -0.06330729146868987 -1.1148135641458932 -2.1736294382219183
55 10.218088051394487 -2.4260927043135476 -12.88870998043006
90 0.6983350840132533 0.27740217940714457 0.75168349789191
178 -2.132389453383 -1.8030805765587479 -1.3936000122773955
142 -3.4976727138686092 -3.2963420287471012 -3.8126853309230864
30 -0.6147890062768523 1.5320180240484573 -0.9820824113862153
22 4.485936348331286 -0.9175180740579965 0.9727336884854033
86 -1.5705359141380253 3.237600158334409 -4.630528033575189
152 -0.32588221192539735 -4.2211386822335415 4.044533576032336
27 -0.9913611401024216 -2.614627816958176 -0.870809437833518
17 -1.2765699051938528 2.232491296124499 2.153500614753289
47 -0.058801639009312914 1.417931837731933 -2.0365602313673765
104 -0.2817488222425902 -2.5044918333857193 -2.11798147882541
145 1.023788730196029 -4.059004785682884 6.620731332757305
127 0.4915481018687762 3.39231371668679 2.1634199927882816
173 -1.2547918368168693 2.473892486817999 -0.13755405645526686
144 -6.868864908142811 -2.620330581813487 1.704720337811033
11 4.654436166597673 -5.3954374514944385 -4.340744359288752
153 -6.1614121928728025 -8.956925969150328 2.9849649700533902
46 2.956382995800412 -0.7321085457730162 0.2869392144281742
175 -3.557059417670814 0.36950601466222666 -0.7548314751339261
26 1.974367259405468 0.7331821606157201 -0.5054380071541282
78 -0.9955621112074803 -0.5582576765946269 1.2146509012287394
79 -1.9518569979206977 -0.720674817914001 1.2991571713392953
147 0.26831022287106127 -0.10946882638847945 1.9771210718984402
135 2.4459912263751327 -0.3489002498764352 -2.4956976350119158
5 -7.534029692745161 -0.9174259132965624 -2.4045101778064306
52 -6.43893919550007 5.501064765068655 7.006713171043501
185 -2.3830112562473262 -0.4872224815845243 2.837111878365493
133 3.695508245680268 -1.84280705031033 -1.5920287129159463
92 -1.3363598461150803 0.5046706906074403 -0.25916794104625646
171 0.05430831999977757 2.934385615051396 -5.723001628476587
156 1.6523558186494056 -0.020733613764059897 -1.6992958782307772
119 -1.1454542820173679 0.8542734622674785 0.40125861292342974
54 -7.57219382944491 4.820805907866155 -8.80959775835171
19 2.8512177535931333 -1.4760164555921798 -0.7404321362416414
38 -0.04829374009192884 0.6604773502418296 -5.90492002009262
76 -0.8985466757957307 0.7016865465785043 1.0224174667530024
89 -0.8368219923168151 1.5381574837906227 2.5530275656410346
74 -0.28152325916496457 -2.0496702605952737 1.061872493398196
80 -1.4709138339087178 -0.13552837084951547 2.735664294050666
60 2.8661360476866835 3.333524280637811 -13.148281555831765
163 1.6313088839124867 2.487272590314733 0.9481637627096907
108 1.6102191963637082 0.7350195291896761 -1.136187540207926
168 0.7940180513849899 -0.1706886941777505 3.2984497198803786
177 -0.8169278924320843 -1.6595837251649368 0.23439126330110252
125 0.8454178540154269 -1.488064461999634 -1.1599568744742672
98 -10.181720843222015 14.031027666947764 -5.01460357454933
126 0.3203844777230874 3.1286894783743877 -2.6881295726986796
1 -6.733932751227605 9.116302466676894 4.870466448917222
10 14.151749687951993 -4.896503984837557 0.301465716368114
141 6.1375381423000785 -2.555619645523609 0.23045428314363417
132 -1.8285050993367067 3.8111583877449657 0.4524569810087125
70 -2.0460817707614734 0.09006641259448618 -1.1712313674444566
41 1.0782250857002487 0.9018710695912759 2.662888205746347
88 -0.7456976041433034 -2.9722914701197536 -5.656396304434061
66 0.3155859145872554 -3.4170647652437003 1.6029508986751675
57 0.966350379920118 -1.7766901274954137 0.6869752679269787
84 0.41537641698718764 -0.25723961311451793 -1.3375395330653812
131 -2.350395693494129 -0.9842629778059374 1.1865697839560194
166 2.360028821348448 -2.9365247356315205 5.551242169409871
50 -1.729730900108168 3.5011267878310144 3.8386928670540432
15 2.3831067182522077 -0.03846572240979123 0.349823672586377
95 6.563046063758028 1.0716203209855644 -0.920631965687066
36 -0.6525120463549888 -3.3851148128639736 3.2100397897490143
187 -4.8551271357576775 -3.3497222133626674 2.3814880868548056
100 -5.827204844955408 -4.11435779886612 7.274514149414133
14 -0.13821214134244242 2.2380599521302926 -2.703743674868495
32 2.5610788462548797 -1.278591240451286 -4.025792058181974
69 6.173125565415311 4.0423956795353675 -2.901694103402028
180 -3.3511405165570127 -1.8732181663806409 3.6773973278313417
58 1.1066818958429325 3.629647829513159 -4.2067419879259305
33 2.2358016068498845 -0.19753589140314035 -0.13575831765397903
151 -7.286592077151351 3.7392577528278226 1.2868013086286267
120 -3.5598105759838305 -1.6397134373617306 -2.031652544004251
61 -0.5641824919167305 -1.1281721500452722 0.8641832201058058
18 -6.396025879171774 1.1866378696285051 2.3144292885049187
6 -3.5715619113405572 10.056415049310875 2.1816394455298793
72 2.5772444525415166 -2.456183519513018 -1.9978249844723444
68 -1.3320337407429907 -0.6814538589769364 -5.973574958033882
148 -5.351212293350456 4.314021665089639 3.4459587050664933
12 -0.6495431422303795 -0.10153115617907997 3.65826287001512
182 0.44761760042476156 6.834475555579561 4.716066509429783
53 4.351446310672935 0.16360453749499798 10.347523067978257
160 2.211930771980191 -1.8028014676615913 -4.106699559271431
42 -0.6671290775308628 -0.7145966218684043 -0.5551896560038367
136 0.7897088785116997 -0.13513921561151523 -0.4890383330586651
43 -1.3122552267380627 -0.7920423056447218 -0.9916307983564813
31 0.03351914979189865 4.1884011649648905 -1.381592986630354
87 -0.046410164400039734 1.6983066108007108 -2.2909783913081734
16 0.45785195551008645 -0.14636952456998878 -0.20465060859215548
4 4.476066955644286 5.806887445765274 3.685704487462559
67 -4.6527006764459085 3.022606258632365 1.19411485210402
29 -1.1679155661924445 -0.006719575892412246 2.4668918401405984
40 -1.3665436664219532 3.4993331026161956 0.6671035896548038
124 -0.04392607026515848 -4.647419431369698 3.9408924758644166
118 -0.29550453348488603 1.0082800829562388 -0.7759379604557253
73 2.2717219079427475 1.2926773578392505 -2.6500023976965026
2 -7.391814540044762 -9.861057469201256 -0.021542757681314702
121 1.9456783877628863 2.3503674605202094 5.533156572956975
181 -0.1989520780190972 -0.38709018131100265 0.3955929492167743
170 2.269552265663054 -1.73836524800471 -2.0323639720336133
44 0.25143404569160294 -0.7152451308890682 -0.05007835482414778
65 1.265655825534155 -0.8581981012969823 -3.2121465506269185
172 -2.772393859219236 5.3584568621409545 4.087335687235068
149 9.571357715169796 -6.796341766766494 -1.448267312000828
71 4.549463411184937 -0.5276482292034429 -2.2378019760359398
24 -4.4442375375646295 -2.7734369150342344 -0.30451858505744894
101 -12.549804777142532 1.5077649254685714 0.255926844597682
9 -8.645017654265821 2.277942585947624 2.4771241148767116
169 -0.2508461620501063 -4.132666946723245 1.8909126878605904
184 -5.9771602896399445 -0.9287761764735118 2.829818082857008
158 1.9452766675894497 -1.1222735971484212 -0.06974483706090513
179 0.9620971471213068 -5.249652598625284 -3.5993555107390227
7 -2.345558285171846 2.842176191763348 -4.674666246800703
164 -0.7208662270190959 -2.8956755033676767 -4.197538293073303
155 1.279063244496693 1.0172758112134315 -0.7514413999123851
191 8.848901864470433 8.485856957642909 -1.525928314171189
77 -1.0053479400994465 -2.5824896996180624 -1.4093333739773206
192 -1.9617266461008018 0.09217804252775316 -2.2189382555304364
157 1.9083782471219595 -1.5046755039387953 2.7833675542353067
39 -0.4682439287224666 2.336279485552943 -0.3347932425458975
146 7.562903065280423 -9.00025442620413 -7.801113118789008
63 -1.8673230066443278 -2.2121987969800503 1.7982521632413027
96 2.8137806364116926 0.14846953190341408 -8.165380357766173
82 3.80327545062449 -1.8129135445176774 3.0518375224421086
105 -1.2445954068926697 1.0783860910399876 6.102687414223209
183 -0.030483720710888368 -0.6625569289232258 0.8285617149988641
85 2.514713569182389 0.6488660928649342 4.520947869774379
99 -11.595115485088389 14.907353812923416 8.28575762946784
117 1.559533100978335 -2.291509571631685 -0.31786279176277865
186 0.5973166590842789 0.8407093588187213 -3.138572720134367
165 -0.7480219030626735 -2.2684367852867133 1.5134154264387436
20 0.5600332844502859 1.9874861288532102 -5.16585863483765
93 4.404931130773258 -1.2474211078621935 2.926387912115463
3 1.9827129342906158 -2.2048343855457997 5.713119770441634
188 2.3742567594321304 0.15703992173933695 -0.2642837156944478
8 1.5285479573741763 -6.768190466338982 -6.478011071674792
154 -0.30668118953221724 -3.1123354298743497 1.3440550155389626
190 -4.331927915399674 3.5081420130104464 4.396393062539195
97 12.530068999883868 1.3732563123730845 -9.93416890097463
103 4.206851642728832 -7.920909029376732 -4.279317373520123
176 -0.3301036120783164 2.2238792376964267 0.5830830291236709
140 0.4854254235541283 3.165807043311763 -7.668221321175441
109 -4.678866455718675 -0.01407904847690327 2.5202764981769468
134 -2.074176417597686 2.0789414483187225 -0.7133969375119487
162 -0.809788095910107 -1.8705830690898395 -0.8613404716298266
189 0.8023222007350146 -1.2333873992257791 -0.3122668304764545
167 -2.8795423434038736 1.8276174125752698 5.323896385702357
159 -2.2233982918244632 -3.6294925934850317 0.6035354119701062
49 10.11771500049732 -0.780085346368953 4.5686765947071
174 3.2498719238044655 4.858624803873932 0.4173344131519575
