LAMMPS data file via write_data, version 10 Sep 2025, timestep = 20000, units = metal

192 atoms
4 atom types

0 24.909354 xlo xhi
0 21.815299402435457 ylo yhi
0 9.619301915937136 zlo zhi
0.40926158522763945 0.019207506470194195 5.704494503559394 xy xz yz

Masses

1 6.939999998214724
2 91.22399997653315
3 15.99899999588435
4 35.44999999088069

Atoms # atomic/kk

57 1 1.0946619289995472 1.630637174216656 1.336902570294598 0 1 0
41 4 2.60620443252086 3.842636703928959 1.5518994037639033 0 0 0
49 3 0.6646660678500338 4.011839068083618 4.697592687093404 0 0 0
52 1 5.04387217905127 2.0933039499688384 2.1925716217414206 0 1 1
84 4 5.724189578590149 2.844544960381809 4.144227545713458 0 1 0
19 4 4.439553802046538 1.1830578077233098 0.39344488048995857 0 0 1
38 4 7.814145475664088 1.9807515564969462 1.8141237496672131 0 0 0
66 2 7.525540910797939 4.241902943985067 4.621919165756804 0 1 0
61 2 10.18305051139185 3.22557380994477 0.2550962282042798 0 1 1
95 3 11.349993090215888 2.5697122432717747 1.532385487924203 0 1 0
6 1 12.083086769655639 2.267592083735896 3.0093166398515008 0 0 0
88 4 9.391945088492456 2.8164280429603754 4.736570504119321 0 1 0
125 4 15.827394203297526 3.0800746849707648 1.1425154964899802 0 0 0
168 4 18.704756495862153 1.6865294200600025 2.565984087646327 0 1 0
126 4 24.334937298324856 1.9821699360487046 3.12181194070935 0 0 0
28 4 21.203306527445505 1.7741676638372113 0.02005625531278676 -1 0 0
110 2 23.660612391298546 3.783011986996511 4.61185637205497 0 0 0
116 4 21.627901393070914 4.172070960333156 3.488449098127275 0 0 -1
37 4 1.2448506186444197 6.745250709245391 4.721086453309747 0 0 0
14 2 1.2030667568318105 5.463132793118862 2.811065356032407 0 0 0
32 4 1.4947188360881667 6.710257284505026 0.6387076875062964 0 0 0
103 1 8.41940208838953 5.8363596839911445 0.01773039820613937 0 0 1
25 4 8.287667623340464 8.61550931350334 0.029800280187967626 0 0 0
2 1 5.095195368950788 7.774468708839146 0.47209612603604095 0 0 0
33 4 6.5083048064630695 5.779707737998199 2.76518937182862 0 0 0
18 4 4.3717154208439535 8.813453547730752 2.1966426256796434 0 0 0
45 4 9.7276528243793 5.0363109690407475 1.7660178247786193 0 0 0
34 4 11.323764114399054 8.930184569331688 1.9432424953164051 0 0 0
12 2 15.426151938061187 8.181114807729502 2.566212892448707 0 0 1
68 4 14.629891962878085 6.156597651094649 3.831543689577579 0 0 1
160 4 16.469693288216384 6.729370025194299 1.1438873178427373 0 0 1
111 2 18.724730699454494 8.372226412559073 4.5258799257689315 0 0 0
114 4 19.32350004728711 6.078141434158909 4.119602513069723 0 0 0
48 3 17.062149365502965 8.799131710442259 3.3381062587710844 0 0 0
139 3 20.45187862744319 8.538746879624837 2.6914587293045913 0 0 0
106 1 22.970088137890897 5.890523987319712 1.757070383642303 0 0 0
141 3 24.301912294557642 4.917086085772538 2.7876206633963396 0 0 0
98 1 21.515370041560804 7.6980534478508815 3.897309812515129 0 0 0
42 4 23.35852545308659 7.8854744763862055 2.9134225321723 -1 0 0
13 2 3.5493903801915367 9.934581550933496 4.392816196583483 0 0 0
21 4 1.4703542730965717 10.353653974302597 3.400627137654706 0 0 -1
87 4 0.6028776136363987 13.567781820145697 2.2984771453646107 0 0 0
27 4 4.971649756452953 11.626407538958476 4.685236197391929 0 0 0
67 4 6.926114299599426 11.3118488738136 0.15122472875306261 0 0 1
71 4 8.623643156540258 9.985354507014423 4.118837330326404 0 0 0
62 2 9.120965284453513 10.177999560540911 1.840064762630974 0 0 1
24 4 9.799502546176356 12.45009187516893 1.9145008561616237 0 0 1
186 4 13.667521571905443 13.60660836209599 1.9568914339210552 0 0 1
129 4 15.7108332624674 12.087609813478918 4.258496246135353 0 0 0
72 4 13.684564244125141 9.340980984095735 4.387789749707666 0 0 0
121 4 15.031757157256587 10.184754665509626 1.1586383359877086 0 0 0
183 4 19.10025704235736 13.475413933262217 3.1328821142926926 0 0 1
142 1 20.397288928110058 11.554674247240843 2.817622233172896 0 0 0
59 1 16.89602882100191 12.481329772214377 2.4311798125979323 0 0 0
23 4 19.261011584185123 10.278250941153237 0.9039230547661123 -1 0 1
73 4 22.47382240591222 11.241660123483667 3.020797617690289 -1 0 1
107 2 21.545169986698102 9.388522000392559 1.3881787542611048 0 0 1
65 2 2.744313359650126 17.746304538704916 3.2103251631984304 0 0 0
178 4 3.7335472829685235 15.84415400813111 4.407168857074618 1 0 0
192 3 2.7252271309216507 17.298056231295227 1.1783450394717745 1 0 0
79 4 7.025071604091409 14.031343701788122 4.589523485424834 0 0 0
104 1 7.715714329020868 15.148549443224026 2.7158780978213874 0 -1 0
39 4 4.627907444366753 14.02283761293948 1.2820087274149456 0 0 0
22 4 6.285865507404858 16.86106234585918 2.5670462607867828 0 -1 0
145 1 11.885615769332835 15.581281817731334 2.0044954408965494 1 0 1
47 4 9.9483643140356 15.212789452717894 3.3402815295115746 0 0 0
173 4 14.681188401923754 17.293377998468124 3.493126939043722 0 0 1
175 4 19.03931549133783 16.44505788291776 4.052627090916898 0 0 0
150 1 21.61390539605443 14.828022679563754 3.288635162456956 0 0 -1
182 4 22.14506083181715 14.78947634455944 1.1066236360784762 0 0 -1
93 4 25.129778019798927 17.214096929038256 1.9734664500891774 -1 0 0
100 1 24.081319809044942 15.168097389689946 2.4698268545547477 0 0 0
170 4 22.95401092423599 15.7544780729195 4.673087882500747 0 0 0
90 4 2.10955036775869 20.122253854584443 2.7445665095056224 0 0 0
77 4 4.9437261478372925 19.174225223255288 4.25571989391821 0 0 0
81 4 7.9676657494475815 20.473014126989167 3.0306061024210824 0 0 0
10 1 7.348941642774815 21.9790490452283 0.6158173215761247 0 -1 1
85 4 5.023694607260791 18.9897508658442 0.5074425119000668 0 0 0
64 2 9.913158285164387 19.826167219857822 4.6572728700299955 0 0 0
56 1 10.092133754198114 22.66433029467246 2.556450507609586 0 0 -1
82 4 12.573728712587286 22.623763262086964 4.379903454631474 0 0 0
86 4 10.754795638545616 20.241596460592913 2.4192961394771304 0 0 0
3 1 12.865944343334188 18.82193037317021 2.6873522032168418 -1 -1 1
53 1 16.159956292379057 18.70745943082807 3.3748124852905725 0 0 0
115 4 15.823054380847276 22.818082756125662 3.688957555712353 0 -1 0
137 4 14.112105303411209 19.4619306091227 0.33213745676329504 0 -1 1
171 4 20.61987446169416 20.161829637068347 3.2463186280732583 0 0 0
108 2 17.15117343102708 22.585286947604956 1.7685392567751512 0 -1 1
113 4 17.035651952409225 19.806732469530026 1.762150872262736 0 -1 1
1 1 21.487715107536715 19.0250930649036 0.7635880315706607 -1 0 -1
174 4 22.95293866228194 20.51042444285532 0.9462192584341149 0 0 0
58 1 22.85523543475308 22.846475438822996 2.496082349334478 -1 0 0
134 4 13.756720890899404 3.6078594959673844 5.15039409680354 0 0 0
69 4 2.656221843551981 4.809794952309391 7.60250990295876 0 1 -1
94 4 4.384546842990929 8.580583972744938 6.098265918069924 0 1 0
78 4 5.694727003098875 5.2996796768903485 5.635630473499765 0 1 0
70 4 9.108933117355502 6.05920121688472 5.003991821984139 0 1 -1
50 3 9.82021471970433 7.355172443558463 8.390975306231578 0 0 0
140 3 12.367417289002384 5.754944766083407 7.081446323977085 0 0 0
15 2 10.303591478237433 6.346000734477982 7.000709505525491 0 0 0
36 4 10.67216195938122 8.299014810715967 5.557443523472595 0 0 1
166 4 12.159870531315093 9.086754738146581 8.346718406974322 0 1 0
147 1 12.627355190504169 6.84668046912446 5.12325488515715 0 1 0
131 4 15.322735905195687 5.935587599372289 7.917382274773722 0 0 0
143 1 14.139708762659366 8.838821511969298 6.546528201195382 0 0 -1
136 4 20.20006770523768 8.419695357680673 6.510062971489597 0 0 0
163 4 18.076427691742584 5.885636346512131 9.374526857806238 0 1 -1
123 4 16.988587942558638 8.061462905481058 6.332907972217167 0 0 0
26 4 23.42810089300956 5.650598048306861 6.306075489483457 -1 0 0
8 1 24.703561650032984 7.8359756900383335 6.692476635200096 -1 0 -1
132 4 24.759030842318246 6.84219184018758 9.151319027809109 0 0 -1
101 1 22.76418225926917 5.755988348776502 8.832449023586001 0 0 0
102 1 1.9580765233995687 12.897523935489506 7.567900876732902 1 0 0
83 4 2.8454121164531005 10.637085888516058 7.134465306955947 0 1 -1
46 4 3.856422660494889 13.736756741035096 7.712150869512618 0 0 0
99 1 0.2145760017347104 11.123171363650549 6.005380890850777 1 0 0
153 1 5.2955713297640745 11.751048725159162 7.131874631909902 1 0 0
31 4 6.258536244425096 11.115601999968426 9.1686381352256 0 0 -1
29 4 9.398438751028444 10.659144404267067 7.945353270322446 0 0 0
91 4 12.41113251596942 11.47501476088159 5.608240836065833 0 0 0
55 1 9.518831699317436 13.747615145059173 5.195762012711424 0 0 1
4 1 9.428807708965223 11.070354472174218 5.98218197647042 0 0 -1
135 4 15.040163833521545 10.691086597581029 7.777241364979972 0 0 0
5 1 14.16144599137454 9.406290441578008 9.340304869065932 -1 0 0
17 2 14.084550778880448 12.816721716202887 6.648423951714804 0 0 0
40 4 12.782293133265801 12.904880670344532 8.649684433063099 0 0 0
161 4 19.62496649908372 11.357271337230465 9.327527941764886 0 0 0
138 4 18.885911362033923 10.947726266027734 5.014174309294508 0 0 0
20 4 23.385201736017738 9.686067832684355 6.184636926464935 -1 0 0
35 4 24.595789587332558 13.059942892062615 6.257051540586074 -1 0 0
133 4 21.301051801078 11.81897945153983 6.735343657481344 0 0 0
130 4 23.082682526627494 10.216316164112534 9.546516441462066 0 0 0
112 2 21.14880155262537 10.023582692912205 8.244500269698937 0 0 0
7 1 0.7558989452076029 14.882439443253322 5.851276690306739 0 0 -1
44 4 1.603736685038511 18.097508872496785 5.194904892332179 0 -1 0
30 4 3.3312110857917125 16.185123481538678 9.227589721508117 0 0 -1
151 1 6.62235646019705 14.609518226965932 7.442213671152853 0 0 0
188 4 5.645112167477752 16.73244345832343 7.090360715396566 1 0 -1
152 1 5.785361975185206 16.60269932763102 4.990563781028093 1 0 -1
16 2 4.683938845796305 18.148305739396445 8.978603068100538 0 0 -1
75 4 8.10439326547391 18.12441533476995 5.816440565442824 0 0 0
74 4 10.511204624780731 14.449085452350532 7.123270737629798 0 0 0
76 4 11.17212832822282 17.962106425817236 5.572793446572336 0 0 0
146 1 11.533311266491216 16.54323566520857 7.28459800818322 0 0 1
179 4 12.435900817550804 17.273901767363032 9.22439139065829 0 0 0
127 4 12.69853775574194 15.028523932660686 5.316748192103925 0 0 0
124 4 15.913402494156818 14.623290711376075 7.242365801085915 0 0 0
119 4 20.39547667494139 15.59595724873765 7.061534504686604 0 0 -1
105 1 16.98620099649702 14.02461989755571 9.262955444821928 0 0 -1
54 1 22.42714628775496 14.23204244067313 7.556190096594532 -1 0 0
181 4 24.399127915905165 17.17951437085101 7.38227875192543 0 0 -1
191 3 21.380863857688986 18.24985998286008 5.059633820120866 0 0 0
128 4 23.335834046865163 13.77391086710896 9.470558516657512 0 0 0
155 2 21.94011225757913 17.36778567560787 6.601894673095761 0 0 0
164 4 22.19679107567086 17.301143143373412 9.297745081927612 0 0 -1
9 1 3.70283044832955 20.699111472436215 5.28862826426081 0 -1 0
172 4 2.4387132667857294 19.053901801771893 8.319258565487102 1 0 -1
157 2 1.832905575700243 22.117333985660256 9.37554956980756 1 0 -1
96 3 3.8768850768874636 21.821947815706125 8.858396890014342 0 0 -1
63 2 5.738101049844551 22.2259661707866 9.531030482689657 0 0 -1
43 4 6.911962342684655 19.768857294681148 8.386131776996583 0 0 -1
97 3 9.98029789018385 21.34810071229557 5.416461592006533 0 0 0
148 1 11.298465368978311 22.715894691686078 6.159010226094255 0 0 0
169 4 16.358648489090537 18.796315760935055 9.142696298348556 0 0 0
149 1 14.439850388760645 21.767508423059503 7.032448876773223 0 0 0
117 4 13.186727208530643 21.184109095732325 9.299643103678047 0 0 0
158 2 14.031686721103394 19.017076648010747 9.303168711614903 0 0 0
184 4 14.31080618884138 19.33825579315933 6.795617924085962 0 0 0
185 4 17.260210528199227 19.165804289342955 5.317376653964583 0 0 0
92 4 19.787747846477345 18.76217723472598 7.316725760583289 0 0 0
156 2 19.427211093329976 18.60925339586539 4.811581624937026 0 0 0
189 4 19.753336270003285 21.988690026374154 6.2467729962685965 0 0 0
165 4 18.734066948576256 22.542427995353282 9.52549609029477 0 0 -1
11 1 23.823238836507958 18.872739228396846 9.574000089815515 -1 -1 -1
144 1 21.816431875935347 21.133210657568526 8.344938585379916 0 0 1
180 4 24.543578018011857 22.048873839690152 8.167570895461866 0 0 0
118 4 22.69454375619965 19.73754962402903 7.107319635576741 0 0 0
190 3 1.907322659531654 23.711669674905675 7.986422836215723 1 0 -1
176 4 3.5595754388254153 23.15094669795303 5.363961371417713 1 0 -1
154 2 2.1318938356139894 24.70710553556349 6.3462913765837605 1 0 0
80 4 8.304307381371268 23.079741671967188 9.259635836346504 0 0 -1
89 4 5.869050569618408 23.90841651099815 7.097179495936757 0 0 -1
60 1 4.698039616976399 26.607383421928045 8.860224986895815 0 0 -1
51 1 8.221525185674682 25.068982584718835 8.922964936160097 0 0 -1
120 4 10.204216118367755 26.08205429259308 8.242814994694061 0 -1 0
167 4 16.027146593180145 23.030988068518923 7.990877807393515 0 0 0
109 2 13.981903426986959 26.09151846217572 7.491984307376349 0 -1 0
162 4 12.909134506502822 23.67354542931731 7.555682949813751 0 0 0
187 4 20.879268132842338 24.482062437345128 7.842081549073673 0 0 0
177 4 17.764314277112494 25.88081151440119 7.016473403698222 0 0 0
159 2 18.341009143263012 23.57144427211957 7.486327173158061 0 0 0
122 4 24.70104319411783 24.489534750953837 6.928988700281222 0 -1 0

Velocities

57 0.4594333509461048 -7.4994146089181974 -0.4247371183269316
41 5.390340163783261 -6.9703061241308 2.7466336783213174
49 5.7670234488378656 9.530649499876285 18.662784608192545
52 -1.9646511421059027 23.12664657764465 12.181689196603585
84 3.196548086054888 2.5537106083153396 1.378725714318627
19 -7.098801010984726 -7.136498414106295 7.889612618495926
38 7.092441259858457 -2.345865668509791 0.9842327253554759
66 -1.420083258401115 -2.100777885537292 -6.190853436547665
61 -3.9911736986677138 1.3204096110374237 -1.8387621259877083
95 -5.472307468432422 -5.349933891215398 1.0018176604265658
6 -19.92988638723167 21.49338073259114 -35.407992329776725
88 5.20781364169302 -1.2441472410673295 0.8319878984571261
125 13.731883125980783 -2.6904333811343237 -7.280231878465546
168 -1.1434312125122277 -3.9863143378980794 1.1442258452816012
126 3.048338879786449 -1.4983681102136368 -7.190979102448741
28 -5.278771212101432 2.001422524177775 4.006570095154404
110 9.130923749700818 -4.367381039889576 -4.085848810737455
116 -5.06182793606983 0.28324119441560347 0.0031152959013401493
37 -3.190079773996145 0.09344790391488066 1.8637432114390007
14 0.5868856914066747 3.634212693475905 -3.974681512360028
32 -1.8755934521781208 -3.622790212588776 1.4472024934126664
103 -3.1460065466585343 18.06809136483999 11.273343084634014
25 -0.12335135264463408 6.751760715916878 -3.592381492877993
2 -6.8660761688181084 0.8190382172556115 -20.090147619601083
33 0.8974423258005121 -10.702865823529494 3.7778762974270457
18 1.4610547544238628 -1.505469209939963 9.114865970430554
45 -3.807604911120034 -12.702114418807865 -0.2969600271159469
34 4.788222713926129 -5.044977205345747 2.4377312091836845
12 -4.42712548996267 -1.1275829472954544 -0.9549275453740473
68 11.889911223663203 0.7775159843852241 5.33303625475607
160 3.074622552598965 -0.279140538853653 4.275076838304673
111 2.01603802019537 -4.8373869945201635 -3.623077521950413
114 11.815617243019155 -4.724765068575901 6.314474776787472
48 0.48285883896508297 -6.011244023784277 -6.509430950111856
139 -16.965415514371422 5.154321370014137 9.727752500042303
106 -6.7071570809043894 -3.20255179877175 20.281792469386076
141 -0.9787564584819881 -7.932721771322302 -1.7659051968148842
98 -18.325738095622764 1.9002001204086232 5.144530177823917
42 7.2455291547666505 -1.0739524416787092 -1.711112945466401
13 -1.8837370284466983 5.1253997456163685 0.3867679550656311
21 -8.982480459342751 -4.6455679090100555 -5.300232182092438
87 -7.214624079267181 5.021141518467253 -8.624073505858147
27 4.802566627280326 -2.2758623690335287 -3.5487383458188138
67 -2.1003075565440708 -5.249530363527028 10.685845626940734
71 1.5294363958218602 1.168704715747175 0.21191836757838567
62 -5.916807959274011 1.1650262266331353 -1.7039306211396148
24 2.554412424388232 2.452424225248974 -1.8831547087839033
186 -1.7637833551227793 3.9002252402710265 -2.3167705544286075
129 -2.0854679084880887 0.6144764062978929 4.390514737623118
72 -7.093839628788097 -2.698382896769669 -6.164527150449611
121 0.3639162569284588 -6.5656613406764475 -0.9296346165825992
183 6.7208008527483685 2.4926573622558483 8.528185120054783
142 9.604595609425289 -15.869566603141081 8.096389859200166
59 -28.30589002517895 -22.651527356399647 5.685277762157139
23 -1.8989223639351056 1.0845090834538453 -1.6562869089257288
73 0.32641277665736346 8.743902619329878 1.383537847249722
107 -3.0436408356853923 -5.288081097639964 5.2109457816227165
65 4.185582020401747 -1.5512397821401573 -0.238386278116787
178 -5.22096493748184 6.27542610359487 2.129478324529039
192 -7.1528381077615295 -6.559180312654631 -8.130837832293992
79 -0.23897769108046768 -4.674381663277458 0.6723946025799108
104 13.720330723185663 -27.54077160604957 -12.195528330433199
39 -3.9373356577011744 -11.236597952661063 1.8597732897361297
22 -13.965457775315283 3.48674099466054 1.0317841076225684
145 0.696656836992347 22.265851381872128 6.350362237152257
47 0.8012034073877798 3.465306993776537 -3.9523888593531025
173 -8.118382213123066 4.633376986671327 12.683935917276115
175 8.165553302562373 4.1200945012122565 1.4337258398016677
150 9.741887026869412 15.307959298126741 -2.523014440542716
182 1.8069402280985782 0.6692929993184361 -5.375140076016188
93 3.9008112480405224 -12.015318098457163 -4.075910812476647
100 19.52006844480009 11.074804961401194 9.746280024826094
170 -9.524510872907566 2.673629804112159 3.804168602961826
90 1.522378184585531 -5.219250784141762 -0.9741386237555836
77 -12.478476692957846 -2.1721195435377862 12.39774254863991
81 4.365721313873223 7.316405693630546 5.381585662153
10 -18.436041759109248 -20.785756665622827 13.595886474601446
85 -1.0161598189841856 4.321806143833097 0.4266051399955129
64 2.1388704525552393 7.842880786515378 -7.263961333185578
56 -5.5260398625887275 -14.66251626291874 -22.01776362760399
82 5.716438573853291 -0.35895003809791604 10.245801468790267
86 -2.5292265927629023 0.2880355026857685 5.0082544514431
3 -2.541365835968336 18.949671901202468 -7.495731366400491
53 -1.4782103485914824 11.609018321540068 -9.469296062096774
115 -4.235519274740103 -10.99640822368731 -3.795415247866606
137 6.464116860944123 -7.5215872502576415 0.39173011149864356
171 -9.20420552929671 -0.5095910826901293 -21.69742845198832
108 -1.621556922888182 0.11088231367676422 -0.31137411126363923
113 -12.18044642158154 -2.1815434870752926 1.7798800044017746
1 -7.388278463344454 34.74941534203682 -18.25245201026895
174 1.7757566546253676 9.463930694907353 -4.411486716448215
58 -11.699055299862255 26.767589182953248 28.98524848103637
134 -11.77124352551933 2.0765135680830746 7.076880070594976
69 5.45322139570602 -0.9480550587532323 -7.087872054804953
94 3.2487589914817305 -0.5017228535415544 -0.7733386841456974
78 7.148473428630657 1.632278973911614 2.7259070792517917
70 1.7874690997221196 -1.7373282049506589 0.6385561628969214
50 16.282801055736513 -2.0922679220741682 1.9077614958701659
140 3.513406348943508 1.8640805660173818 -0.906023126020174
15 1.2507523775928682 6.408390182669039 3.062847472308802
36 4.382328751919748 2.0143412351198187 8.712201095812329
166 -2.4075943495510193 0.5594728441891381 -0.7055790964423835
147 -10.834640227842621 -37.35954664908656 0.1700706451057746
131 10.627638990287723 4.294141521713393 13.752629407266896
143 22.259614028738714 -4.3030781243106055 -2.3100553658588825
136 8.617032467758595 -4.72599538414495 -9.973234371786036
163 1.4945554749192997 -1.632224900543068 6.433523299671076
123 4.787072116801446 -9.279709102234497 -5.697436190276437
26 -5.3407019979234684 13.249760139475784 5.514259849888418
8 -11.866163423272829 10.055505095343236 -11.910960679945818
132 -3.9116107840466947 -5.97074019980543 -3.6358258153827494
101 -0.7901472713303435 -0.45446726310472324 0.6995720973950145
102 17.100959473996014 24.19469624939766 7.700149223835186
83 13.229057016511305 12.366668695089217 4.964271572018874
46 -9.052513019518011 -1.3230947972235694 11.717580071424917
99 -3.4530057872645905 -28.924057311823315 -8.427773938146315
153 7.007455633414466 8.24162542386695 -7.335887303306081
31 -3.1987464117894437 -8.665451465090934 -8.39922403992545
29 7.65589268118815 2.1240132188044516 -4.185916864668042
91 3.099272885485736 -2.0628293061636973 -3.4236442669096108
55 9.357567497825846 0.7652999908903602 30.947181102478883
4 10.566652475891178 -6.474691251397456 -0.6666539455762776
135 -7.839645314095284 -1.184290800761263 -1.4838696063318584
5 10.749355014671083 11.435785662869606 -7.595106104038187
17 -0.5743901811549466 -1.3672628441481214 -0.49342784189945016
40 -7.720473229539312 6.221237906014616 -3.1206602878676795
161 2.3849873345457957 -2.9369414725095946 -0.06939642061488684
138 3.9220962381916262 -6.8731618740626335 2.314582756440029
20 -0.9212220643935064 -4.989900541279624 -2.2423757120548458
35 0.2884088273953682 1.8533256083582765 12.507975969188756
133 -11.154587327833582 -4.4377556420886926 4.447065214923644
130 -2.547559951363845 -0.48833604996565544 11.40927974659785
112 1.1065541648397317 1.2588942580617675 -1.7086002141982866
7 -26.369533764285507 8.786232794683139 -13.238112283735305
44 2.6081380285006475 0.854572962530477 3.52220565870163
30 7.465150938785058 -0.5206121649528594 5.830016051859634
151 17.92536003091484 2.382306061209839 17.231444193167093
188 -4.360895594295086 10.359209629107964 -8.662531230112963
152 -0.37278739436240804 11.685488067994504 1.432965148671624
16 1.8986129306304274 -2.115559899899146 -2.596301767624222
75 2.340350944786491 7.086395707404688 0.11033886632582954
74 -4.3419329454072955 -6.534313027507758 -2.8326368627087857
76 0.4659409146467461 -3.894562509028292 0.7636782815705248
146 -15.43284296086057 8.693430357235842 16.749176721861065
179 -0.6087175643619458 -1.184641701577678 9.4254000608086
127 2.691239369967258 -4.469304084519794 -7.077563841107736
124 -8.071212647813915 -1.2331005055302422 -5.370804888537752
119 9.793357274716053 0.5894635540402356 -11.418789051512148
105 -23.239567119779924 25.703837773869804 -9.31555507419642
54 -1.2305507298505938 -4.557961217266311 17.86689852787417
181 3.595900079275131 -0.04697757971946528 -5.751641896492178
191 -16.431319309018786 -0.9491106170879692 -6.764687423821445
128 -5.624212461271603 -5.822387064661453 2.2262880187086185
155 -4.795759630033579 2.7933967536916904 -0.4393587130206107
164 5.344484483370999 -1.2381887528302982 10.25484715772215
9 -20.687548602998795 0.49781930369478455 -21.512067715679567
172 -2.4911840501858644 -1.5945738289683542 -9.434764645433726
157 3.599891496110733 4.358195337987127 0.14085906962126973
96 -12.63103845307691 4.047751775070547 -2.79328684493822
63 7.062356023096865 -1.4949847237358054 1.210056526032678
43 6.505799590115503 3.802224176088275 -7.542580794234885
97 -11.631868234863939 2.908855484716727 0.16277763202810855
148 -16.886523007671933 22.964032699356817 -2.578316457659189
169 4.930005689180969 -4.2382734762180005 1.996185567131008
149 -9.989878904840726 20.299178345102696 -13.477715733702325
117 1.91009565891323 2.444073293608588 -9.045967002395969
158 -6.739181026295293 -4.14889462348457 4.9458929052946035
184 -2.2230378854746156 -1.7363203199229391 5.9802975846366895
185 6.633857618804687 10.238513646365853 -6.751663114275178
92 9.713159793161418 -4.239488602998799 -2.2751481518200216
156 2.693203933625009 -2.3737395700729347 -1.1973281366459945
189 7.9088856739327555 -1.9852748885835525 5.300467241985052
165 0.7175777879884261 -1.5284727550838424 -13.64943523227469
11 7.961590643231057 0.17079311747710058 12.167701181130145
144 5.418092797155312 2.857604187770277 22.478887034515587
180 2.1331173144277473 0.4964848927770731 1.6873686878951626
118 -1.0786405482903823 -8.232971011595016 -1.9682113955699327
190 -2.6895136894095333 -5.654768380744946 -13.105867764030473
176 -0.29069630584781 7.1259268048312325 1.835021323139238
154 -3.843253521722942 4.883565957285807 3.8499554837189573
80 -0.7327738203064709 0.7951654585597464 1.3425760429377407
89 -0.023668086927766063 5.726669555883442 0.5701388669504139
60 1.575190583501337 9.909164366173293 -21.396880316650265
51 15.423802952572297 28.71658727556475 -12.620188101940803
120 8.338986959161527 4.429867104485643 -8.712048287530392
167 -6.976972570636567 -11.610459999769137 -9.509171114301921
109 -5.637394217807014 5.90705919584716 11.2527366733928
162 -7.963598154966002 -0.22765163859293192 -3.7830002099705493
187 4.944862763395679 9.13320115354017 -5.74033449543185
177 1.7481810076812383 -0.5501236609710358 -5.697507310151469
159 3.3768717679334723 -2.3697105235348386 4.371700537789598
122 7.022125032981172 2.3760186493015194 1.4657213937697369
