192
Lattice="25.825594235694478 0.0 0.0 0.4243154453683024 22.6177310940101 0.0 0.01991401577008881 5.914322802939086 9.97312849267931" Properties=species:S:1:pos:R:3 material=Li1.75ZrCl4.75O0.5 role="common 300 K benchmark structure" pbc="T T T"
Li       1.01585458      14.60487755       7.63717669
Li       9.58601459       9.87670152       1.99354175
Li      23.05461487      14.10983060       7.02666395
Li      13.14264992      24.95584243       5.99603259
Li      13.33572624       6.79376682       2.06045214
Li      12.87192061      22.36780320       3.45064095
Li      15.34869310      26.98612891       8.15836177
Li       9.28213807      20.76579396       9.86002361
Li      21.57038995      23.73733500       9.79654626
Li      19.13273502      14.91696456       6.03885310
Li      24.15983049       7.69560292       0.27558865
Li      15.32705927      17.50454319       5.21084726
Li       2.55761912      21.85070419       8.80239998
Zr      13.08854986      14.83639881       0.13003388
Zr       2.18207897      18.61725685       4.72907022
Zr       4.36220484      23.97511166       5.40925728
Zr      13.39026927      15.19390172       8.60832318
Zr       6.30426133       4.20285082       5.56513772
Zr       8.66762733       9.71574970       5.49373765
Cl       2.81654138      21.80877283       0.70950161
Cl      20.67498196      14.03180083       7.83308289
Cl      24.82883367       7.15419603       3.06440653
Cl       3.90567393      19.27706977       6.27521301
Cl       9.82559571      21.39911279       1.41895482
Cl      21.96434096       7.58122015       1.01787815
Cl       8.91151291      11.96377379       0.98426446
Cl      11.35358852      17.10264830       8.62386178
Cl       7.24247918      24.17237869       5.38517961
Cl       6.41484304       9.09658842       6.15848477
Cl       3.00678241      18.10983599       0.57893311
Cl      11.48541928      24.82587649       4.03269675
Cl      18.80785761      11.95331319       9.92099713
Cl       2.02802390      12.77193379       8.81426763
Cl      19.45828728      11.11947228       4.92376442
Cl      17.32865968      12.94617806       6.69157807
Cl       8.49737200      15.33467406       2.28661779
Cl      19.64991365      21.02012226       5.38976746
Cl      10.83924810      10.07511590       4.26492295
Cl      21.30036367       9.64092353       7.98145645
Cl      11.96610885      13.37780213       8.01548362
Cl      20.82795645      17.76226046       5.68350188
Cl       8.88293226      11.13424045       7.71848750
Cl      25.68054933      18.35213849       3.36327142
Cl       1.25941934       3.08183342       1.19065048
Cl      23.76220863      15.11516830       4.78597462
Cl       4.86549658      22.40915708       3.40607585
Cl       9.92446457       7.95019066       6.66855569
Cl       4.60971530       3.32744614       3.78969980
Cl       9.17966580      19.39542334       7.88347536
O       11.12598436      15.61194967       0.06711931
O        2.58863086      23.69573355       4.69520351
O       17.92678173      14.66399745       9.35167959
Li      17.53678310      16.63242477       9.09255605
Li      23.48744553      18.97013863       3.90045335
Li      15.95476489       7.94852175       3.69432255
Li      24.81132729      16.63697434       2.00242276
Li       7.28211434      14.18640221       3.72044335
Li      14.19344148       8.47204509       9.87668021
Li       4.40104278      26.09945158       9.72340833
Li      13.17325744       9.70295595       4.25167944
Li       9.71694232      13.44223081       8.03240188
Zr      10.41758708      19.47732855       2.61602087
Zr       2.97618581       7.65194506       1.29315141
Zr       7.65664603      17.58707654       1.29073822
Zr      11.26998938      23.49679469       9.94977482
Zr      24.71450953      12.91352029       4.03923894
Zr       8.70701397      16.96459166       8.64739608
Cl       2.17677756       9.85749230       0.50989183
Cl      14.85907574      17.29452030       3.05071099
Cl       1.11225156      17.03359888       6.29301597
Cl       4.39209763      22.24041404       7.15647744
Cl      13.52053224      20.47781947       7.75702493
Cl       7.98522106      22.43138206       9.02791364
Cl       7.59638509       4.56685862       7.42577663
Cl       3.01386268       8.61058236       3.63628415
Cl       8.08883079      11.78400679       4.47445931
Cl      10.89517993      24.33771007       7.65290193
Cl      24.82863473      11.20022816       9.94916641
Cl      10.94660063      20.94004221       4.61439174
Cl       4.55380499       5.88431296       5.81728233
Cl      14.74139658       6.76375777       8.29533950
Cl      15.33776664      14.57665590       0.97240072
Cl      14.49058310      20.76040549       2.66095505
Cl      25.47981427      10.56609105       4.02043199
Cl       8.91068060      15.71761614       6.46801955
Cl      23.38548173      12.03064114       6.21294865
Cl      15.08372277      17.14973254       9.66394234
Cl       5.02086143      14.75833567       3.81281773
Cl       6.41377178      17.31344724       8.45295400
Cl      14.45797520      23.40938324       4.91657822
Cl       3.27909077      14.60604195       0.64032840
Cl      25.56776849      22.37221443       9.62353274
Cl      22.38794435      17.76904613       2.23295777
Cl      19.84592106      14.82864351       3.86416632
Cl       6.44894336      19.50277091       0.10784986
O        9.68018804      18.06370566       1.14498103
O        5.89408206      17.02575187       1.96257810
O       12.13734970      19.10727564       1.45408676
Li      21.06494173      11.50090233       6.77483716
Li      20.50991731      12.63375210       3.47324475
Li      14.56398270      12.34582148       1.96479606
Li      16.45707961      10.86957875       5.82226010
Li      20.32247472      16.90903855       3.14875437
Li      20.54763711      26.92922246       7.93972470
Li      11.65030998      19.22187607       6.07815577
Li       3.97155154       8.22045035       5.78210482
Li      19.96659768      22.53532973       0.53227509
Li       9.99417439       9.23900700       8.70934923
Li      19.32903209       8.66804833       4.96999043
Zr       0.22505869       5.01123828       2.34152912
Zr      18.88310950       2.60122571       3.30687886
Zr      19.69167906       8.40202027       0.30435626
Zr       2.25542380      22.29096666       3.17830594
Zr      16.60657091      13.12631341       9.16207704
Zr      18.66289862      18.97189631       5.82269107
Cl      23.68649721       3.99940322       3.14368090
Cl      13.62361422      16.25041251       6.29294010
Cl      14.77229611      10.98092615       3.84374274
Cl      18.00780808       2.26217685       0.90012980
Cl      22.73742134      12.36048936       2.62315700
Cl      22.55643872       4.85138532       7.30517741
Cl      22.13640611      22.31285270       8.01452945
Cl      20.51038838      25.31675015       5.44317038
Cl      17.04891528       8.53084800       5.68542854
Cl      17.47858453       4.49157833       3.64358669
Cl      15.92874988      10.73376460       8.61872508
Cl      17.86119272      21.40427872       1.49849525
Cl      19.73469325       6.49577373       8.32127444
Cl       1.99621244       9.49161081       6.80698142
Cl      15.92086912       7.21978508       1.60806832
Cl      17.38882787      16.60692893       6.06680740
Cl      13.71789073       7.36324272       4.25260352
Cl      20.58901948       4.13003851       2.26496159
Cl       0.96753067       4.45699874       4.69550407
Cl       7.83864840       5.11478818       4.13429463
Cl      23.03470073       7.15573060       9.92284628
Cl      20.04787120      10.84968277       0.30078790
Cl      24.65468306      15.39954625       8.87377447
Cl      17.46777615      23.73816756       4.14958841
Cl       8.76713093      14.71671030       9.93610057
Cl      11.20967198       5.55385815       2.48987050
O        1.78144495       6.19368024       1.89545378
O       14.94829579      14.10741457       8.87945968
O        2.03641993      20.52620943       3.63352248
Li       0.48231066      24.71443623       4.82768051
Li      16.15292533      21.75713885       3.99723770
Li       0.43765136       8.85293319       5.26297863
Li      25.55256497      17.84206804       8.19878949
Li      14.89677166       6.99492520       6.25029865
Li      22.27782078       2.54067430       1.91251140
Li       1.04515982      10.21519842       8.99506380
Li      15.64347448       2.91671415       4.27986651
Li      22.55090653       5.99348282       3.20375424
Zr       4.07470615      16.38679793       2.13322498
Zr      22.23052957       7.35949689       7.59347682
Zr      14.12725822      18.63871307       1.19666073
Zr      18.01490823      19.11953119       0.51945710
Zr      11.53887441       3.20738190       1.84681824
Zr      24.43547467      21.64892001       7.44252130
Cl      24.33118850       7.85258444       6.47638322
Cl       5.21148598       7.21660819       0.94544810
Cl      14.43658783       4.15611747       5.94321631
Cl      16.29762897      19.79116715       5.33127186
Cl      13.52909882      25.81333495       8.98231404
Cl       4.48925682      25.78843836       7.19538899
Cl       8.01822651      19.14364744       3.47233228
Cl      25.77098854      23.15145799       3.19558639
Cl      20.70441712      23.18560327       2.63052541
Cl      10.95077890      17.69061912       4.40746487
Cl      21.41214870       7.27935135       5.18138314
Cl      19.06949607      16.85723285       0.53690170
Cl      17.63196531      25.74435316       8.13878851
Cl      12.42307379       9.77080681       9.35180591
Cl      23.82472337      19.36389646       8.54638500
Cl      12.57489443       1.01529211       1.14914154
Cl      18.51230941      19.31319113       8.14634823
Cl      25.99084826      14.11644760       2.42196699
Cl      20.53916839      19.98949961       0.02041277
Cl      18.79552206       8.28458877       2.53926842
Cl      23.61460695      20.68430298       5.26705429
Cl      12.36972518      12.87441327       1.48849969
Cl      12.88689547       9.00517921       1.04883178
Cl       8.33230337       8.52321011       3.22525088
Cl       0.91726530      13.43260388       5.46989227
Cl       9.24172703       3.02664971       1.07130792
Cl      13.97067416       4.02671045       2.12179738
Cl       0.98327004      20.71599603       6.98991548
Cl      18.42944431      18.46522339       3.28893682
Cl      24.95395913      23.81704444       6.43323414
O        3.15536350      17.34465569       3.62015863
O       13.27328950      16.88280873       0.24388684
O       16.05090411      18.75344974       0.69164589
