512
Lattice="24.1948 0.0 0.0 0.0 15.5145 0.0 0.0 0.0 23.115" Properties=species:S:1:pos:R:3 material=Li3PS4 role="R1 transport-series start" display_name="Li₃PS₄ — R1 NEP89 transport starting structure" report_figures="05_Li3PS4_lithium_MSD; 06_Li3PS4_diffusion_framework_MSD; 07_Li3PS4_local_structure; 28_Li3PS4_dynamic_heterogeneity" pbc="T T T"
Li       9.68575000       1.34272000      12.21980000
Li      14.73680000      11.71740000       9.96885000
Li       9.38223000       9.66741000       8.12429000
Li      16.06330000       4.72805000      19.00740000
Li      19.19910000       3.50009000      19.31260000
Li      20.20620000      11.84830000      15.28610000
Li      12.38050000      14.84490000      16.19220000
Li       9.30617000       3.52726000       0.05537060
Li      11.73240000      10.88020000      14.78770000
Li      22.93720000      11.00710000       3.02619000
Li       7.95583000       1.12242000       5.78183000
Li       7.04609000       0.36857000      22.67650000
Li      17.56340000      11.44630000      21.66070000
Li       5.20532000       9.29449000       0.54163500
Li      17.13910000       3.11785000       7.11054000
Li      19.20910000       6.37409000       6.96680000
Li      17.57730000      10.00040000       5.24156000
Li      23.73780000       4.18803000       0.61506800
Li       3.57548000       0.65694000       0.26511700
Li      22.35110000      11.36050000       8.42621000
Li       8.61133000      10.50910000      12.21130000
Li      11.50720000      15.09940000       1.78367000
Li       6.87413000       5.21321000      21.07340000
Li       2.93342000       3.87994000      19.64360000
P        4.56474000       1.86299000       6.14531000
P        6.08306000       1.76147000      17.22160000
P        8.72274000       8.91916000       2.69643000
P        9.62598000      13.95560000      14.10880000
P        2.62481000       3.49117000      12.14800000
P        0.05319890       1.04032000      15.32600000
P       22.02350000      14.09400000       1.45483000
P       16.76420000       1.10237000       1.44336000
S        6.77190000       9.69112000       2.31987000
S        9.88559000      11.29140000       6.54106000
S       17.38590000       3.73894000      11.46040000
S       11.36150000      15.01550000      18.51670000
S       11.37170000       5.46551000      19.06060000
S        2.57519000       9.20036000      11.53420000
S        7.67682000       9.98011000      17.17150000
S       24.15340000       1.16997000       7.80682000
S       17.12020000      10.55690000      10.49820000
S       11.46740000       0.83087300       7.27971000
S        6.89043000      13.76150000       0.91779200
S        3.99887000      11.19830000      13.80850000
S        8.57861000       8.39408000      10.64180000
S       16.96660000       2.42273000      18.82860000
S       13.21240000      13.11890000       2.95809000
S       10.46250000       2.53491000      17.36030000
S        2.10160000       0.97763600      15.32960000
S        2.94932000       4.89922000      16.84810000
S       18.96750000       4.82212000      21.23070000
S        5.89147000       0.35241200       6.73207000
S       14.88920000       0.29025100      20.51990000
S        6.57950000       4.74940000      12.91600000
S       20.92340000       3.23310000       7.16898000
S       15.17550000       6.28353000      14.03960000
S        5.27930000       1.59752000       1.45159000
S        3.26584000       1.22590000       4.65075000
S       15.31860000       9.47639000      16.99240000
S       14.54510000       0.76693900      17.15730000
S       21.91290000       8.65280000      14.56940000
S        0.46949400      14.81300000      10.44880000
S        4.73828000       9.71525000       5.13399000
S        3.50561000      13.86090000       1.44722000
Li       3.10379000       6.51217000       2.47154000
Li      23.92250000      15.16190000      18.55870000
Li      21.49900000       0.28120900      16.84150000
Li       3.86371000       4.34580000       8.89803000
Li       2.97142000      14.93960000      10.06300000
Li       8.25864000      12.43060000       7.66917000
Li       9.74590000       8.81797000      17.41120000
Li      13.26250000       2.67963000      16.79830000
Li       6.42621000      14.04020000      15.03150000
Li      22.78040000       4.85758000      20.47760000
Li       3.10343000      15.17490000      17.58590000
Li      15.86310000       7.63672000      21.38040000
Li      17.39920000       3.11286000      16.33180000
Li       6.68402000       4.73950000       3.96653000
Li      13.61870000      10.78910000      21.37760000
Li      13.13230000       5.18928000       3.29933000
Li       5.37934000      12.43080000       2.76922000
Li      10.79030000      13.88200000       7.95786000
Li       0.44832400       9.07059000      17.70750000
Li      11.52990000       9.92928000      19.71000000
Li      14.78130000       5.11631000      11.60900000
Li       2.68108000      10.96260000      16.06390000
Li       1.82101000       0.27199200       6.38084000
Li       7.41376000       7.28231000      18.20290000
P        5.15224000       8.76771000       3.36825000
P       15.65780000      13.62280000       0.33340100
P       12.93290000       5.64051000       9.04767000
P        4.86770000       7.52127000      20.98700000
P       12.02620000       3.28817000      14.14880000
P       14.16730000       5.05401000      22.66320000
P        6.74475000       9.13484000      10.15800000
P        9.88159000      11.06700000      22.12210000
S        7.06627000      12.27750000       4.32354000
S        6.79123000       0.02509330       3.62437000
S       19.87050000      14.43090000      14.71480000
S       23.62150000      10.50660000      12.66880000
S       15.72940000       5.33446000      21.24310000
S       21.96560000       4.80648000      13.46200000
S       10.12990000      10.45100000       2.80205000
S       11.38470000       9.62659000       9.07497000
S        1.41856000      13.35080000      13.16830000
S       22.34780000      10.26270000       0.91301800
S       14.43800000      13.05470000      17.23860000
S        1.18144000      11.36730000       2.89208000
S       13.26250000       9.41009000       1.93350000
S       11.37090000       4.65368000       8.43439000
S        5.58506000      12.35100000      16.66150000
S       13.91020000       3.19271000      19.16510000
S       22.94550000       0.97460800      13.61410000
S       14.81180000      10.20750000       8.23948000
S        8.88966000       4.86369000      10.59380000
S       17.53010000      14.15330000      18.38240000
S        8.27716000       8.43851000       4.78331000
S       20.89670000       5.41067000      15.96250000
S       22.00350000       5.58421000      22.55580000
S       21.27840000      11.97990000       6.04066000
S       13.06570000      15.33850000      10.40930000
S       20.61420000      13.91080000       0.07744120
S        8.68405000      14.40710000       6.27529000
S       11.36710000       3.97293000       2.05369000
S       23.56870000      15.00730000      16.32450000
S        5.77435000       8.63273000      19.48820000
S        6.97709000       6.53858000       7.35250000
S       22.59470000      11.78370000      15.46570000
Li      20.02150000       0.69989200       7.77693000
Li      22.18070000       7.27868000      16.55400000
Li      22.34650000       4.25832000       5.61615000
Li      21.14880000      13.70730000      20.88640000
Li       8.69951000      13.86740000      11.13460000
Li      15.89580000       7.35890000       2.12674000
Li      16.45330000      14.89600000      16.56600000
Li      22.84370000       8.03698000       0.37552600
Li       5.61677000      14.19600000      19.53300000
Li      20.44690000       1.82952000       1.75918000
Li      15.99420000      13.60700000      20.00510000
Li       5.81062000       5.19286000      18.53580000
Li      19.39580000       9.73400000      10.70740000
Li      12.96740000       2.76885000       7.45795000
Li      22.83800000       0.80818900       4.02404000
Li      23.26810000       7.42056000       6.40100000
Li      13.78400000      15.26970000       7.62895000
Li      22.31780000      11.51500000      18.30420000
Li      21.15060000       0.08685460      12.17340000
Li      19.07200000       6.25778000      10.23340000
Li       1.49468000       6.52121000      20.98780000
Li      12.87230000       0.74315100      12.62660000
Li      15.86930000       6.11089000       8.35888000
Li      23.88620000       2.43540000      18.78280000
P        5.06195000       7.50963000      15.01110000
P       18.99030000       5.91710000      16.07230000
P       21.34600000       7.95865000       3.92345000
P        1.59044000      12.70950000       4.38057000
P       13.08490000       8.57500000       3.71297000
P       10.07920000       1.29695000       8.70059000
P       21.97870000       8.22358000      19.89690000
P       14.43370000       5.32632000      15.72790000
S       21.59200000       0.26184800       5.92835000
S       15.45320000      14.82380000       4.82183000
S        2.64492000      10.55030000      18.70270000
S       12.70160000       6.36544000      22.13220000
S        7.48323000       1.65236000      11.63060000
S       14.05580000      11.29220000      14.44250000
S        3.51633000      10.00730000       8.48301000
S        9.68265000      14.01890000       3.24670000
S        5.49928000       7.52958000      10.50430000
S       22.69890000      11.88500000      21.14360000
S       18.27650000       1.63669000       9.19167000
S       17.75630000       7.45411000       0.36419600
S       21.93140000      13.45110000      11.91210000
S       16.36500000       7.15651000      10.51440000
S       10.17520000       6.97528000      13.06150000
S       12.50260000       6.73151000      10.73220000
S        6.31720000      10.66810000      11.39990000
S        0.57867900      14.46980000       4.38677000
S        8.53674000       0.00820381      14.91720000
S       21.50260000       0.59381600       9.83647000
S       18.09250000       4.74924000      14.58640000
S        1.51742000      15.11470000      22.18620000
S        0.14938000      12.69920000      18.64770000
S       11.41170000      10.40290000      17.21540000
S        1.11709000       7.28049000       1.46022000
S        0.57403600      10.94320000       9.46857000
S       12.75250000       9.99503000       5.10204000
S        2.96454000      14.30930000       7.75173000
S        6.25593000       7.36161000      22.46840000
S        8.02264000      12.64570000      13.78340000
S        3.25633000       8.44492000      21.77150000
S        7.52128000       4.14100000       1.72491000
Li      11.13210000       4.41885000      11.53160000
Li       2.28193000       9.82853000       4.55220000
Li      20.85680000       5.07075000       2.96807000
Li      17.59640000       6.94670000      13.85720000
Li       4.59773000      10.75240000      19.97390000
Li      11.02870000       0.02881510       5.07219000
Li       8.70280000       2.69631000      19.09060000
Li      19.67110000      11.11880000       2.93871000
Li       6.66325000       1.74318000      13.89240000
Li      10.56220000       9.29993000       5.38259000
Li      19.60680000       4.57400000      12.76120000
Li      18.84690000       9.97495000      19.10070000
Li      13.36110000       2.06624000      10.24480000
Li       1.14397000      12.81740000       8.20266000
Li      18.65470000      13.28160000       1.32677000
Li      15.78720000      12.19340000       7.12939000
Li       5.15826000       1.65597000      20.48260000
Li      19.97490000       9.27874000       6.79213000
Li      12.12670000      11.35370000       1.44293000
Li       2.67809000       2.47288000      17.09740000
Li       8.75045000      12.12820000       1.86816000
Li      19.52230000       8.76846000      13.78430000
Li      16.63680000       7.60055000      17.13830000
Li      12.60790000      11.03880000       7.33084000
P        7.22630000      11.89340000      17.77670000
P       23.34850000      15.31530000       9.06854000
P       15.48750000       9.26440000      19.02000000
P       14.26710000      13.19620000       4.72007000
P        8.52147000       6.72915000       6.08890000
P        9.63315000       6.16939000      19.79220000
P       16.16580000       8.99544000      11.58960000
P       15.02260000      14.65980000      10.56710000
S        5.46660000       6.70735000       3.54361000
S        0.95748500       7.65829000       8.75279000
S       15.56110000       4.63534000       5.93989000
S       20.96360000       7.52579000       1.96212000
S       19.00780000      10.75140000       0.52502400
S       12.34650000       4.86932000      15.47200000
S        9.06180000      11.90640000       9.95188000
S       20.24670000      11.68600000       9.71451000
S        6.51336000      12.05600000      19.71340000
S       14.64690000       6.28916000      17.49680000
S        7.19857000       3.02918000      16.13610000
S        6.03552000       6.14632000      16.29840000
S        2.47416000       1.71725000      11.09770000
S       14.17740000       9.32699000      11.68990000
S       18.25870000      11.00920000       7.26378000
S       19.73730000       9.24216000       4.56445000
S       23.51740000       8.41696000      21.16160000
S       21.61590000       6.36240000      19.09950000
S        5.92192000      12.59740000       7.62139000
S       12.00450000      15.41340000      22.08490000
S       16.44310000      12.74440000       1.90898000
S        0.61721000       4.72635000      19.28000000
S       23.69780000       2.76162000      16.20030000
S       19.41430000      12.08740000      20.26680000
S        3.07598000      13.72980000      19.60900000
S        3.19926000       2.25115000       7.68740000
S        6.37958000       8.29970000      13.70220000
S       13.71570000       8.66747000      19.92290000
S       19.39970000       8.14614000       8.77934000
S        3.23738000       2.50390000      21.64230000
S        9.53890000       1.16569000       0.70704800
S       19.37670000       4.38655000       1.24097000
Li      16.67180000      11.66450000      17.14450000
Li       2.53835000       3.86701000       0.35095100
Li      20.94540000      10.45970000      21.99890000
Li       0.08584690       9.00158000      10.71660000
Li       6.06227000      10.41980000      15.20890000
Li      21.90330000       7.34113000      12.42010000
Li      14.60690000       8.90771000       6.14113000
Li       8.07819000       5.00617000      14.68010000
Li      17.93000000      15.18200000       4.28147000
Li      13.32360000       6.35144000      19.77800000
Li      11.64990000       1.90341000      19.27760000
Li      21.96000000       2.76038000       9.14931000
Li      17.23300000       4.46551000      22.94430000
Li      24.13030000      13.74080000      20.88900000
Li       1.74486000      10.91140000      13.69180000
Li      20.08280000       7.48143000      22.80440000
Li       8.12768000       1.90624000       2.70446000
Li       4.60941000       4.54844000      14.97960000
Li      11.67340000       4.48961000      21.26160000
Li       3.82115000       2.86445000       3.07252000
Li      15.07360000       2.23853000      13.63720000
Li      16.51480000      14.67150000      13.31550000
Li       4.26628000       7.18528000      17.91470000
Li       4.21163000       5.56610000       5.36806000
P       10.39180000       8.07154000      14.77560000
P       14.94900000      12.88580000      15.25370000
P        3.34731000      12.96420000      12.94170000
P       18.53580000       3.55888000       9.88740000
P        0.69971800       3.54865000       3.33030000
P       11.48940000       2.69439000       3.69404000
P       17.43670000       9.44138000       0.71761100
P        5.02479000      13.52050000       0.05458640
S       21.86210000       9.15059000      10.78310000
S        8.97124000      15.21500000       9.28551000
S        6.93818000       9.65489000       8.24922000
S       15.20380000       3.47032000      15.85170000
S       17.61670000       5.75301000       3.66535000
S       23.20980000       8.92964000       4.02558000
S       13.53250000       6.93744000       7.60614000
S        1.18768000      11.01460000      22.56390000
S        9.60453000       8.24677000      19.69740000
S       24.16050000       6.22675000      16.20630000
S        9.40826000       5.63001000      21.82300000
S       11.34140000       9.62230000      22.17320000
S       18.20640000       5.32783000      17.84660000
S       21.53910000      13.17470000       3.18833000
S       22.47950000       9.33010000      18.20730000
S       17.10320000       7.65575000       6.50191000
S        2.34710000       4.65754000       3.98978000
S       12.80180000      13.44410000       6.14230000
S        9.65243000      11.58850000      20.13340000
S       14.06860000      12.76650000      22.60830000
S       21.61310000       2.93661000      19.11380000
S       22.42810000       0.55711700       1.73485000
S        5.83063000       3.62650000       9.74018000
S       10.33590000       2.57862000      21.01060000
S        3.57370000       6.28920000       7.64701000
S        0.02758990       2.65264000      21.41250000
S       18.96850000      14.11540000       7.57805000
S       22.65020000       0.00001037      20.56600000
S       17.02130000       9.26471000      13.35630000
S       18.44360000      12.82210000       4.46454000
S        0.15361600       6.77140000      12.15760000
S       13.33880000       3.41000000      12.57340000
Li      16.22820000       2.26707000       9.59953000
Li       4.54722000      15.06970000       3.55536000
Li       7.48167000      10.50680000       5.74833000
Li       8.25727000      12.92330000      21.96160000
Li      22.86140000       4.72036000      17.69170000
Li      21.76780000       2.86908000      12.12320000
Li       6.83041000       1.12575000       8.96801000
Li       9.44080000       2.11501000      14.97500000
Li      10.86870000      13.99130000      20.73210000
Li      11.72640000       6.19480000       5.85107000
Li       2.62255000       0.37371100      13.28650000
Li       8.78423000       8.03099000      22.23550000
Li      21.60810000       2.76276000      15.01060000
Li      14.77790000      11.20520000       2.49769000
Li       6.97670000       4.10409000       7.80410000
Li      13.53960000       8.66784000       9.29999000
Li      14.64400000       1.89174000       4.73265000
Li       1.12947000       9.57589000      20.41120000
Li       1.12808000       7.20001000      14.21850000
Li       0.33023200      13.02800000      15.75470000
Li      18.74460000       0.69717000      18.20630000
Li      20.96580000      13.79420000       9.14704000
Li       0.91547600       9.54906000       7.27155000
Li       7.60931000       6.76905000      12.07870000
P       19.14770000      12.91490000      18.42000000
P       19.08930000       0.81486400      14.76410000
P       10.95700000      11.28790000      10.13450000
P       21.20620000       1.48095000      20.48190000
P       23.54980000      11.67110000      23.00370000
P        7.98386000      14.03400000       4.38045000
P       23.29050000      10.03370000      14.59480000
P        5.85547000       3.38126000       0.63245700
S        3.55043000      13.04630000       4.66224000
S        9.67242000       2.14079000       4.46262000
S        9.47851000       9.86757000      14.50340000
S       18.97390000      11.27010000      17.18660000
S       17.07860000       1.02553000      14.92730000
S       20.20870000       8.68405000      20.83500000
S       17.23830000       2.07183000      22.73860000
S        8.79412000       2.58401000       7.83049000
S       10.60840000      14.56530000      12.40670000
S        8.04661000       5.28526000      18.97750000
S       21.14760000       2.36820000      22.38510000
S       14.67070000       5.34062000       1.44234000
S        9.14687000       6.94602000      16.11870000
S        4.42634000       5.62040000      20.37100000
S       15.78410000       0.95271600      11.35770000
S       18.58500000       0.14346900       2.02575000
S        7.20869000       0.77399900      18.77320000
S        8.70935000      13.22220000      17.39930000
S        8.77786000      15.12900000      20.95690000
S        1.35883000       5.83609000       0.14400600
S       17.98410000       4.83831000       8.40210000
S        4.14987000       8.94853000      16.22180000
S        8.09847000      10.39730000      22.54020000
S       23.55870000       3.64230000      10.57180000
S       23.00230000      13.54910000       8.12164000
S       14.37950000       4.18140000       9.34571000
S        0.96253500       9.51443000      15.35050000
S       18.37770000       1.59630000       5.52018000
S       16.85000000       9.52536000       2.75183000
S        8.82253000       5.09499000       5.01839000
S        6.48086000       3.03444000      21.92670000
S       19.72150000       1.92684000      13.10560000
Li      12.72870000       6.57816000      13.18340000
Li      17.70270000      12.75970000       9.44553000
Li       4.63507000       5.81106000      11.96770000
Li       2.60564000      12.99320000      22.08590000
Li       9.82633000       5.76598000       2.93393000
Li       3.69562000      11.71940000       6.65348000
Li      10.84140000       8.51945000      11.24110000
Li      19.20480000       0.43774100      22.85730000
Li      13.13780000      14.68150000      19.64580000
Li       6.75476000       6.26717000       1.63780000
Li      23.66230000       0.61743400      22.84070000
Li       5.68649000      12.52980000      10.02860000
Li       0.14288800       6.76478000       3.76116000
Li      16.93430000       9.06653000       8.56398000
Li      19.30100000       6.80603000      19.49180000
Li       2.86113000      11.20860000       1.33978000
Li      18.25220000       0.88444700      11.59610000
Li       0.29159800       1.50396000      11.83060000
Li      16.89680000       0.09994710       7.33038000
Li       4.62530000       9.25548000      12.28610000
Li      23.98350000      12.45980000      11.13390000
Li      18.20200000       3.17725000       3.87043000
Li      14.80740000       8.81142000      14.69000000
Li      11.05050000      12.66940000      17.94820000
P       20.36800000       4.34266000      22.52990000
P       19.31890000      12.51040000       6.29256000
P        2.11237000      12.53290000      18.32150000
P        1.62377000       6.61773000       7.08827000
P        7.35654000       3.72690000      11.17820000
P       16.35020000       6.27893000       5.12269000
P        1.31059000       5.88069000      17.68810000
P        4.94330000      14.27770000       7.74747000
S        5.11135000      15.03610000      21.75220000
S        1.19552000      11.57750000       6.01592000
S       24.14340000       2.56057000       4.89097000
S        5.18734000       0.30755000      16.16760000
S       11.59830000       7.22920000       3.88291000
S       13.39090000       3.08290000      22.50460000
S       17.06830000       8.16506000      19.56060000
S        3.46551000       6.66580000      13.83780000
S       23.88840000      13.40200000       1.12334000
S       23.31440000       4.72600000       2.83618000
S       10.41890000      12.63950000       0.09905390
S        3.51034000       9.05784000       2.13972000
S        2.52799000      13.15790000      16.40150000
S        8.99329000       7.23630000       1.45240000
S       11.07110000      13.30910000      15.43980000
S        1.68336000       7.65894000       5.34361000
S       19.76520000       1.82237000      16.48100000
S        4.63369000      14.46870000      12.98310000
S       22.37760000       9.27487000       7.44067000
S        0.55743600       4.82524000       7.01218000
S       15.08480000       1.74174000       7.14179000
S       18.83340000      14.03430000      11.42430000
S       15.21370000      12.98920000      11.73210000
S       20.43050000       4.03504000      10.52350000
S       15.33180000      11.50240000       4.89967000
S       19.52750000       7.13834000      12.18480000
S       12.44980000      12.42310000      19.94120000
S        1.68018000       1.14836000      19.02490000
S       17.33960000      13.78920000      22.14040000
S        0.97682100       3.93551000      13.50340000
S       16.18660000       2.46690000       2.77676000
S       11.26250000      10.78120000      12.05820000
Li       1.07674000       3.16860000       8.93882000
Li      22.12790000      13.92540000      14.27830000
Li      11.35990000      12.01690000       4.61202000
Li       4.64430000       1.64813000      10.21750000
Li      18.54970000       7.90224000       2.78856000
Li      10.40110000       3.56802000       6.34760000
Li       8.83696000       6.62081000       9.00093000
Li      10.48200000       4.81169000      16.74170000
Li       5.11059000       8.33158000       7.11385000
Li       9.31028000       0.21731000      17.73080000
Li      17.33840000      11.63370000      13.00220000
Li      12.89350000      12.57720000      12.62720000
Li       7.68457000       9.93891000      20.05010000
Li      11.64080000       7.95134000       0.93432100
Li      13.72790000      10.89820000      18.17430000
Li      17.15190000       0.46608800      21.02620000
Li       2.10611000       3.40152000       5.98267000
Li       3.21569000       7.67263000       9.69300000
Li       0.16034900       5.77838000       9.99376000
Li      22.80050000      13.80710000       5.69103000
Li       9.31082000      11.33210000      16.20690000
Li      13.95920000       2.35641000       1.59586000
Li      12.73930000       8.04948000      17.28300000
Li      15.24740000       3.05536000      21.25360000
P       10.17650000       0.78363400      21.96750000
P       20.20110000      12.57450000      11.65020000
P       20.41720000       1.94285000       5.72446000
P       21.51420000       8.14945000       9.01834000
P       23.68380000       4.86766000      12.35130000
P        1.63895000       1.33228000      21.06480000
P        2.57819000      10.69430000      10.11110000
P       15.07620000       1.54082000      18.91210000
S        2.65541000       4.98317000      10.71580000
S       20.74280000       2.89592000       3.95527000
S        4.75215000       2.89834000      18.33100000
S        4.23143000       3.04629000      13.38920000
S        1.89997000       7.44519000      18.72480000
S       12.48210000       8.19599000      15.06220000
S        5.41875000      14.91440000       9.63383000
S       10.11040000       7.38264000       7.19736000
S        3.41827000      12.61000000      10.72090000
S       12.17780000      12.73330000       9.48403000
S       17.01120000      13.06070000      15.02060000
S       12.08280000       1.42752000      14.96240000
S       15.82450000       9.99420000      22.68810000
S        5.70649000       3.46280000       5.82512000
S       12.49300000       3.84864000       5.16527000
S       12.67920000       1.13773000       3.31244000
S       15.66770000      13.93870000       8.73221000
S        9.96059000       3.68661000      13.55520000
S       15.88360000      11.15970000      19.72900000
S        4.52239000       4.87930000       0.89227200
S       18.59650000       8.00585000      15.76790000
S       21.30440000       6.41141000       5.27567000
S       19.50250000       0.38969900      20.37890000
S       19.82940000      11.12980000      13.07460000
S        4.59596000      11.54050000      22.48880000
S       21.01390000      13.81780000      18.18310000
S       10.92580000       2.07090000      10.39080000
S        1.16076000       2.32491000       1.75663000
S       14.76740000       7.34016000       4.32093000
S       21.97540000       6.27216000       8.86222000
S       14.14470000      14.59300000      14.28600000
S       15.02160000      15.49450000       0.93096900
