512
Lattice="25.638000488281 0.0 0.0 0.0 16.440000534058 0.0 0.0 0.0 24.493999481201" Properties=species:S:1:pos:R:3 material=Li3PS4 role="glass construction input" display_name="Li₃PS₄ — 512-atom glass construction structure" report_figures="05_Li3PS4_lithium_MSD; 07_Li3PS4_local_structure" pbc="T T T"
Li       4.57176971       0.10317975       2.68342805
Li       4.56235313       0.10058581       8.80195236
Li       8.27308655       8.09832764       3.44276428
Li       8.27171516       8.10538101       9.56199074
Li       1.84996092       8.10577774       5.76367807
Li       1.84376645       8.10591984      11.88216114
Li      10.96084213       0.09573074       0.36629543
Li      10.96439648       0.11677829       6.48814964
Li       8.25118351       4.23716450       3.42914629
Li       8.24895573       4.23346710       9.55253124
Li       4.57361841       3.99979472       2.70064855
Li       4.56644297       4.00676107       8.79988289
Li      10.96874714       4.00073290       0.38291684
Li      10.97449493       4.02091551       6.49785709
Li       1.86314821       4.22299576       5.75301409
Li       1.84282839       4.20245838      11.88475895
Li      12.81599426       0.00441045       3.06567645
Li       0.00596130       0.00051827       9.18345261
Li       6.40312004       0.00923329       0.00497903
Li       6.41560555       8.21910477       6.14437437
Li      12.80793476       4.11022139       3.05765152
Li       0.01487686       4.11029530       9.17984200
Li       6.38198042       4.10747242       0.00166573
Li       6.39910460       4.11802006       6.11736250
P        1.12494981       2.05971408       1.05861068
P        1.12042725       2.04778957       7.17832422
P       11.70291710       6.16500950       5.07094479
P       11.69336796       6.16364384      11.19728279
P        5.28573895       6.16490650       4.11241627
P        5.29133415       6.17075777      10.24220657
P        7.52420378       2.05778337       2.01378298
P        7.53711748       2.06030846       8.13828850
S        1.98993254       0.37216195       1.74291074
S        1.99711144       0.37981325       7.86678648
S       10.82508373       7.83806324       4.37766123
S       10.82286358       7.84698772      10.49837399
S        4.41917896       7.85142422       4.81054497
S        4.42146397       7.84174013      10.93147564
S        8.39093018       0.37625235       1.31573069
S        8.39868450       0.37710115       7.43125868
S       10.82847404       4.48127270       4.37429857
S       10.82828426       4.48406696      10.49859238
S        1.98957539       3.73044705       1.74583054
S        1.98064435       3.72568488       7.86950350
S        8.39657879       3.73096299       1.31052864
S        8.40065575       3.73455834       7.42914963
S        4.42357063       4.49305296       4.80802393
S        4.41420126       4.48504305      10.92988968
S       11.98367882       2.05261707       1.57748580
S       11.98336315       2.05465245       7.69935417
S        0.84376347       6.15993738       4.55245209
S        0.84094602       6.17441082      10.67540550
S        7.24829102       6.16519165       4.63881445
S        7.24075174       6.16334057      10.75347424
S        5.56733227       2.05052185       1.48433268
S        5.57695103       2.05394053       7.60638857
S        1.37749648       2.05273986       5.12896729
S        1.37017345       2.05433035      11.25277424
S       11.45149231       6.16253710       0.99860728
S       11.44772625       6.16787434       7.12897158
S        5.04279232       6.15958357       2.06155300
S        5.03965425       6.16547585       8.18277931
S        7.78331995       2.05114174       4.06580687
S        7.77427530       2.05918217      10.17936230
Li       4.57176971       0.10317975      14.93042779
Li       4.56235313       0.10058581      21.04895210
Li       8.27308655       8.09832764      15.68976402
Li       8.27171516       8.10538101      21.80899048
Li       1.84996092       8.10577774      18.01067781
Li       1.84376645       8.10591984      24.12916088
Li      10.96084213       0.09573074      12.61329517
Li      10.96439648       0.11677829      18.73514938
Li       8.25118351       4.23716450      15.67614603
Li       8.24895573       4.23346710      21.79953098
Li       4.57361841       3.99979472      14.94764829
Li       4.56644297       4.00676107      21.04688263
Li      10.96874714       4.00073290      12.62991658
Li      10.97449493       4.02091551      18.74485683
Li       1.86314821       4.22299576      18.00001383
Li       1.84282839       4.20245838      24.13175869
Li      12.81599426       0.00441045      15.31267619
Li       0.00596130       0.00051827      21.43045235
Li       6.40312004       0.00923329      12.25197877
Li       6.41560555       8.21910477      18.39137411
Li      12.80793476       4.11022139      15.30465126
Li       0.01487686       4.11029530      21.42684174
Li       6.38198042       4.10747242      12.24866547
Li       6.39910460       4.11802006      18.36436224
P        1.12494981       2.05971408      13.30561042
P        1.12042725       2.04778957      19.42532396
P       11.70291710       6.16500950      17.31794453
P       11.69336796       6.16364384      23.44428253
P        5.28573895       6.16490650      16.35941601
P        5.29133415       6.17075777      22.48920631
P        7.52420378       2.05778337      14.26078272
P        7.53711748       2.06030846      20.38528824
S        1.98993254       0.37216195      13.98991048
S        1.99711144       0.37981325      20.11378622
S       10.82508373       7.83806324      16.62466097
S       10.82286358       7.84698772      22.74537373
S        4.41917896       7.85142422      17.05754471
S        4.42146397       7.84174013      23.17847538
S        8.39093018       0.37625235      13.56273043
S        8.39868450       0.37710115      19.67825842
S       10.82847404       4.48127270      16.62129831
S       10.82828426       4.48406696      22.74559212
S        1.98957539       3.73044705      13.99283028
S        1.98064435       3.72568488      20.11650324
S        8.39657879       3.73096299      13.55752838
S        8.40065575       3.73455834      19.67614937
S        4.42357063       4.49305296      17.05502367
S        4.41420126       4.48504305      23.17688942
S       11.98367882       2.05261707      13.82448554
S       11.98336315       2.05465245      19.94635391
S        0.84376347       6.15993738      16.79945183
S        0.84094602       6.17441082      22.92240524
S        7.24829102       6.16519165      16.88581419
S        7.24075174       6.16334057      23.00047398
S        5.56733227       2.05052185      13.73133242
S        5.57695103       2.05394053      19.85338831
S        1.37749648       2.05273986      17.37596703
S        1.37017345       2.05433035      23.49977398
S       11.45149231       6.16253710      13.24560702
S       11.44772625       6.16787434      19.37597132
S        5.04279232       6.15958357      14.30855274
S        5.03965425       6.16547585      20.42977905
S        7.78331995       2.05114174      16.31280661
S        7.77427530       2.05918217      22.42636204
Li       4.57176971       8.32318001       2.68342805
Li       4.56235313       8.32058608       8.80195236
Li       8.27308655      16.31832790       3.44276428
Li       8.27171516      16.32538128       9.56199074
Li       1.84996092      16.32577801       5.76367807
Li       1.84376645      16.32592010      11.88216114
Li      10.96084213       8.31573101       0.36629543
Li      10.96439648       8.33677856       6.48814964
Li       8.25118351      12.45716476       3.42914629
Li       8.24895573      12.45346737       9.55253124
Li       4.57361841      12.21979499       2.70064855
Li       4.56644297      12.22676134       8.79988289
Li      10.96874714      12.22073317       0.38291684
Li      10.97449493      12.24091578       6.49785709
Li       1.86314821      12.44299603       5.75301409
Li       1.84282839      12.42245865      11.88475895
Li      12.81599426       8.22441072       3.06567645
Li       0.00596130       8.22051854       9.18345261
Li       6.40312004       8.22923356       0.00497903
Li       6.41560555      16.43910503       6.14437437
Li      12.80793476      12.33022165       3.05765152
Li       0.01487686      12.33029556       9.17984200
Li       6.38198042      12.32747269       0.00166573
Li       6.39910460      12.33802032       6.11736250
P        1.12494981      10.27971435       1.05861068
P        1.12042725      10.26778984       7.17832422
P       11.70291710      14.38500977       5.07094479
P       11.69336796      14.38364410      11.19728279
P        5.28573895      14.38490677       4.11241627
P        5.29133415      14.39075804      10.24220657
P        7.52420378      10.27778363       2.01378298
P        7.53711748      10.28030872       8.13828850
S        1.98993254       8.59216222       1.74291074
S        1.99711144       8.59981352       7.86678648
S       10.82508373      16.05806351       4.37766123
S       10.82286358      16.06698799      10.49837399
S        4.41917896      16.07142448       4.81054497
S        4.42146397      16.06174040      10.93147564
S        8.39093018       8.59625262       1.31573069
S        8.39868450       8.59710142       7.43125868
S       10.82847404      12.70127296       4.37429857
S       10.82828426      12.70406723      10.49859238
S        1.98957539      11.95044732       1.74583054
S        1.98064435      11.94568515       7.86950350
S        8.39657879      11.95096326       1.31052864
S        8.40065575      11.95455861       7.42914963
S        4.42357063      12.71305323       4.80802393
S        4.41420126      12.70504332      10.92988968
S       11.98367882      10.27261734       1.57748580
S       11.98336315      10.27465272       7.69935417
S        0.84376347      14.37993765       4.55245209
S        0.84094602      14.39441109      10.67540550
S        7.24829102      14.38519192       4.63881445
S        7.24075174      14.38334084      10.75347424
S        5.56733227      10.27052212       1.48433268
S        5.57695103      10.27394080       7.60638857
S        1.37749648      10.27274013       5.12896729
S        1.37017345      10.27433062      11.25277424
S       11.45149231      14.38253736       0.99860728
S       11.44772625      14.38787460       7.12897158
S        5.04279232      14.37958384       2.06155300
S        5.03965425      14.38547611       8.18277931
S        7.78331995      10.27114201       4.06580687
S        7.77427530      10.27918243      10.17936230
Li       4.57176971       8.32318001      14.93042779
Li       4.56235313       8.32058608      21.04895210
Li       8.27308655      16.31832790      15.68976402
Li       8.27171516      16.32538128      21.80899048
Li       1.84996092      16.32577801      18.01067781
Li       1.84376645      16.32592010      24.12916088
Li      10.96084213       8.31573101      12.61329517
Li      10.96439648       8.33677856      18.73514938
Li       8.25118351      12.45716476      15.67614603
Li       8.24895573      12.45346737      21.79953098
Li       4.57361841      12.21979499      14.94764829
Li       4.56644297      12.22676134      21.04688263
Li      10.96874714      12.22073317      12.62991658
Li      10.97449493      12.24091578      18.74485683
Li       1.86314821      12.44299603      18.00001383
Li       1.84282839      12.42245865      24.13175869
Li      12.81599426       8.22441072      15.31267619
Li       0.00596130       8.22051854      21.43045235
Li       6.40312004       8.22923356      12.25197877
Li       6.41560555      16.43910503      18.39137411
Li      12.80793476      12.33022165      15.30465126
Li       0.01487686      12.33029556      21.42684174
Li       6.38198042      12.32747269      12.24866547
Li       6.39910460      12.33802032      18.36436224
P        1.12494981      10.27971435      13.30561042
P        1.12042725      10.26778984      19.42532396
P       11.70291710      14.38500977      17.31794453
P       11.69336796      14.38364410      23.44428253
P        5.28573895      14.38490677      16.35941601
P        5.29133415      14.39075804      22.48920631
P        7.52420378      10.27778363      14.26078272
P        7.53711748      10.28030872      20.38528824
S        1.98993254       8.59216222      13.98991048
S        1.99711144       8.59981352      20.11378622
S       10.82508373      16.05806351      16.62466097
S       10.82286358      16.06698799      22.74537373
S        4.41917896      16.07142448      17.05754471
S        4.42146397      16.06174040      23.17847538
S        8.39093018       8.59625262      13.56273043
S        8.39868450       8.59710142      19.67825842
S       10.82847404      12.70127296      16.62129831
S       10.82828426      12.70406723      22.74559212
S        1.98957539      11.95044732      13.99283028
S        1.98064435      11.94568515      20.11650324
S        8.39657879      11.95096326      13.55752838
S        8.40065575      11.95455861      19.67614937
S        4.42357063      12.71305323      17.05502367
S        4.41420126      12.70504332      23.17688942
S       11.98367882      10.27261734      13.82448554
S       11.98336315      10.27465272      19.94635391
S        0.84376347      14.37993765      16.79945183
S        0.84094602      14.39441109      22.92240524
S        7.24829102      14.38519192      16.88581419
S        7.24075174      14.38334084      23.00047398
S        5.56733227      10.27052212      13.73133242
S        5.57695103      10.27394080      19.85338831
S        1.37749648      10.27274013      17.37596703
S        1.37017345      10.27433062      23.49977398
S       11.45149231      14.38253736      13.24560702
S       11.44772625      14.38787460      19.37597132
S        5.04279232      14.37958384      14.30855274
S        5.03965425      14.38547611      20.42977905
S        7.78331995      10.27114201      16.31280661
S        7.77427530      10.27918243      22.42636204
Li      17.39076996       0.10317975       2.68342805
Li      17.38135338       0.10058581       8.80195236
Li      21.09208679       8.09832764       3.44276428
Li      21.09071541       8.10538101       9.56199074
Li      14.66896117       8.10577774       5.76367807
Li      14.66276670       8.10591984      11.88216114
Li      23.77984238       0.09573074       0.36629543
Li      23.78339672       0.11677829       6.48814964
Li      21.07018375       4.23716450       3.42914629
Li      21.06795597       4.23346710       9.55253124
Li      17.39261866       3.99979472       2.70064855
Li      17.38544321       4.00676107       8.79988289
Li      23.78774738       4.00073290       0.38291684
Li      23.79349518       4.02091551       6.49785709
Li      14.68214846       4.22299576       5.75301409
Li      14.66182864       4.20245838      11.88475895
Li      25.63499451       0.00441045       3.06567645
Li      12.82496155       0.00051827       9.18345261
Li      19.22212029       0.00923329       0.00497903
Li      19.23460579       8.21910477       6.14437437
Li      25.62693501       4.11022139       3.05765152
Li      12.83387710       4.11029530       9.17984200
Li      19.20098066       4.10747242       0.00166573
Li      19.21810484       4.11802006       6.11736250
P       13.94395006       2.05971408       1.05861068
P       13.93942750       2.04778957       7.17832422
P       24.52191734       6.16500950       5.07094479
P       24.51236820       6.16364384      11.19728279
P       18.10473919       6.16490650       4.11241627
P       18.11033440       6.17075777      10.24220657
P       20.34320402       2.05778337       2.01378298
P       20.35611773       2.06030846       8.13828850
S       14.80893278       0.37216195       1.74291074
S       14.81611168       0.37981325       7.86678648
S       23.64408398       7.83806324       4.37766123
S       23.64186382       7.84698772      10.49837399
S       17.23817921       7.85142422       4.81054497
S       17.24046421       7.84174013      10.93147564
S       21.20993042       0.37625235       1.31573069
S       21.21768475       0.37710115       7.43125868
S       23.64747429       4.48127270       4.37429857
S       23.64728451       4.48406696      10.49859238
S       14.80857563       3.73044705       1.74583054
S       14.79964459       3.72568488       7.86950350
S       21.21557903       3.73096299       1.31052864
S       21.21965599       3.73455834       7.42914963
S       17.24257088       4.49305296       4.80802393
S       17.23320150       4.48504305      10.92988968
S       24.80267906       2.05261707       1.57748580
S       24.80236340       2.05465245       7.69935417
S       13.66276371       6.15993738       4.55245209
S       13.65994626       6.17441082      10.67540550
S       20.06729126       6.16519165       4.63881445
S       20.05975199       6.16334057      10.75347424
S       18.38633251       2.05052185       1.48433268
S       18.39595127       2.05394053       7.60638857
S       14.19649673       2.05273986       5.12896729
S       14.18917370       2.05433035      11.25277424
S       24.27049255       6.16253710       0.99860728
S       24.26672649       6.16787434       7.12897158
S       17.86179256       6.15958357       2.06155300
S       17.85865450       6.16547585       8.18277931
S       20.60232019       2.05114174       4.06580687
S       20.59327555       2.05918217      10.17936230
Li      17.39076996       0.10317975      14.93042779
Li      17.38135338       0.10058581      21.04895210
Li      21.09208679       8.09832764      15.68976402
Li      21.09071541       8.10538101      21.80899048
Li      14.66896117       8.10577774      18.01067781
Li      14.66276670       8.10591984      24.12916088
Li      23.77984238       0.09573074      12.61329517
Li      23.78339672       0.11677829      18.73514938
Li      21.07018375       4.23716450      15.67614603
Li      21.06795597       4.23346710      21.79953098
Li      17.39261866       3.99979472      14.94764829
Li      17.38544321       4.00676107      21.04688263
Li      23.78774738       4.00073290      12.62991658
Li      23.79349518       4.02091551      18.74485683
Li      14.68214846       4.22299576      18.00001383
Li      14.66182864       4.20245838      24.13175869
Li      25.63499451       0.00441045      15.31267619
Li      12.82496155       0.00051827      21.43045235
Li      19.22212029       0.00923329      12.25197877
Li      19.23460579       8.21910477      18.39137411
Li      25.62693501       4.11022139      15.30465126
Li      12.83387710       4.11029530      21.42684174
Li      19.20098066       4.10747242      12.24866547
Li      19.21810484       4.11802006      18.36436224
P       13.94395006       2.05971408      13.30561042
P       13.93942750       2.04778957      19.42532396
P       24.52191734       6.16500950      17.31794453
P       24.51236820       6.16364384      23.44428253
P       18.10473919       6.16490650      16.35941601
P       18.11033440       6.17075777      22.48920631
P       20.34320402       2.05778337      14.26078272
P       20.35611773       2.06030846      20.38528824
S       14.80893278       0.37216195      13.98991048
S       14.81611168       0.37981325      20.11378622
S       23.64408398       7.83806324      16.62466097
S       23.64186382       7.84698772      22.74537373
S       17.23817921       7.85142422      17.05754471
S       17.24046421       7.84174013      23.17847538
S       21.20993042       0.37625235      13.56273043
S       21.21768475       0.37710115      19.67825842
S       23.64747429       4.48127270      16.62129831
S       23.64728451       4.48406696      22.74559212
S       14.80857563       3.73044705      13.99283028
S       14.79964459       3.72568488      20.11650324
S       21.21557903       3.73096299      13.55752838
S       21.21965599       3.73455834      19.67614937
S       17.24257088       4.49305296      17.05502367
S       17.23320150       4.48504305      23.17688942
S       24.80267906       2.05261707      13.82448554
S       24.80236340       2.05465245      19.94635391
S       13.66276371       6.15993738      16.79945183
S       13.65994626       6.17441082      22.92240524
S       20.06729126       6.16519165      16.88581419
S       20.05975199       6.16334057      23.00047398
S       18.38633251       2.05052185      13.73133242
S       18.39595127       2.05394053      19.85338831
S       14.19649673       2.05273986      17.37596703
S       14.18917370       2.05433035      23.49977398
S       24.27049255       6.16253710      13.24560702
S       24.26672649       6.16787434      19.37597132
S       17.86179256       6.15958357      14.30855274
S       17.85865450       6.16547585      20.42977905
S       20.60232019       2.05114174      16.31280661
S       20.59327555       2.05918217      22.42636204
Li      17.39076996       8.32318001       2.68342805
Li      17.38135338       8.32058608       8.80195236
Li      21.09208679      16.31832790       3.44276428
Li      21.09071541      16.32538128       9.56199074
Li      14.66896117      16.32577801       5.76367807
Li      14.66276670      16.32592010      11.88216114
Li      23.77984238       8.31573101       0.36629543
Li      23.78339672       8.33677856       6.48814964
Li      21.07018375      12.45716476       3.42914629
Li      21.06795597      12.45346737       9.55253124
Li      17.39261866      12.21979499       2.70064855
Li      17.38544321      12.22676134       8.79988289
Li      23.78774738      12.22073317       0.38291684
Li      23.79349518      12.24091578       6.49785709
Li      14.68214846      12.44299603       5.75301409
Li      14.66182864      12.42245865      11.88475895
Li      25.63499451       8.22441072       3.06567645
Li      12.82496155       8.22051854       9.18345261
Li      19.22212029       8.22923356       0.00497903
Li      19.23460579      16.43910503       6.14437437
Li      25.62693501      12.33022165       3.05765152
Li      12.83387710      12.33029556       9.17984200
Li      19.20098066      12.32747269       0.00166573
Li      19.21810484      12.33802032       6.11736250
P       13.94395006      10.27971435       1.05861068
P       13.93942750      10.26778984       7.17832422
P       24.52191734      14.38500977       5.07094479
P       24.51236820      14.38364410      11.19728279
P       18.10473919      14.38490677       4.11241627
P       18.11033440      14.39075804      10.24220657
P       20.34320402      10.27778363       2.01378298
P       20.35611773      10.28030872       8.13828850
S       14.80893278       8.59216222       1.74291074
S       14.81611168       8.59981352       7.86678648
S       23.64408398      16.05806351       4.37766123
S       23.64186382      16.06698799      10.49837399
S       17.23817921      16.07142448       4.81054497
S       17.24046421      16.06174040      10.93147564
S       21.20993042       8.59625262       1.31573069
S       21.21768475       8.59710142       7.43125868
S       23.64747429      12.70127296       4.37429857
S       23.64728451      12.70406723      10.49859238
S       14.80857563      11.95044732       1.74583054
S       14.79964459      11.94568515       7.86950350
S       21.21557903      11.95096326       1.31052864
S       21.21965599      11.95455861       7.42914963
S       17.24257088      12.71305323       4.80802393
S       17.23320150      12.70504332      10.92988968
S       24.80267906      10.27261734       1.57748580
S       24.80236340      10.27465272       7.69935417
S       13.66276371      14.37993765       4.55245209
S       13.65994626      14.39441109      10.67540550
S       20.06729126      14.38519192       4.63881445
S       20.05975199      14.38334084      10.75347424
S       18.38633251      10.27052212       1.48433268
S       18.39595127      10.27394080       7.60638857
S       14.19649673      10.27274013       5.12896729
S       14.18917370      10.27433062      11.25277424
S       24.27049255      14.38253736       0.99860728
S       24.26672649      14.38787460       7.12897158
S       17.86179256      14.37958384       2.06155300
S       17.85865450      14.38547611       8.18277931
S       20.60232019      10.27114201       4.06580687
S       20.59327555      10.27918243      10.17936230
Li      17.39076996       8.32318001      14.93042779
Li      17.38135338       8.32058608      21.04895210
Li      21.09208679      16.31832790      15.68976402
Li      21.09071541      16.32538128      21.80899048
Li      14.66896117      16.32577801      18.01067781
Li      14.66276670      16.32592010      24.12916088
Li      23.77984238       8.31573101      12.61329517
Li      23.78339672       8.33677856      18.73514938
Li      21.07018375      12.45716476      15.67614603
Li      21.06795597      12.45346737      21.79953098
Li      17.39261866      12.21979499      14.94764829
Li      17.38544321      12.22676134      21.04688263
Li      23.78774738      12.22073317      12.62991658
Li      23.79349518      12.24091578      18.74485683
Li      14.68214846      12.44299603      18.00001383
Li      14.66182864      12.42245865      24.13175869
Li      25.63499451       8.22441072      15.31267619
Li      12.82496155       8.22051854      21.43045235
Li      19.22212029       8.22923356      12.25197877
Li      19.23460579      16.43910503      18.39137411
Li      25.62693501      12.33022165      15.30465126
Li      12.83387710      12.33029556      21.42684174
Li      19.20098066      12.32747269      12.24866547
Li      19.21810484      12.33802032      18.36436224
P       13.94395006      10.27971435      13.30561042
P       13.93942750      10.26778984      19.42532396
P       24.52191734      14.38500977      17.31794453
P       24.51236820      14.38364410      23.44428253
P       18.10473919      14.38490677      16.35941601
P       18.11033440      14.39075804      22.48920631
P       20.34320402      10.27778363      14.26078272
P       20.35611773      10.28030872      20.38528824
S       14.80893278       8.59216222      13.98991048
S       14.81611168       8.59981352      20.11378622
S       23.64408398      16.05806351      16.62466097
S       23.64186382      16.06698799      22.74537373
S       17.23817921      16.07142448      17.05754471
S       17.24046421      16.06174040      23.17847538
S       21.20993042       8.59625262      13.56273043
S       21.21768475       8.59710142      19.67825842
S       23.64747429      12.70127296      16.62129831
S       23.64728451      12.70406723      22.74559212
S       14.80857563      11.95044732      13.99283028
S       14.79964459      11.94568515      20.11650324
S       21.21557903      11.95096326      13.55752838
S       21.21965599      11.95455861      19.67614937
S       17.24257088      12.71305323      17.05502367
S       17.23320150      12.70504332      23.17688942
S       24.80267906      10.27261734      13.82448554
S       24.80236340      10.27465272      19.94635391
S       13.66276371      14.37993765      16.79945183
S       13.65994626      14.39441109      22.92240524
S       20.06729126      14.38519192      16.88581419
S       20.05975199      14.38334084      23.00047398
S       18.38633251      10.27052212      13.73133242
S       18.39595127      10.27394080      19.85338831
S       14.19649673      10.27274013      17.37596703
S       14.18917370      10.27433062      23.49977398
S       24.27049255      14.38253736      13.24560702
S       24.26672649      14.38787460      19.37597132
S       17.86179256      14.37958384      14.30855274
S       17.85865450      14.38547611      20.42977905
S       20.60232019      10.27114201      16.31280661
S       20.59327555      10.27918243      22.42636204
