LAMMPS data file via write_data, version 10 Sep 2025, timestep = 100000, units = metal

192 atoms
4 atom types

-0.45812011784737194 25.367474117847106 xlo xhi
-0.4012158457873767 22.216515248222727 ylo yhi
-0.1769132883712965 9.796215204308014 zlo zhi
0.42431544536830196 0.019914015770089263 5.914322802939084 xy xz yz

Masses

1 6.939999998214724
2 91.22399997653315
3 15.99899999588435
4 35.44999999088069

Atoms # atomic/kk

44 4 1.2594193431194147 3.0818334242349845 1.1906504767296968 0 0 0
48 4 4.609715303791364 3.3274461389605587 3.789699800881422 0 0 0
175 4 12.574894428589472 1.0152921063932876 1.1491415425125122 0 1 -1
158 2 11.538874408454028 3.2073819012743665 1.8468182437736234 0 1 0
31 4 11.061103833973325 2.208145398173692 4.032696746329872 0 0 0
185 4 9.241727027759303 3.0266497149896865 1.0713079248958055 0 1 0
58 1 14.173527461842388 2.5577222872274277 -0.0964482832598192 0 1 0
152 1 15.643474480291683 2.9167141475277965 4.279866506515241 0 0 1
111 2 18.88310949855016 2.6012257140173274 3.306878863793611 0 0 1
119 4 18.007808081698087 2.262176850605935 0.9001297989423074 0 0 0
150 1 22.277820782609385 2.540674296889234 1.9125114012547033 0 0 1
136 4 23.014786713855393 1.2414078012613161 -0.05028220821085117 0 0 1
134 4 0.9675306746614925 4.456998737200452 4.695504073932616 1 0 0
110 2 0.2250586851260613 5.011238282247526 2.3415291199878303 1 0 0
142 3 1.781444952276959 6.193680243332936 1.8954537818529422 1 0 0
63 2 2.9761858116205095 7.651945055169918 1.2931514085554991 0 0 1
135 4 7.838648403126607 5.114788175113736 4.134294627603608 1 0 -1
161 4 5.211485984209543 7.216608185981632 0.94544810176065 1 0 1
141 4 11.209671984277035 5.553858146757348 2.4898705042473517 0 0 1
186 4 13.970674164809392 4.0267104476568605 2.121797383880219 0 1 0
5 1 13.335726236983339 6.793766823988244 2.0604521387828196 0 0 -1
130 4 15.920869119016889 7.219785081396578 1.6080683189476446 0 0 1
132 4 13.717890731346744 7.363242718097054 4.2526035150132415 0 0 0
125 4 17.478584533233395 4.4915783261509095 3.643586691473205 0 0 1
133 4 20.589019477183314 4.130038506206316 2.264961590394882 0 0 1
32 4 18.787943592717898 6.03899039039197 -0.05213135963152881 -1 0 0
116 4 23.68649721235778 3.999403218672115 3.1436809008276776 0 0 0
153 1 22.550906528872577 5.993482817130786 3.2037542405155977 0 0 1
22 4 24.828833668131708 7.154196032359171 3.0644065298315493 -1 0 0
78 4 24.808720717498446 5.285905361785488 -0.0239620807314905 -1 0 1
25 4 21.964340958497548 7.581220154945123 1.0178781511347486 -1 0 0
11 1 24.159830486980116 7.695602920298484 0.27558864522841775 -1 0 1
68 4 2.176777558271601 9.85749229697771 0.5098918272265538 0 0 1
75 4 3.013862681710603 8.61058236278223 3.63628414586006 0 0 1
76 4 8.088830794278204 11.784006792761144 4.474459306716688 0 0 0
183 4 8.33230336934808 8.523210113187977 3.2252508762368173 0 1 0
140 4 8.747216909726374 8.802387498917332 -0.03702792677243361 0 -1 1
38 4 10.83924809687859 10.07511590247749 4.264922945222388 0 0 0
2 1 9.58601459330469 9.876701516138414 1.9935417496665853 0 -2 2
182 4 12.886895470376833 9.005179207178879 1.0488317802372735 0 1 -1
55 1 15.954764886459728 7.948521747199534 3.6943225541665 -1 1 0
118 4 14.772296111170416 10.9809261473658 3.843742741287497 0 0 0
60 1 13.173257435961176 9.7029559488531 4.251679440611578 0 1 -1
112 2 19.69167906377294 8.40202027332685 0.3043562559043938 0 0 0
179 4 18.795522058123286 8.28458876687693 2.5392684224437208 0 1 0
137 4 20.047871202590965 10.849682773531518 0.3007879009601903 0 0 0
84 4 25.479814266307994 10.566091047049396 4.0204319861915705 -1 0 1
91 4 3.2790907726379133 14.60604194559984 0.6403284011818284 0 0 1
177 4 0.1652540216538586 14.11644760494019 2.4219669875649887 1 0 1
57 1 7.282114339615217 14.186402211861944 3.7204433507291914 0 0 0
88 4 5.020861426835357 14.758335673911933 3.8128177282720737 0 0 0
26 4 8.911512910230035 11.96377379158838 0.9842644634408264 0 0 1
36 4 8.49737200489646 15.33467405526497 2.2866177947596036 0 0 -1
181 4 12.369725180279186 12.874413271420309 1.4884996900600307 0 0 0
8 1 9.262224057114258 14.851471159013288 -0.11310488179623594 0 0 0
50 3 11.125984361063674 15.611949666345996 0.06711930821063553 0 0 0
101 1 14.563982703923227 12.345821483778657 1.9647960603334924 0 0 0
82 4 15.337766637882378 14.576655895085715 0.9724007223186999 0 0 1
14 2 13.088549858125026 14.8363988131671 0.13003388365102575 0 0 0
100 1 20.50991731063805 12.633752102013693 3.4732447462080116 0 0 -1
94 4 19.84592106320963 14.82864351264838 3.8641663170913416 -1 0 1
45 4 23.762208634011056 15.115168297048196 4.785974622281475 -1 0 -1
120 4 22.737421338932396 12.360489358398603 2.6231569997419677 -1 0 1
66 2 24.714509526058634 12.913520291355347 4.0392389430868345 -1 0 1
15 2 2.182078968543654 18.61725685472379 4.7290702157164315 0 -1 1
30 4 3.0067824114759976 18.109835988793044 0.57893311332083 0 -1 1
190 3 3.155363497112558 17.344655689377653 3.620158631262705 1 0 0
166 4 8.018226507071942 19.14364744391029 3.4723322796812774 0 0 1
64 2 7.656646031410688 17.587076544417865 1.2907382243679 0 0 0
154 2 4.074706145944894 16.38679792926585 2.13322498129483 1 0 0
97 3 5.894082062127995 17.02575186890229 1.9625781013467485 0 0 0
95 4 6.448943364171294 19.502770913729503 0.10784986241267042 0 0 1
96 3 9.680188042877653 18.06370565672608 1.1449810304062003 0 0 0
98 3 12.137349696944423 19.107275637086087 1.4540867598940583 0 0 0
62 2 10.417587080795018 19.477328553393594 2.6160208740385125 0 0 0
169 4 10.950778896129448 17.690619121378205 4.407464873956994 0 0 1
65 2 11.250075369010851 17.582471882234124 -0.023353671220039594 0 0 0
69 4 14.859075742271076 17.29452030166903 3.0507109864677844 0 0 0
191 3 13.273289496042837 16.88280872926905 0.24388683803365097 0 0 0
192 3 16.050904107821378 18.753449741758914 0.6916458891895558 0 0 0
156 2 14.127258223163276 18.63871307177405 1.1966607282589319 0 0 0
188 4 18.429444313051494 18.46522338682864 3.28893682430516 0 0 0
157 2 18.01490823480166 19.119531192433012 0.5194571020137364 0 0 0
171 4 19.069496066415564 16.85723284734475 0.5369016980327473 0 0 0
103 1 20.322474720729613 16.90903854958011 3.148754367976677 1 0 -1
9 1 21.550475937773214 17.823012196093536 -0.17658222950938254 -1 -1 1
93 4 22.387944351879124 17.76904613059357 2.232957765025842 0 0 1
54 1 23.487445533827824 18.970138631492983 3.9004533531249654 0 0 0
56 1 24.811327288326197 16.636974342600567 2.002422759668169 0 1 -1
43 4 25.680549328889263 18.352138487316232 3.363271418209505 -1 -1 1
144 3 2.0364199264764338 20.52620942588673 3.633522480780628 1 -1 0
113 2 2.2554237968501276 22.290966663821173 3.1783059427287004 1 -1 0
20 4 2.8165413763806595 21.8087728317914 0.709501608469521 0 -1 1
51 3 2.5886308577979564 23.695733553584443 4.6952035108157135 0 -1 0
46 4 4.865496575419559 22.409157078032887 3.4060758513501987 0 -1 0
24 4 9.825595713745363 21.399112794656983 1.4189548247565655 0 -1 0
79 4 10.94660063203235 20.940042206512956 4.614391741002 0 0 0
6 1 12.871920608457343 22.367803199809405 3.4506409452932836 0 -1 -1
83 4 14.490583095992218 20.76040549498057 2.6609550545431793 0 0 0
146 1 16.152925332173556 21.757138851786433 3.99723769990646 0 -1 2
178 4 20.53916838513335 19.98949960535044 0.020412769191707 0 0 0
127 4 17.861192718787866 21.404278718010122 1.4984952497271986 0 0 0
139 4 17.467776145807246 23.738167562916054 4.149588405925822 0 -1 1
168 4 20.704417117840393 23.18560327029879 2.630525406510271 0 0 0
107 1 19.966597678160138 22.535329733610737 0.5322750897895396 0 -1 1
167 4 25.770988537637688 23.15145798823186 3.1955863862454272 0 0 0
18 2 6.30426133369753 4.202850821510138 5.565137715535979 0 0 0
74 4 7.596385093842256 4.566858617176491 7.425776633055893 0 0 1
80 4 4.553804991407018 5.884312956714357 5.817282333106468 0 0 0
162 4 14.436587831449922 4.156117470383366 5.943216307740936 0 1 -1
81 4 14.741396584227637 6.763757766966041 8.295339498932545 0 0 -1
149 1 14.896771658770653 6.994925196405784 6.250298650147287 -1 0 1
128 4 19.734693251141746 6.4957737263121595 8.321274442073245 0 0 0
170 4 21.412148698132338 7.279351346094755 5.181383141513913 0 1 0
121 4 22.556438716273508 4.85138531656315 7.305177405689628 0 1 0
155 2 22.2305295719366 7.359496893482327 7.593476815253794 0 1 0
151 1 1.0451598188613147 10.215198415409487 8.995063797788529 1 1 -1
129 4 1.9962124360333582 9.491610813211048 6.806981421532781 1 0 -1
147 1 0.43765135982305525 8.852933189213848 5.262978626106324 1 1 -1
106 1 3.9715515372906403 8.220450347672084 5.782104817565165 1 0 0
29 4 6.414843037852709 9.096588419231866 6.158484772400725 0 0 0
47 4 9.924464572979886 7.9501906595618514 6.6685556901229015 0 0 -1
19 2 8.667627331134511 9.715749698929308 5.493737650326177 0 0 0
42 4 8.88293226073982 11.134240453241144 7.71848750155958 0 0 0
108 1 9.99417439126729 9.239007000432144 8.709349234650693 0 0 2
173 4 12.423073790253412 9.770806812317536 9.351805908950947 0 1 -1
126 4 15.928749875272569 10.7337645968075 8.618725080938352 0 0 0
102 1 16.45707961457807 10.86957875205627 5.822260103398201 0 0 -1
124 4 17.048915281179152 8.53084800230714 5.685428535244301 0 0 0
34 4 19.458287279384276 11.11947228261528 4.923764424866655 -1 0 -1
39 4 21.300363667353956 9.64092353328477 7.981456445957975 -1 0 0
99 1 21.06494173384123 11.500902329241372 6.774837163295263 0 0 -1
109 1 19.329032088596033 8.66804833167158 4.969990432249116 0 0 3
160 4 24.331188497902666 7.852584441176978 6.476383217674487 0 1 0
33 4 2.0280239024601228 12.771933788407537 8.814267630741261 0 0 0
184 4 0.9172652951277207 13.432603883557455 5.469892265058565 1 0 1
1 1 1.0158545826036411 14.60487754592665 7.637176687304715 0 -1 1
85 4 8.910680598326076 15.71761614071946 6.468019545282489 0 0 0
61 1 9.716942315011625 13.442230812701899 8.032401882508141 0 1 2
40 4 11.96610884702399 13.377802131537846 8.015483619471862 0 0 -1
143 3 14.948295792568775 14.107414566066845 8.87945967637445 0 0 -1
114 2 16.60657090758577 13.126313414541555 9.162077043289889 0 0 0
17 2 13.390269274240726 15.19390171624867 8.608323182365426 0 0 -1
35 4 17.32865968137915 12.946178063895077 6.691578069809415 0 0 -2
10 1 19.13273501710327 14.916964562109372 6.038853095892958 0 0 0
21 4 20.674981955138794 14.031800826604098 7.833082886029883 0 0 -1
52 3 17.92678173396254 14.66399745498214 9.351679586689043 0 0 -1
86 4 23.385481729084148 12.030641139155012 6.21294865467353 -1 0 0
3 1 23.054614872936796 14.109830604094515 7.02666395230789 0 0 -1
138 4 24.654683063579483 15.399546251873767 8.873774471849167 0 0 -1
70 4 1.1122515635963612 17.033598881663135 6.293015971448874 0 0 1
23 4 3.905673925432666 19.277069768489767 6.275213011481694 0 -1 0
89 4 6.413771784137107 17.313447241467212 8.452954004499887 0 0 0
67 2 8.707013972887479 16.964591657360675 8.647396083275819 0 0 0
49 4 9.179665799108372 19.395423338807316 7.8834753568930696 0 0 0
105 1 11.650309976817308 19.221876074288645 6.078155771649987 0 -1 -1
27 4 11.353588521077459 17.10264830112427 8.623861780319485 0 0 -1
12 1 15.327059265956313 17.504543189580478 5.210847262853392 0 1 -1
117 4 13.623614222992572 16.250412507322206 6.29294010394708 0 0 0
87 4 15.083722773449745 17.149732538870975 9.663942344341441 0 0 -1
163 4 16.29762897327861 19.79116715411401 5.331271860494526 0 1 -1
53 1 17.536783096348938 16.63242476575729 9.09255605128894 0 0 -1
115 2 18.662898624508937 18.971896307193383 5.822691067715624 0 0 0
131 4 17.38882787347889 16.606928934752332 6.066807402421887 0 0 0
41 4 20.82795644887709 17.76226046156585 5.683501875320554 -1 0 0
176 4 18.512309407521144 19.313191134965855 8.1463482258089 0 0 -1
148 1 25.552564972846778 17.84206803717676 8.198789490035027 0 0 -1
174 4 23.82472337126862 19.363896456890302 8.546385000088849 0 0 0
187 4 0.9832700369821079 20.715996034301526 6.989915476226554 1 0 0
13 1 2.557619119408669 21.850704188191642 8.802399984995494 1 -1 0
71 4 4.392097634968066 22.240414037168254 7.156477441173323 0 0 0
73 4 7.985221060040727 22.431382062267783 9.027913643054854 0 0 -2
16 2 4.362204841674938 23.975111661810974 5.409257283388499 0 -1 0
72 4 13.520532239056847 20.477819470272458 7.757024934407633 0 0 -1
90 4 14.457975199075156 23.409383240482235 4.916578224547926 0 0 -1
37 4 19.649913645716854 21.020122256948127 5.38976745794675 -1 0 0
92 4 25.56776848942938 22.372214425172395 9.623532744317314 -1 0 -1
189 4 24.95395912554954 23.817044444413472 6.433234135654193 0 0 0
180 4 23.61460694978065 20.68430297947568 5.267054293553388 0 0 0
159 2 24.435474666776635 21.648920011060483 7.442521302646038 0 0 0
122 4 22.13640610679794 22.312852700162797 8.01452945121375 0 0 -1
145 1 0.4823106556007829 24.714436230837354 4.827680507690618 1 -1 -1
59 1 4.401042784258613 26.099451581860883 9.72340832542734 -1 0 0
165 4 4.489256820502659 25.788438361563514 7.195388986073318 1 -1 0
28 4 7.242479179840646 24.172378693450145 5.3851796139734285 0 -1 1
77 4 10.895179934312171 24.337710065782947 7.6529019289985625 0 0 -1
7 1 15.348693102034488 26.986128909973115 8.158361771824927 -1 -2 -2
4 1 13.142649919110257 24.955842425784542 5.996032589667496 0 -1 0
164 4 13.529098818460032 25.813334949543762 8.982314043222603 0 0 -1
104 1 20.54763710633088 26.929222461497925 7.939724700435309 0 -1 -1
123 4 20.51038838175019 25.316750145550753 5.44317037973112 0 -1 1
172 4 17.631965311347077 25.744353157201775 8.138788507389082 0 0 -1

Velocities

44 2.919750078037925 2.301818366578124 0.8154202654167294
48 -0.5272570998317828 -2.251220159660311 -1.0509780551304206
175 3.0315998297093474 1.6731407917230539 0.8850688120673739
158 -0.7726074617889225 2.2251771574724275 0.30067418013715236
31 5.5389821922605496 -3.2213939976099195 -0.675429030724925
185 -2.202698690241972 0.08653468013785863 1.576696466959056
58 11.932264501534108 10.399689349981047 -7.416698117269559
152 -0.10804959503888034 16.87482947410556 10.51149500249548
111 -2.909031142238971 0.8621087951401477 -3.5452104724605897
119 -2.518803752270183 2.2208896587834803 -5.542638871739965
150 -6.387594349537808 -8.326812247655393 -4.398359089171401
136 4.051418062696327 -0.24506178788915886 2.0242721245449706
134 1.909566776370576 2.8276386988939453 2.2625826742364756
110 -0.4582830968268362 -0.05825816042101834 -2.821378681998306
142 -2.48434526633576 8.199176637490337 5.254961283464924
63 -0.055463667380316106 -0.2803567058698642 0.8239898958050254
135 3.3164079668166577 1.8262591782037467 4.9562464290380674
161 -0.5726670697419056 -2.4811361908443073 1.598051606140116
141 -0.342666371985065 -1.4579562925539513 1.2865356547951996
186 3.196823344139722 1.171522284338415 -4.157560668700889
5 5.528194965177343 -1.5893243920414097 -6.006108682939919
130 2.840550985672492 3.6095785801166076 6.717933149104237
132 3.3744442055216433 -2.7560447027891164 -0.6303506179753625
125 -0.35167907207779375 -0.4516603573009031 1.7685357162296071
133 4.22118262789342 3.249454679437145 2.0203870732205527
32 -0.18253786231448416 -1.7205161520434071 4.256913926279521
116 0.8227562600601602 1.2416365707436827 1.209279062318513
153 -12.094673192278949 6.374624349310795 -2.492451276609066
22 -1.1956327715023571 0.9943310990041566 -3.0528004633772925
78 6.32184465616221 -0.9120808409131191 2.037140521998731
25 0.10029534176518393 -1.5029531132899063 -0.900505389165473
11 -5.905681260296571 -3.666425131220488 -0.15802503189667064
68 -2.071709526436176 -0.07016726994563316 -0.05712897918658888
75 4.662784212075207 0.035198781984035865 -3.186554819918724
76 2.378146621150379 -4.5049240637817505 0.15683632516094037
183 -1.591943231289408 -0.09257901765078999 -4.365979799947672
140 -4.818195973509161 0.6075318280084013 3.7641813445123744
38 0.12338272923011148 -1.0297236316340317 -1.587908776054444
2 9.271868452006649 4.351056679663419 6.589220630702145
182 0.970641776790989 7.3278399625338775 4.189832336156407
55 5.642088704485983 -3.089137220765727 7.416841984055306
118 0.6131773158474647 2.515612830372946 0.3512560384002806
60 3.7878339141011965 3.2148227471721427 3.453154897743359
112 0.6184282228769187 0.2678640241046725 -0.1813705317678401
179 0.24434870824656912 2.824429081175588 -2.4082458753709823
137 -2.467135469832957 -3.7138896205482936 0.053239356890041445
84 -2.4433080572487795 0.4682310615937576 2.4627594940646405
91 -1.4612225337921003 -1.1741223414183766 -3.878780450572076
177 -0.3672814902241433 3.015983222042638 -4.6463327671345676
57 -5.40565058077104 0.45865477714165775 -3.161883486604238
88 -4.216110716740062 1.5043100352507333 -2.538037908462696
26 -0.007132223555061791 -3.0158550454001056 -1.0427842105453917
36 3.5631172619739124 -2.062288584932685 -0.35975199826202886
181 -2.063272878004952 -8.396713495741619 0.3237154273195089
8 -6.426433101172824 -8.690609986595122 6.774010185768089
50 4.771908727418092 -0.6874640537814599 -2.010975761144374
101 5.736612565662579 -5.4270396570790735 3.5986178221213128
82 0.9498973631754609 1.4643913093906509 -3.8917387101689633
14 0.9409909605971097 -1.4883966673699778 1.922801349353228
100 1.733778243241467 -9.300874305273231 -4.022446623239636
94 -2.515611750182685 1.3396744688743616 -2.5044970892821476
45 0.03735850881475076 -0.7483084342266391 0.4238202309745503
120 -0.43605613209827443 -2.838119495741049 1.5324665683157677
66 -1.8754863203013223 0.2848734899623055 1.512870876617145
15 -2.932214530603155 -3.8121359243400303 3.801331572500441
30 0.2050594592677964 1.578566265121609 0.46277904292361555
190 2.0720899974691998 -0.328411040456695 -3.620103245734887
166 3.797185563337923 -4.562361108181199 0.5515471107534713
64 -2.9271607885768547 -1.5749436057586512 -2.1072046171596317
154 -3.6938027713947217 1.0460056524021237 -0.7582390166990162
97 2.127596043538905 -1.1316520983532126 4.6144250782102905
95 -0.13287320825304214 -2.46226684482121 1.685915671249039
96 5.214171843002661 -4.6390397152257625 -2.7563487965682025
98 -0.7265706978958789 -1.6288730683041026 -0.15217413052024392
62 0.6765243749419052 2.0808493468072458 2.269225416796526
169 2.3513714958051763 1.1315356598851185 6.285877622303061
65 -0.13574418225816998 -1.9995425180965827 -2.4121226241981737
69 2.618848305281165 0.20336328666149012 3.540609530081268
191 2.727780870085459 2.037580996271912 -3.1397593814042266
192 -1.987798703972866 5.751404007438192 -3.2656168557424015
156 0.32504861375681965 -0.49338160274924237 0.027959541190361665
188 -3.768667132706432 -0.6845094552385643 0.5869228291452702
157 1.3921063378650276 0.7536133311668262 -1.6725940995173012
171 -4.257214329443051 4.03802479601657 -1.0428918580342947
103 -1.3765750301299087 -0.7838292873122803 -9.092449652387165
9 0.9380860999460656 0.08352265658919432 -0.7618076658420522
93 -0.88271820430351 -1.4312569818714216 2.7408605705727425
54 -2.4280866280955213 -3.7569730349605126 0.9734512948353439
56 -0.6853873337306304 -5.3595705890670065 -1.4739563215051081
43 1.4640413405709913 1.439520238679671 0.6551956747976057
144 -3.811651173096139 -5.319181807258027 -5.942954682685037
113 3.0246737139191624 -0.8724818548843863 2.117257919305096
20 0.6301783292107151 -5.119726732787246 1.4598131281205406
51 -0.9000138343619875 1.347711008226995 -5.482153544000865
46 1.065333802103762 -5.626146944389236 2.9572075127134174
24 3.519199130009983 -1.3210420814297419 2.214510398960991
79 3.4960356041397707 -2.495736292149687 -1.064927815606065
6 7.90815026947586 -7.156359622080118 -9.222697635103325
83 -1.0344062147327944 -0.8121848455278884 0.9131928630864554
146 1.3917609449170782 5.248212540716693 3.7327319527773666
178 -1.8520618455919622 -0.9090100616148203 -1.3485289633618358
127 -1.9451768124581372 1.7611491415388436 -1.9925524410158122
139 -2.0381292181684616 0.1598536875139713 5.556754295454232
168 0.4919035159412322 -4.352966871186885 0.30608235462408784
107 -5.925068906682885 8.89484356274553 -4.170291172345681
167 -3.317396478995432 -0.9273656992629312 4.220630417186596
18 -2.2779145423882077 0.67547451963704 0.9270009660065164
74 6.384377338530031 1.91992136610805 3.394394827182311
80 2.104871411916316 -1.8142956389655884 -0.5197346277992037
162 0.46643613817036433 0.6764968512063364 -3.817337057121392
81 1.0615601400172172 -2.8069710346884555 -0.8303125976632703
149 -2.8561733278704367 6.29117025193715 0.9064559426412602
128 1.8968214663368232 -0.3432266917233661 2.1215935599869997
170 3.829163892016319 3.2588286115971203 -1.1298557824552637
121 2.9556201609018413 -0.8526104271545863 2.979111298731431
155 1.0794221155584007 2.739667180222909 1.4045692486203782
151 -6.908325193452336 -4.9568560748636 -10.337217369034617
129 -3.9174067456102466 2.5200497846621572 5.540764587977705
147 -8.633253153141984 -4.804530896124799 -6.631038288441952
106 -2.8589259404114054 -0.4920717458307878 -7.361843575354504
29 0.6512251018253833 -0.041871601754736504 -2.0919267339686685
47 -0.15352521904508942 -1.7599115729492063 2.0768025058641313
19 -0.49754899087142934 3.7875730175046822 1.7044294610619461
42 0.21821887062202597 -4.203041779993002 -2.332644721625793
108 -4.214098516031457 -2.8586063060130726 -6.74502418955853
173 -0.5200817167550983 -2.1478695666326844 0.5359006553803136
126 -2.998846096266585 -1.7905824753266273 -3.4473569206321444
102 0.07883009127281582 8.74876073138537 -2.0931183093584793
124 -3.740245056082073 2.2890048166755674 -4.693180143164712
34 0.4562210840269495 0.4220914363048147 -1.1010629205666025
39 1.933381167121338 3.0833930401316456 -0.7697578081957809
99 2.9811652933359665 5.04814862416672 0.3607305212386096
109 -0.6484626096591637 1.9444022593807309 2.1123171418743536
160 2.6012642780172244 -0.6982649999590356 -0.4382667196307728
33 -0.6143666730130466 -3.5123234522909117 -2.145219375443332
184 -1.4248933658001959 -1.1336651198935441 3.9520434739035073
1 8.772606739148163 6.304386479545138 0.4041903085645875
85 -7.924999656827127 1.6663668919546135 -2.6074618867795087
61 -4.719581876782688 -0.530583977877223 4.790071751533442
40 -2.594877737395864 1.1440583980335317 -2.1599076908797588
143 -3.623761184495113 -3.663312824705554 -1.5899930187916007
114 0.5913174346958436 2.3766704305377733 0.9506830164473196
17 1.4154481238987748 -1.2802063988690284 -1.4948904743430704
35 -1.5052331445264098 -1.8474181591913401 -0.046256891599910206
10 -11.848975330903032 7.428012182063912 -10.352932143177123
21 -3.9838649323963446 1.062736236543312 1.2752248009478246
52 -2.6492936033961665 0.6446234582027807 -2.644844352758288
86 -1.9438968764759263 -1.4099365638231771 0.8055040126370386
3 -3.6259309133772817 -0.5396707197962459 3.0023801872362923
138 0.14611699341863815 -0.2114653335455532 -5.496568957064373
70 1.833012359261907 -2.216488598787665 -4.725552270161929
23 -0.7536367171594077 -1.796761310797987 0.9057397983361215
89 -0.3201189309609833 1.6967252229938712 2.7212220196040953
67 1.472143819954116 -1.3770465938339485 0.9405751042044652
49 1.5370251959482801 -2.2080360070380283 -0.881143992660614
105 -8.087917626875758 6.098288851866468 -1.324826562281391
27 4.095959661596179 -1.2847829838914335 2.1935603043514864
12 1.4540835043886833 2.6778894627055343 10.14930657013632
117 2.337021612316451 -1.866482456821829 -0.9749344322005835
87 2.742928508951187 -0.08408255073911011 -2.939564637871976
163 -1.7092727522176916 0.2601574896905779 -0.20069089275685614
53 -0.23708488188832055 -9.426437650750279 6.577605478841773
115 -3.239665910342126 1.9751077857145836 -1.1374239041284815
131 3.487825245091518 3.6533889445187477 0.9991626487470466
41 9.773063395654974 -1.1658476435344183 -4.752169843037752
176 3.7855579562252997 1.411765355405846 1.0464774665676158
148 -2.1449830828017027 -0.2395610838877855 -11.49014086884681
174 -0.32180263599757597 0.10156289887339014 -1.6392239267047908
187 0.4979912342060877 3.5473083094699267 3.925781583368906
13 -1.182577196358088 9.98429837952736 3.9178264126272695
71 5.3049762547942425 -3.280696663130405 0.2090177882735608
73 -3.3169998070293034 -3.242404641620758 -1.7693358833781698
16 -4.288122002400373 0.21649243964841278 2.216604036804382
72 -2.026601479794714 0.2366836978193791 -4.125526891365564
90 4.11763783314587 -1.159152472549982 -1.1504381829203085
37 0.7623066664388631 1.869558655831731 1.8511049806804984
92 -2.1403045498891244 1.9368092880989962 4.928794461524304
189 -0.08733836854226874 0.12399400015271263 -4.231581666142287
180 -3.690754184130045 5.525894410504942 -2.8610236941737517
159 1.2076833450412923 -0.6648891694476058 1.1908111460048987
122 1.296785414054157 -1.2310356871610868 1.146964203171389
145 -0.10577979781561686 1.7291980828074036 -2.504869643446588
59 1.5607862006769377 3.3861979565847253 -2.3479669968835717
165 3.3358896684773756 -0.41417149145801696 -0.7163687166594183
28 -0.7319943930389501 5.045955811938904 -7.612007300510892
77 -3.4349830944808275 4.991293575234572 1.292595698194372
7 -2.5464141591951805 6.145231763488363 3.0735642182499383
4 -5.403213121575142 3.8345635766982396 -8.268074821983848
164 0.25163356775260354 -0.6996175717601048 0.26166500502595175
104 -9.37686981963424 -2.3826211500985988 -2.9721224643536166
123 0.7528108012733025 -3.370914416628325 0.06536372225299396
172 0.39608496951537264 0.5002247745008407 2.1582094502817637
