LAMMPS data file via write_data, version 10 Sep 2025, timestep = 110000, units = metal

192 atoms
4 atom types

-0.30570712251417653 25.215061122514232 xlo xhi
-0.2677344585936261 22.083033861029186 ylo yhi
-0.11805561514443408 9.737357531081429 zlo zhi
0.4193071433401148 0.019678965628362216 5.844514561894278 xy xz yz

Masses

1 6.939999998214724
2 91.22399997653315
3 15.99899999588435
4 35.44999999088069

Atoms # atomic/kk

44 4 1.829797733577672 2.7454067182227337 0.8361507650893389 0 0 0
134 4 1.3375268167533934 3.8535666221246423 4.208261160753308 1 0 0
48 4 5.1826421697897604 2.7525303556309417 3.5436619843334625 0 0 0
175 4 11.90935541829715 1.1182235891561298 0.6362349012719285 0 1 -1
31 4 10.867160831090862 2.5097185324787747 3.462192566554722 0 0 0
7 1 13.843247539723516 5.963520827006508 9.70944391926745 -1 -1 -2
186 4 14.301771302655812 3.0730674513152354 2.2214057754292944 0 1 0
168 4 20.412748838929232 1.4441434935020767 2.036326604958903 0 1 0
111 2 19.003543731456524 3.0625713171915394 3.5875815029034546 0 0 1
119 4 17.91984759638907 3.3573289245046998 1.2217283977619702 0 0 0
150 1 22.518754681771547 1.7812489137922558 1.1039396915451987 0 0 1
116 4 23.90343924808529 3.3720519079243587 2.1525274868218047 0 0 0
110 2 0.7484491572291407 4.590478201799114 1.9865141319534523 1 0 0
142 3 2.0784438181815736 6.045217468294273 1.7675750111860187 1 0 0
63 2 3.1758253334950086 7.579059696630055 1.3763818370764809 0 0 1
161 4 5.459767469463613 6.85679943145899 1.5072631085284094 1 0 1
135 4 7.590289606551041 5.077071123877604 3.965551899227649 1 0 -1
158 2 11.816608030814844 3.571195927263568 1.447584379574535 0 1 0
185 4 9.672403417005098 4.167748581194269 0.7552152406073571 0 1 0
141 4 12.356071522961956 5.8510506933632405 2.259977883702829 0 0 1
5 1 14.394142178980244 5.118124920831811 3.562746484802194 0 0 -1
130 4 16.046109501705025 7.666876155792405 1.990460580814557 0 0 1
125 4 18.156986835026856 5.024952687197196 4.581607300010422 0 0 1
32 4 19.000407083621184 6.906681955402503 0.08794658602082236 -1 0 0
133 4 20.641355511743306 4.822534328883413 2.772300888868371 0 0 1
22 4 24.82264685812087 6.46512493826455 3.1623155597323036 -1 0 0
153 1 22.907597348295226 5.149354452017537 3.5409317612983804 0 0 1
147 1 1.554308816359439 10.332983239880837 5.002189096342042 1 1 -1
75 4 3.326590640151114 9.0249229610335 3.335848967453444 0 0 1
68 4 0.9584547310605327 8.805340506692819 0.84513220672756 0 0 1
89 4 5.807183488271207 16.186581575112207 9.429241125202717 0 0 0
140 4 8.982109071638545 8.67327393462954 0.2596423476725892 0 -1 1
2 1 10.920055666990912 8.761387656031125 3.536670079923885 0 -2 2
183 4 8.693618709043616 8.671016494885963 4.128123569919596 0 1 0
182 4 12.602196171659791 9.647284469012016 1.6428590124156717 0 1 -1
55 1 16.628751207976705 9.524433205859832 3.383836333116488 -1 1 0
118 4 15.67369313456604 11.56036339585335 3.835975458511125 0 0 0
100 1 21.11230711643517 10.432109201172928 5.360648984493346 0 0 -1
179 4 19.19595058238712 9.728670973222016 2.5378720351960538 0 1 0
112 2 19.750625989498978 9.409536921691583 0.1862373860480215 0 0 0
137 4 20.187141583466243 11.789888039530783 -0.11733275116606952 0 0 0
84 4 24.52650525022809 9.684591373010567 3.9458600922967255 -1 0 1
25 4 22.20960200241288 8.47627996723809 0.5718819028218952 -1 0 0
11 1 24.46003348949398 8.471816097146663 1.8433883795594028 -1 0 1
120 4 21.711144896270426 11.651110562869283 3.0714944623459255 -1 0 1
184 4 0.6819249553022545 12.574740327639594 4.86700773801118 1 0 1
91 4 3.6311429871932632 14.122716526640327 0.4433580780170531 0 0 1
154 2 3.9828749565667243 15.995663477744724 1.9882817066240106 1 0 0
88 4 4.276116317877042 14.545285570299669 3.9402598108802325 0 0 0
36 4 8.388211637499646 15.10462551782382 3.231429234932446 0 0 -1
26 4 8.646760940365947 12.208287134764479 1.081605182105488 0 0 1
50 3 11.219278371525736 15.411077519334484 0.4835279317575808 0 0 0
8 1 9.719341562214165 14.36343390722375 0.9300641202786557 0 0 0
60 1 13.700330758210043 11.565366975591813 2.4204283276766945 0 1 -1
181 4 12.387176426917003 13.682518292190798 2.7083973958411693 0 0 0
87 4 14.171827103852655 12.351347124938336 0.040454849900987556 0 0 0
82 4 15.428844937736958 15.038278901614587 1.6423879203350413 0 0 1
14 2 13.26234066015999 14.80987490088201 0.5820132330842327 0 0 0
101 1 16.54298993605135 13.463932407758925 2.890829209969497 0 0 0
103 1 19.748728123785696 15.915821342974219 2.5546478099009216 1 0 -1
94 4 18.533062167345648 14.172929396390396 3.518479038812453 -1 0 1
93 4 21.28356432755635 14.90028862510106 1.4613536488850203 0 0 1
66 2 23.994979391668103 12.152979471142794 3.891376074439804 -1 0 1
177 4 24.4335792277977 12.649207844179179 1.5801723881548158 0 0 1
56 1 19.90154538800345 13.017960656977248 1.9210694032033728 0 1 -1
45 4 23.24092375602264 14.54147862833083 4.41160719686819 -1 0 -1
92 4 0.2672040762548691 21.79311994884403 9.68014799073618 0 0 -1
15 2 1.6109048957266272 18.476971206796982 3.882275452326848 0 -1 1
190 3 2.64944324973091 17.080496517483365 2.935502554223692 1 0 0
43 4 0.1275399430190508 19.056599468220703 1.9042473526711712 0 -1 1
144 3 2.785712705012877 20.049296501646545 3.8235681239651367 1 -1 0
64 2 7.556164832469333 17.13439444187063 1.8499197697997654 0 0 0
166 4 8.086973936939653 18.724726945931334 3.871353671025228 0 0 1
97 3 5.682010425797962 16.79528947009007 2.417571104732003 0 0 0
95 4 6.846172947212894 19.032240441439313 0.4810943845932003 0 0 1
65 2 11.320065758578874 17.374913817895422 0.2652887367511099 0 0 0
96 3 9.710832817069907 17.8524353525063 1.593204972561672 0 0 0
98 3 12.036372294845604 18.939935383990466 1.5081001480503993 0 0 0
62 2 10.454900768679956 19.34749970106023 2.8333129587701595 0 0 0
69 4 14.605651334735569 17.758140354919878 3.436934403635443 0 0 0
191 3 13.389661035244083 16.875519695113137 0.53446435544248 0 0 0
192 3 16.056358801439814 18.49670240531976 0.6657831156380261 0 0 0
156 2 14.092762043547054 18.733741031655384 1.2696380492540504 0 0 0
188 4 18.42382782629503 17.797325918448017 2.803199746275439 0 0 0
157 2 17.84341995577737 18.930696216695633 0.17211694234691663 0 0 0
41 4 21.16286576944995 17.5794893887041 5.281926281760053 -1 0 0
70 4 24.803988591066947 17.800985263707876 4.9656679206851475 -1 0 1
167 4 0.8752129685752776 22.63224692751158 2.827780236745234 1 0 0
113 2 3.0976633267531506 21.771226300313455 2.925586581469857 1 -1 0
51 3 3.3346095993762925 22.966262369405964 4.486344922176617 0 -1 0
20 4 3.705961699384326 21.456316484145358 0.4212721630390765 0 -1 1
46 4 5.731239171855158 21.70307345421301 3.501771514178232 0 -1 0
59 1 4.939961802865096 25.761755331571106 9.16981951772328 -1 0 0
24 4 9.527135572661566 21.214565983860904 1.7369221400827872 0 -1 0
6 1 11.256881458418034 22.736831089040123 2.7211100184907813 0 -1 -1
79 4 11.02440534553265 21.318455143269663 4.582373317086834 0 0 0
83 4 14.472257937101608 21.060375948653444 2.2215298704898148 0 0 0
127 4 17.83535382082065 21.499519514997825 0.9771208712281186 0 0 0
37 4 20.492692410634085 20.646425139614887 3.7106264110436937 -1 0 0
107 1 20.205969206439903 21.733543486297865 1.192702586241021 0 -1 1
145 1 1.513643869835024 23.82313950896469 4.636804641226908 1 -1 -1
139 4 17.655147072070704 23.757241386698947 4.092606359993953 0 -1 1
80 4 4.25824327868232 5.875980680579749 5.402923949560069 0 0 0
18 2 6.16551146679146 4.278715552704182 5.524690565844067 0 0 0
74 4 6.854408707703478 4.860291808463491 7.708431969598716 0 0 1
162 4 14.413545221391864 5.158967960744611 6.0347080960927215 0 1 -1
81 4 15.388587012602112 7.366791791742621 8.712957675917027 0 0 -1
109 1 16.627902531304294 5.9124986621298135 6.7684700919983225 0 0 3
128 4 19.780971868015783 5.943986979257489 7.647701619347978 0 0 0
121 4 22.58484961859515 4.693122263200545 6.335349481049589 0 1 0
155 2 22.129307841179113 6.996286286491215 7.282824448782935 0 1 0
136 4 22.550626792253794 5.7911876998726335 9.406873009092006 0 0 0
151 1 0.7517229953749307 8.944899391128402 8.371822441628526 1 1 -1
129 4 2.386344279743215 9.284023581525478 6.872703120889539 1 0 -1
78 4 -0.1709521009759978 11.095503429710805 9.415577757256884 0 0 0
106 1 3.9861998132722825 8.247928115066758 5.6010995143290945 1 0 0
29 4 6.046805528656195 8.615336548335547 6.744434411360712 0 0 0
19 2 8.086586685325559 9.956342190933677 6.235585798925747 0 0 0
42 4 7.516949659574406 11.625142040366445 7.894222972429437 0 0 0
47 4 9.495301328050262 8.474274638876254 7.553988719136274 0 0 -1
108 1 11.702354784357967 9.701433755482292 7.1048736380204724 0 0 2
173 4 12.934070858713804 9.9470027671282 9.092926865861372 0 1 -1
149 1 14.459100920823442 7.86850361836794 6.315224067494338 -1 0 1
132 4 12.762062210521192 8.83026562132317 5.058221655488581 0 0 0
126 4 16.322100145136716 11.35220276560099 8.728910141087361 0 0 0
58 1 15.912733617666964 3.6086549717418723 0.22163736055132577 0 1 0
124 4 16.623881100783393 8.665276920722537 5.659138897046788 0 0 0
102 1 16.920623400352696 11.048806911024647 6.432862329414819 0 0 -1
99 1 19.75643865090626 10.954299689378738 8.574885080126585 0 0 -1
34 4 19.093074796558213 11.21749161420637 6.5147082911545935 -1 0 -1
170 4 21.36260033357953 7.757055157272516 5.079759693329518 0 1 0
160 4 24.503715461997174 7.853771457124958 7.279132249896839 0 1 0
39 4 21.356762005552866 8.99109411610986 8.511338017957371 -1 0 0
33 4 3.2499629332364894 13.598319587534808 8.747801917662134 0 0 0
1 1 0.7966786421551972 13.357277470083773 8.720693532087221 0 -1 1
85 4 8.491710869367358 15.073444907340193 6.895934623906616 0 0 0
76 4 6.546813552697409 11.398243400945093 4.8060920827150335 0 0 0
57 1 6.673379931312574 13.824286627786238 4.581600459251681 0 0 0
38 4 10.174739454680756 11.412456249000279 5.80275774682734 0 0 0
61 1 9.474708511459863 12.994197683841863 8.044847087021257 0 1 2
40 4 12.100184038435701 13.74987427733031 8.485633904400455 0 0 -1
114 2 16.648360085921226 14.005136537360883 9.410625437039727 0 0 0
143 3 14.837295640866301 14.825087370487234 9.41960041250345 0 0 -1
35 4 17.00448970041093 14.120246753643492 6.91123612881885 0 0 -2
10 1 19.06385934395044 13.546526182760122 5.887585512019619 0 0 0
52 3 17.893037865855753 15.47768193826681 9.537858265660493 0 0 -1
21 4 20.563623171136037 14.680201271803258 7.478846508469403 0 0 -1
86 4 22.69162892824123 11.747228809839669 6.313548964997695 -1 0 0
3 1 22.836576595618638 14.433536366871802 6.723183226062159 0 0 -1
138 4 24.797532825123284 15.049182709318917 7.856201775366543 0 0 -1
23 4 2.3645460602432347 17.6002617116513 6.108933582010101 0 -1 0
54 1 0.4430554893945239 16.40820838079234 6.5669170028552815 1 0 0
49 4 8.254564061692715 18.38905872924632 7.282653632986678 0 0 0
169 4 11.356796500462684 17.818042866370167 4.579404925689857 0 0 1
67 2 8.192410339095012 16.568509962751342 9.030416469189923 0 0 0
105 1 9.795197413979842 17.05840286575841 6.446812415528739 0 -1 -1
27 4 11.097004323556094 17.357051623682068 8.575999869937935 0 0 -1
17 2 13.23641911531744 15.766317762541618 8.990764878477943 0 0 -1
117 4 14.074515544856586 16.587728627558626 6.848598977044999 0 0 0
12 1 15.503019881274716 17.677571570429876 5.573832953554035 0 1 -1
131 4 17.862988034318853 17.359820807361448 6.180638587513378 0 0 0
115 2 19.113598786731743 19.154561964794613 4.98555645989245 0 0 0
176 4 19.52160245527491 20.106698567609882 7.150193706482797 0 0 -1
53 1 22.860033505494492 19.022778106005465 5.717896483309255 0 0 -1
174 4 23.60211061749206 19.454402562573204 8.044699016114645 0 0 0
30 4 3.5272676378659584 23.227354072510302 9.563169696206842 0 -1 0
187 4 1.4094919177839567 20.752733611294225 6.8509275517413215 1 0 0
148 1 2.733373136533532 21.27183815920459 8.57435718274601 1 0 -1
189 4 0.14621851904034572 23.95951481628247 6.953425332253174 1 0 0
13 1 0.9535055746971901 18.159291924429958 -0.0943812832454578 1 -1 1
16 2 5.162087165335947 23.34092924803205 5.325672010818254 0 -1 0
71 4 5.107650720951078 21.437128926280938 6.86538025544078 0 0 0
73 4 7.922656603864629 15.73326711913608 -0.08895913572573569 0 0 -1
77 4 11.089392301943022 23.65867495078066 7.702777690455658 0 0 -1
146 1 15.650245365529743 22.27410407429528 4.060762957811693 0 -1 2
4 1 12.448376987347272 22.45470425967976 6.3938759783753545 0 -1 0
72 4 13.109391637198465 20.644021488409436 7.96704606033317 0 0 -1
90 4 14.403896317896487 23.497828738267934 5.733964744408626 0 0 -1
163 4 16.904211902141114 20.310745299247557 4.782783278293876 0 1 -1
9 1 20.701457965912738 21.436680503266217 9.004555393830568 -1 -1 0
171 4 18.496976420395242 22.555069188214553 9.393339364800909 0 0 -1
180 4 23.70843481220185 21.27650428853027 5.089784169282349 0 0 0
159 2 24.599715777641542 21.570205976711527 7.393150255590157 0 0 0
122 4 22.622480919392757 22.757729149681687 8.183140612835999 0 0 -1
165 4 4.532729321305639 25.37363468369063 6.819613550185132 1 -1 0
28 4 7.484882187865889 24.124565311438747 6.087438062617174 0 -1 1
152 1 15.182444294498776 25.168037876033527 6.81312207708847 0 -1 1
164 4 13.831114877974308 25.910660120535685 9.074019868981587 0 0 -1
178 4 20.38350446793821 19.465160706410177 -0.022775120267725713 0 0 0
104 1 21.16507269173578 26.099663477328583 7.681246314221575 0 -1 -1
172 4 17.471471423273243 25.79678920376419 7.756510720597834 0 0 -1
123 4 20.461869640010548 24.501530354586144 5.611261808206465 0 -1 1

Velocities

44 -2.211560917491072 0.699427175826316 3.607379820250866
134 -3.2196412148139224 3.0013200752747515 4.193479823827184
48 0.891302909570046 -6.847834052372664 0.10185770534659774
175 -1.621616829279921 -7.477020290812329 1.3648916123275558
31 1.3639581053935623 -1.334168761955357 -6.496492761879012
7 -11.875962117907845 -0.34810895881324677 -5.300188835715186
186 -2.1165812742204078 2.052436284167871 0.49786082379354824
168 0.5368470608259743 -2.828189674993824 -0.07012936341682556
111 -1.833866435429852 -1.5907715218379117 -0.22344183939569304
119 -0.6905354639651765 1.4994796300106776 -4.705040975489729
150 3.896833607061727 -5.665376293192566 -2.395734949447292
116 -1.6250328792053517 -0.8487625930419284 0.6885796160957943
110 1.2281753641613602 -1.3427002828956374 1.306967615940067
142 -2.4977999701904356 -1.0761995698415219 9.781375602593533
63 -1.0592655934815574 0.30159422676357195 1.727511064857952
161 1.3800905151917402 -3.307925522511842 2.662037796967939
135 -1.9291012483672807 -4.412319788913094 2.0956988588814083
158 -1.853571924466488 -1.2794837848655436 -0.18111805782217041
185 3.628511089489277 -2.37242161662748 0.49267238212218656
141 0.2185119916973223 0.4537390274167171 -1.6592236944586665
5 -7.13921025093921 7.6036383150429625 4.759787515809579
130 -2.131821314030861 0.7753458582865358 0.293153788450632
125 -3.038048053530736 -1.6684315311403166 0.8346342368120478
32 -2.334101037749655 5.36278306238749 -3.2469805436773953
133 -3.118808277843429 0.29353089608148386 1.8968500675241444
22 3.9925076992349533 -0.024455440203276203 -1.5029073952774243
153 -0.09703577576867055 10.009182637466782 3.5648198253513033
147 -1.82147041388447 1.4352907695775523 3.538776356634829
75 -1.6979705737321895 0.45009912405554525 -5.605768880294503
68 0.8875753862376391 -1.6753158894171694 1.4775291458092163
89 -2.8328615236337864 -2.0097443028560105 -0.4733822774877382
140 2.827488997342642 1.8612365282473005 -0.27288418695906375
2 3.5829214076265345 -2.550297930905992 6.3181978901138285
183 -0.7648240239350826 -1.5596643450367795 0.449188764216146
182 0.8034057024386216 -4.499295731671259 0.32046095545075043
55 8.971317473118114 1.4514873175509055 5.828887900223814
118 -4.01813901893661 4.335553558497476 2.0639002663244135
100 1.925193251615643 -2.7276877961495973 0.9752998001157361
179 1.3138180047074122 -0.07362431892028778 -0.3970176453545384
112 4.321751279202601 2.506672587150974 2.6733987190664434
137 -2.3665536336241266 1.7561753627555685 -1.3345381397141536
84 2.515195066736789 3.2811928255275453 -0.32601478664251554
25 -3.4274214139914023 4.629678239720689 -2.925552904641375
11 0.3269275899180128 -7.5792775371559395 -5.906677670735563
120 -5.693775051080595 3.5520132823297534 -1.5778008736332136
184 -1.0344481886587382 0.2686726403341718 2.099612366380277
91 -0.470065608005638 -0.29488816521801414 0.9969628081646582
154 2.70477099508939 3.386277250687103 0.9678315985727601
88 0.6559978057373732 2.1333420383797512 -1.8649041094288858
36 -5.463788926519404 -3.4158262019775525 -0.13395319757897187
26 1.4603696758228102 2.456663477326918 0.92357616292605
50 0.6139408954238293 -5.2101825523203775 -5.733574286110703
8 3.9785090604624367 8.951016463831829 0.8489602784569371
60 -8.22269833047644 1.2923201762833558 -4.048163116037441
181 -1.5631365813494054 -0.30766105559654905 -2.8587434578292603
87 1.2234577218588853 -1.901470375303498 1.4402123345610824
82 0.04170641545107258 0.9183450812921639 0.8545202706128463
14 0.03830267706015416 -4.1753491780040894 -1.4170813397387545
101 10.948940134050043 13.198343167341251 -11.02254449045503
103 -10.170489272276976 -5.9517828446074565 -6.698380121505381
94 3.112120537968388 1.7757021955605938 -4.678105052622692
93 4.605908190913012 -2.2025911444716786 1.3057651800764258
66 2.884137575158973 -0.6881285330128522 1.5597005219842681
177 0.9064940876216513 2.338182139443672 -1.2102085675505683
56 1.1930245190771245 5.798872496660449 6.405382932655245
45 5.286895291940972 -0.7580681663189823 -0.17783760010176994
92 1.6984041316217628 -2.183443555015715 -1.9676118022253073
15 -0.5993306394477124 0.5007957713668933 -1.25444567735168
190 4.587472906702682 9.135862235234278 -0.3857250109671684
43 -2.2597056627477747 2.5918560619455837 0.48949864968710965
144 1.3020212827641453 1.7260245137159775 3.569646510580289
64 -1.978079231235921 -1.5739252060512245 -3.1740368757144095
166 -0.28256269472596357 1.4584917947852287 -1.0928116454120258
97 -2.8819255799685948 -4.992697476231499 -4.153434748793475
95 -3.0073669801243077 -2.2224993254933407 -0.5794908805327817
65 0.5353019787130228 1.7017181408256745 -0.810241484513494
96 -3.0789641725109873 0.948317664618825 0.36526109252099465
98 2.3839266278813276 3.8235554634552424 5.780244614212523
62 -1.691626367295062 0.9639192377440774 1.1856170392676402
69 0.1390928228336806 -3.2874099394342235 2.0087562852125744
191 -3.1946835568843452 -0.23424097899014418 2.548507788840875
192 -3.2551549080449687 -2.744639226039552 -2.190246368154449
156 0.19297464608085 -0.6606381156697503 0.07746988545628208
188 1.9895813539319367 -0.338817868357034 1.3739658565463564
157 0.975058281311565 1.0194903991341335 0.5710187815894827
41 -1.1864054508528046 -1.7622254812548053 1.58623599439075
70 -1.3445993409603714 2.0598633112276064 -1.7197795477856352
167 2.4445761446449863 3.0256416335583003 2.4146714313796354
113 -2.120450265572242 0.1518077835696436 1.3520507814044593
51 2.66850355208986 -1.2357275230781788 6.512909689473043
20 2.2078987481946597 -2.9241308348652124 -5.523138790138625
46 4.330641306621618 -2.372318255469769 2.3800355311379073
59 -3.453496567644877 9.944518673314654 2.3557134735411314
24 -0.3928541537933016 0.11389457625508283 -3.742428752514542
6 6.759417389676504 0.26522173186468617 -6.130402406513038
79 -1.3844104768955403 -2.39358278226355 -0.8145749176358104
83 2.330390204116701 -5.47040526077247 1.1295426843810905
127 -1.6403270724007972 2.0513509592364683 0.17389813523972925
37 0.07029392953033702 -3.0590221514009346 2.739601132624029
107 -8.843386597914119 -0.6055546740242896 -2.9063492774029944
145 5.089352910339568 5.644577588461723 -4.590006747454249
139 -0.008987387531105642 -2.6799696527763777 -3.6933649718555923
80 0.9301764108895622 2.2784857165780754 1.3043699984391839
18 0.03148755685349766 0.2041719502934201 -0.30066186322770483
74 4.120453112570111 0.7651926658886846 -0.2669430888411907
162 2.938570967598498 -2.263832190242681 -3.6709831166818154
81 -2.5718919480789024 -0.7347352319909295 -0.40438898720136396
109 -0.5494465372613866 7.0055019082176315 18.842577894110246
128 -1.5448504197906878 0.1965546421130817 1.7707088024125672
121 3.8063550647867066 -1.6290257277470617 1.519694066548588
155 0.942373926162874 1.2312197888478604 0.40715470097448
136 1.3838287716100062 -1.0014043480795636 -4.456783352706188
151 6.28798590223504 -1.8501449789045823 9.699220825445813
129 -3.790639849647924 -4.901301913588107 -1.8362395341726179
78 3.778032943582845 -1.5760289158058107 2.2379667464408852
106 6.381139973093539 -0.01689896468701097 -4.239225903515073
29 -1.2178640024181482 -0.6437885496293493 1.6902281661320662
19 1.1053818660909347 -0.18093046438680335 -1.0530006305874728
42 3.86393881550139 2.929226721264898 0.824904928136095
47 3.0666692825401123 2.3487861502140683 0.9478418152955188
108 -4.183035347876848 -1.035644738892476 8.69688344678754
173 -2.0959346695934427 0.6449927604364881 0.6681455478071965
149 10.338407683451994 6.503249650710672 0.29281683788850255
132 0.26110254777151903 0.6333822440968729 0.32455128506992553
126 -0.1300888507171547 -5.2706065748905635 0.7867099070657139
58 -1.967550345618604 -8.179718536274168 -5.358474108528009
124 1.6173737540136994 5.74106382196188 2.3013994983236437
102 -3.431538487250276 8.802619654962987 6.499825261511163
99 -11.252142256872402 2.8438392384135955 6.028986213661997
34 1.691113838647417 -1.6352253313006595 3.1238272437966548
170 3.4896966286263744 -1.1967196379422782 -0.42191747057796664
160 -0.6316018942565703 -1.1641700388446576 -4.891183478227771
39 -1.8949267577579116 1.6089986381627734 -1.1438941889831122
33 -1.8520441356269133 1.2988802739063314 0.14399550547181283
1 1.4915131237562558 5.283075413788894 9.509617827521666
85 -1.9908323770095517 -3.045641202301907 -0.6385479067195893
76 1.275356135529558 2.590921464854267 -6.874689883452529
57 5.473886789450606 2.468648337332329 -8.498727926893002
38 2.6393374419784807 2.4219206870342505 -0.0022690154841796114
61 3.6528978889770287 10.334763479600834 -0.4430520078794881
40 -2.4626023195107147 1.2681359965129206 -2.1822522975702348
114 1.5475043524503702 0.1601789411622003 0.11370580173534024
143 -6.378141447462298 -2.9259483667073924 2.0730135631448934
35 0.1409377282013202 5.8823698958213235 -6.41899689961163
10 10.706210562808097 -9.0288025726567 -11.0470552807525
52 -4.688861185345894 -1.5734189642439023 1.389179022922743
21 -2.1183475814699375 -2.439438006792285 0.42866397194988903
86 -4.607830488296071 -0.6830376740387315 5.7348574740061915
3 4.7191177790819046 3.979633802626948 -1.4451094116611694
138 -0.6423030676672394 1.8216095526839715 0.8949902793132374
23 -2.0458320221908495 -0.7059762949226321 -0.3435343096572243
54 1.770310958128503 -3.910142447406811 3.897582204074594
49 5.035683850161875 1.4513947091486568 -2.0759081377455146
169 2.174393843234212 -1.5815149904426162 -0.6464291255937792
67 -0.6917248726249898 0.2775948897376281 -1.7978918890639528
105 -1.297337497003143 0.9760947487151139 -4.591772826905923
27 -3.4913689022344387 -3.6897296616675805 -0.5497381423370055
17 -0.01308017955507842 1.393451076079853 1.716895221424723
117 5.091864688377422 1.2382913662013815 1.1391186999105791
12 -0.14357893773239244 -1.3194613055337256 6.62913340715237
131 0.6051184596782395 1.3860934983839566 3.270577182565483
115 -0.2639368498622579 -1.113174470143937 1.4098169932241444
176 2.6815768660991637 4.744713344518856 0.747103628514146
53 -7.022366857660761 -0.9675731707728928 2.619219578405863
174 1.6496685440798537 0.4972616755391415 -0.715535473299898
30 0.5511140090276146 0.9843973692049618 -2.4927617686035957
187 -3.9764784602671877 -0.66691803429246 0.1309395982483875
148 -1.4818307981502943 9.600477400406827 4.997451648339728
189 -0.3861453000245904 2.5491119828559436 4.209793432681481
13 3.0427844103330703 0.06674905408279101 0.5995284548463714
16 -2.2949207433365024 -2.2830914870208643 -1.7953907228496515
71 -1.793963623490831 -2.235999570587752 -1.7703255775502533
73 3.0070274908164913 2.4854990095300815 3.172672760267282
77 -4.308557044882418 -4.239107857663573 -4.832137047968262
146 3.168177553502546 6.201369051493404 3.3929451741252934
4 3.671194890732482 -4.766497418041935 0.835998077422762
72 -4.55675202493318 -1.2446878110174768 -0.6007285509834831
90 -2.0125727654741703 2.492618008445425 -3.9832225343952135
163 -0.3958922125429016 -3.477072171179938 4.849909659510109
9 -6.11369560160199 -0.30559677278923875 7.406536956964072
171 1.9843141304486926 -3.1364855007913097 -1.4163836736922446
180 0.09826558601871059 2.438485167739459 -3.3147097039435325
159 0.0015482293756590281 2.798544744017545 -0.36242938495708305
122 -3.577114125426459 3.1701069309840704 -2.167893224683733
165 3.9880377369307287 -1.173559189229623 -4.440452666805768
28 1.7110721643821953 -5.409327864554669 0.8386120396729714
152 2.683685298531729 8.23249265376957 4.48895079400193
164 2.272299886677916 2.19388023046498 2.76648249582883
178 -1.2241440523026264 -0.42094159792143737 -0.6806200870895357
104 -0.11422851933247467 10.583090619783814 6.779111810791156
172 -0.250936898069743 0.8672742380445312 2.994137716257368
123 -1.2744961903447847 0.17746568741349192 4.316680209714729
