192
Lattice="21.874 0.0 0.0 -10.937 18.9434 0.0 0.0 0.0 12.044" Properties=species:S:1:pos:R:3 material=Li1.75ZrCl4.75O0.5 role="300 ps transport-series start" pbc="T T T"
Li       6.13000000      15.36760000       0.93371500
Li       8.16134000      16.36530000       3.80763000
Li      20.62470000       2.07612000       8.34909000
Li       6.88810000       3.42487000       3.31120000
Li      17.95180000       3.01332000       2.93489000
Li       1.02301000       3.37252000      11.39280000
Li      13.49970000       0.99446300       2.62789000
Li       9.77131000       3.63641000       7.78117000
Li       4.69668000      15.76590000       3.12909000
Li      -3.06060000       9.09677000       1.65013000
Li      -0.90027000      14.79390000       5.91694000
Li       1.56286000      10.67170000      11.59980000
Li      10.78580000      11.60390000       9.17378000
Li       6.04465000       7.79580000       3.41071000
Li       1.32413000       0.46733000       9.80698000
Li      -5.20463000      12.30930000       1.32214000
Li      15.05330000       3.13993000       4.14527000
Li      -8.73928000      15.99520000       9.22838000
Li      -5.20035000      13.76360000      10.77100000
Li      11.47170000       3.45095000       4.25299000
Li      -0.65913200       7.53387000       4.26644000
Li      13.95690000       9.82655000       8.08473000
Li      -1.82341000      13.11890000       3.09358000
Li       4.51846000       1.16318000       8.68477000
Li       8.24279000       0.62375600       8.57652000
Li      -5.19404000       9.29614000      10.48120000
Li       6.98418000      13.05860000       3.72074000
Li       1.13108000      12.74780000       9.09066000
Li      -0.08456610       6.25613000       0.59412000
Li      -7.20771000      17.70000000      11.50170000
Li      19.35580000       2.13423000      11.52390000
Li       1.47346000      15.36040000       3.55402000
Li       4.31806000      12.88930000       0.46544300
Li      10.41490000      13.29700000       2.62089000
Li      -7.33346000      17.69570000       7.10720000
Li      10.53050000      14.60650000       5.73964000
Li      10.58860000       8.08552000       8.29222000
Li       4.02544000      11.36470000       9.36338000
Li       0.46651300      11.34460000       4.05265000
Li      15.07620000       6.62078000       7.19679000
Li      12.67080000       7.81275000       5.56649000
Li       8.73943000      10.07070000       2.59902000
Cl       5.92100000       0.97275200      10.94570000
Cl       1.22885000       2.05949000       4.30329000
Cl      -3.04289000      15.00980000       6.33298000
Cl      -1.97514000      17.27150000       9.08952000
Cl       4.11624000       3.92458000       4.60167000
Cl      -3.39428000      10.84280000      11.90850000
Cl      -5.09275000      16.33390000      10.68080000
Cl      19.18110000       0.18806700       7.76790000
Cl      -2.53428000       7.02004000       0.76298600
Cl       8.12444000      16.40800000       1.33245000
Cl       5.91121000      14.14570000      11.13220000
Cl      10.77760000      12.58650000       6.96035000
Cl       5.78254000       7.05446000      11.18350000
Cl       0.99296100       8.26227000       1.02801000
Cl       2.37226000      14.99230000       1.30326000
Cl       0.05910560      17.55730000       5.98244000
Cl      -5.02197000       8.77131000       2.82340000
Cl       7.17755000      18.76440000      11.19340000
Cl       3.36010000      15.75100000       5.24098000
Cl      -3.86434000      11.92250000       2.92792000
Cl      -6.17677000      15.35710000       7.53482000
Cl       3.37448000       9.34535000      10.68710000
Cl      -1.52336000      12.03060000       5.21839000
Cl      13.75890000       0.73457200       5.57759000
Cl      -1.59193000       9.38696000       3.40543000
Cl      -1.02739000      15.15130000       3.63807000
Cl      12.22680000       3.31030000       6.39245000
Cl      10.89730000      11.06360000       3.26992000
Cl       2.62771000      12.58690000      10.90930000
Cl       3.21472000      10.38740000       1.73936000
Cl      -6.08562000      15.32570000       2.56534000
Cl      16.09600000       1.39919000       2.41599000
Cl      10.75420000      17.09050000       9.71872000
Cl       6.03329000       3.83798000       8.84889000
Cl       9.09797000       2.19131000       9.89702000
Cl      12.36010000      14.39620000       3.40659000
Cl      18.08090000       3.16218000       9.50691000
Cl       2.98524000       2.67655000      10.36390000
Cl       3.45034000      16.66470000      10.43560000
Cl      19.24870000       0.86073000       2.14283000
Cl      12.00510000       5.92603000       4.15035000
Cl       2.23797000      17.77360000       3.04119000
Cl       4.35345000      14.33270000       8.03102000
Cl      12.64580000       7.23645000       7.90600000
Cl      16.46540000       6.46358000      11.20260000
Cl       5.40108000      13.82450000       2.50978000
Cl       8.87672000      14.20890000       4.32478000
Cl       6.30480000       1.31250000       4.45499000
Cl       1.89529000      12.91160000       3.96308000
Cl       8.12107000      10.74550000       4.97490000
Cl       1.40964000       9.03673000       4.36509000
Cl      13.25350000       3.16635000       2.76836000
Cl       6.27915000      17.69170000       4.19264000
Cl      -2.70047000       8.16083000       9.94259000
Cl      16.98370000       2.56498000       5.64804000
Cl       4.17242000       7.98648000       4.65688000
Cl      16.23740000       8.37943000       8.24962000
Cl       9.29195000       4.53541000       4.03153000
Cl      12.44950000      10.27150000       9.82849000
Cl       8.72766000      15.75300000       7.23709000
Cl       7.81467000       9.52115000      11.72920000
Cl      15.41980000       4.51965000       8.10701000
Cl       8.07171000       2.58452000       1.06742000
Cl      -5.46891000      11.05240000       5.75754000
Cl       9.03276000      12.95470000      10.04260000
Cl      -3.13002000      14.08830000       0.69438900
Cl      18.51990000       3.92191000       0.41654300
Cl       6.24897000      10.03550000       2.50283000
Cl       1.00385000      14.34680000       7.30887000
Cl       4.96113000       0.09934670       1.79368000
Cl      12.87740000      13.74400000       9.44103000
Cl      -7.77503000      17.91620000       4.44243000
Cl      16.16880000       5.17451000       3.08760000
Cl       7.30736000       7.10273000       5.69318000
Cl      -1.87811000       3.60991000       6.72130000
Cl       2.58261000      11.41030000       7.36626000
Cl       8.43051000      12.35410000       1.29292000
Cl      -4.70945000      18.31050000       7.62351000
Cl       1.13744000       5.60304000       4.20453000
Cl      -6.03245000      11.75190000       9.37026000
Cl       2.70977000       5.85687000      10.82390000
Cl       9.69503000       5.92290000       7.30275000
Cl      10.07940000      17.36730000       4.90169000
Cl       6.05810000       5.72352000       2.43408000
Cl      -7.83552000      18.30940000       9.29328000
Cl       0.57651200       0.80363100       7.47576000
Cl       9.42616000       9.97670000       7.76088000
Cl       8.34062000       5.27491000      10.70510000
Cl      12.28920000      16.21120000       6.96279000
Cl       0.14729700       4.06562000       1.45811000
Cl      -0.29378800      12.21820000       1.29923000
Cl      -0.55662400       2.00934000      10.50590000
Cl       9.04795000       7.49288000       2.65622000
Cl       6.34003000      10.84630000       9.02018000
Cl      14.69740000      12.00790000       2.84416000
Cl       5.11976000      12.15660000       5.39282000
Cl      12.12240000      12.68010000       0.54244200
Cl       2.28430000       0.44999800       0.43434900
Cl      13.06610000      10.49780000       6.05661000
Cl      -8.64010000      15.89540000       0.18358900
Cl      12.08420000       0.53015300       8.54802000
Cl      13.27820000       0.44888500       0.04315890
Cl      15.17280000       7.51067000       5.23579000
Cl      15.02650000      10.04860000      11.99440000
Cl      10.89220000       1.12217000       3.78803000
Cl      -2.75493000      10.31230000       7.41973000
Cl      -0.26783900      11.01100000       9.92050000
Cl      -2.44168000       5.58290000       3.87883000
Cl      -0.27646700      14.48800000      10.83520000
Cl      -0.97651300       7.39363000       6.74296000
Cl       3.56694000       1.55937000       6.63382000
Cl      -3.27266000      13.59860000       9.41598000
Cl      -0.71945900       5.77558000      10.43790000
Cl       9.00879000       1.89531000       6.58277000
O       -3.62125000       8.39153000       5.49776000
O        5.44003000       3.84149000       0.11137300
O       -6.59954000      13.16840000       0.05376950
O        5.35971000      11.36200000      11.92310000
O        4.42543000       7.92668000       1.41479000
O       10.57680000       8.51965000       5.44684000
O        2.96482000       5.96566000       1.97065000
O        3.40454000       2.10546000       2.57079000
O        3.02227000       3.84910000       0.96243600
O        5.04140000      16.94180000       1.49547000
O       -3.27153000       5.76918000       8.67966000
O       17.54640000       6.12576000       6.31178000
Zr       4.24273000       5.58019000       0.57543900
Zr       7.10267000      11.91290000      11.15090000
Zr      14.10070000      12.09220000      10.93200000
Zr      17.41260000       6.79702000       4.38469000
Zr       5.29586000       9.30897000       0.30174100
Zr       4.08801000       2.10628000       0.59138000
Zr       9.60186000       6.84608000       4.93859000
Zr       6.43747000      18.36770000       1.54729000
Zr       7.05349000       3.34695000      11.07890000
Zr       3.28371000      17.12440000       0.70581200
Zr      -3.16174000       5.73187000      10.69010000
Zr       3.12509000      13.53180000       6.20724000
Zr      -3.32070000       7.56594000       7.45777000
Zr       2.29598000       3.97483000       2.73673000
Zr      -7.69772000      13.95500000       1.42515000
Zr      10.48810000      10.48650000       5.56836000
Zr      -3.45033000      10.32080000       5.00787000
Zr      -4.00085000      16.04020000       8.42337000
Zr       2.82976000       8.01844000       2.63275000
Zr      -1.60626000      12.62200000      11.41360000
Zr       3.86335000       1.26574000       4.28740000
Zr      11.47910000       0.98865800       6.24501000
Zr      10.11870000      17.65490000       7.43729000
Zr      17.75970000       4.36582000       7.29404000
