336
Lattice="7.992 0.0 0.0 0.0 25.13 0.0 0.0 0.0 38.295" Properties=species:S:1:pos:R:3 material=LiNbOCl4 role="ordered 2x2x3 simulation input" pbc="T T T"
Li       0.00000000       1.29419500       8.16960000
Li       0.00000000      11.27080500       1.78710000
Li       1.99800000       7.57669500       8.16960000
Li       1.99800000       4.98830500       1.78710000
Nb       0.00000000       3.14125000       3.86779500
Nb       0.00000000       9.42375000      10.25029500
Nb       1.99800000       9.42375000       3.86779500
Nb       1.99800000       3.14125000      10.25029500
Cl       0.00000000       1.43241000       5.31024000
Cl       0.00000000      11.13259000      11.69274000
Cl       1.99800000       7.71491000       5.31024000
Cl       1.99800000       4.85009000      11.69274000
Cl       0.00000000       0.37695000       2.70618000
Cl       0.00000000      12.18805000       9.08868000
Cl       1.99800000       6.65945000       2.70618000
Cl       1.99800000       5.90555000       9.08868000
Cl       0.00000000       4.72444000       5.02941000
Cl       0.00000000       7.84056000      11.41191000
Cl       1.99800000      11.00694000       5.02941000
Cl       1.99800000       1.55806000      11.41191000
Cl       0.00000000       4.08362500       1.55733000
Cl       0.00000000       8.48137500       7.93983000
Cl       1.99800000      10.36612500       1.55733000
Cl       1.99800000       2.19887500       7.93983000
O        0.00000000       3.19151000       9.50992500
O        0.00000000       9.37349000       3.12742500
O        1.99800000       9.47401000       9.50992500
O        1.99800000       3.09099000       3.12742500
Li       0.00000000       1.29419500      20.93460000
Li       0.00000000      11.27080500      14.55210000
Li       1.99800000       7.57669500      20.93460000
Li       1.99800000       4.98830500      14.55210000
Nb       0.00000000       3.14125000      16.63279500
Nb       0.00000000       9.42375000      23.01529500
Nb       1.99800000       9.42375000      16.63279500
Nb       1.99800000       3.14125000      23.01529500
Cl       0.00000000       1.43241000      18.07524000
Cl       0.00000000      11.13259000      24.45774000
Cl       1.99800000       7.71491000      18.07524000
Cl       1.99800000       4.85009000      24.45774000
Cl       0.00000000       0.37695000      15.47118000
Cl       0.00000000      12.18805000      21.85368000
Cl       1.99800000       6.65945000      15.47118000
Cl       1.99800000       5.90555000      21.85368000
Cl       0.00000000       4.72444000      17.79441000
Cl       0.00000000       7.84056000      24.17691000
Cl       1.99800000      11.00694000      17.79441000
Cl       1.99800000       1.55806000      24.17691000
Cl       0.00000000       4.08362500      14.32233000
Cl       0.00000000       8.48137500      20.70483000
Cl       1.99800000      10.36612500      14.32233000
Cl       1.99800000       2.19887500      20.70483000
O        0.00000000       3.19151000      22.27492500
O        0.00000000       9.37349000      15.89242500
O        1.99800000       9.47401000      22.27492500
O        1.99800000       3.09099000      15.89242500
Li       0.00000000       1.29419500      33.69960000
Li       0.00000000      11.27080500      27.31710000
Li       1.99800000       7.57669500      33.69960000
Li       1.99800000       4.98830500      27.31710000
Nb       0.00000000       3.14125000      29.39779500
Nb       0.00000000       9.42375000      35.78029500
Nb       1.99800000       9.42375000      29.39779500
Nb       1.99800000       3.14125000      35.78029500
Cl       0.00000000       1.43241000      30.84024000
Cl       0.00000000      11.13259000      37.22274000
Cl       1.99800000       7.71491000      30.84024000
Cl       1.99800000       4.85009000      37.22274000
Cl       0.00000000       0.37695000      28.23618000
Cl       0.00000000      12.18805000      34.61868000
Cl       1.99800000       6.65945000      28.23618000
Cl       1.99800000       5.90555000      34.61868000
Cl       0.00000000       4.72444000      30.55941000
Cl       0.00000000       7.84056000      36.94191000
Cl       1.99800000      11.00694000      30.55941000
Cl       1.99800000       1.55806000      36.94191000
Cl       0.00000000       4.08362500      27.08733000
Cl       0.00000000       8.48137500      33.46983000
Cl       1.99800000      10.36612500      27.08733000
Cl       1.99800000       2.19887500      33.46983000
O        0.00000000       3.19151000      35.03992500
O        0.00000000       9.37349000      28.65742500
O        1.99800000       9.47401000      35.03992500
O        1.99800000       3.09099000      28.65742500
Li       0.00000000      13.85919500       8.16960000
Li       0.00000000      23.83580500       1.78710000
Li       1.99800000      20.14169500       8.16960000
Li       1.99800000      17.55330500       1.78710000
Nb       0.00000000      15.70625000       3.86779500
Nb       0.00000000      21.98875000      10.25029500
Nb       1.99800000      21.98875000       3.86779500
Nb       1.99800000      15.70625000      10.25029500
Cl       0.00000000      13.99741000       5.31024000
Cl       0.00000000      23.69759000      11.69274000
Cl       1.99800000      20.27991000       5.31024000
Cl       1.99800000      17.41509000      11.69274000
Cl       0.00000000      12.94195000       2.70618000
Cl       0.00000000      24.75305000       9.08868000
Cl       1.99800000      19.22445000       2.70618000
Cl       1.99800000      18.47055000       9.08868000
Cl       0.00000000      17.28944000       5.02941000
Cl       0.00000000      20.40556000      11.41191000
Cl       1.99800000      23.57194000       5.02941000
Cl       1.99800000      14.12306000      11.41191000
Cl       0.00000000      16.64862500       1.55733000
Cl       0.00000000      21.04637500       7.93983000
Cl       1.99800000      22.93112500       1.55733000
Cl       1.99800000      14.76387500       7.93983000
O        0.00000000      15.75651000       9.50992500
O        0.00000000      21.93849000       3.12742500
O        1.99800000      22.03901000       9.50992500
O        1.99800000      15.65599000       3.12742500
Li       0.00000000      13.85919500      20.93460000
Li       0.00000000      23.83580500      14.55210000
Li       1.99800000      20.14169500      20.93460000
Li       1.99800000      17.55330500      14.55210000
Nb       0.00000000      15.70625000      16.63279500
Nb       0.00000000      21.98875000      23.01529500
Nb       1.99800000      21.98875000      16.63279500
Nb       1.99800000      15.70625000      23.01529500
Cl       0.00000000      13.99741000      18.07524000
Cl       0.00000000      23.69759000      24.45774000
Cl       1.99800000      20.27991000      18.07524000
Cl       1.99800000      17.41509000      24.45774000
Cl       0.00000000      12.94195000      15.47118000
Cl       0.00000000      24.75305000      21.85368000
Cl       1.99800000      19.22445000      15.47118000
Cl       1.99800000      18.47055000      21.85368000
Cl       0.00000000      17.28944000      17.79441000
Cl       0.00000000      20.40556000      24.17691000
Cl       1.99800000      23.57194000      17.79441000
Cl       1.99800000      14.12306000      24.17691000
Cl       0.00000000      16.64862500      14.32233000
Cl       0.00000000      21.04637500      20.70483000
Cl       1.99800000      22.93112500      14.32233000
Cl       1.99800000      14.76387500      20.70483000
O        0.00000000      15.75651000      22.27492500
O        0.00000000      21.93849000      15.89242500
O        1.99800000      22.03901000      22.27492500
O        1.99800000      15.65599000      15.89242500
Li       0.00000000      13.85919500      33.69960000
Li       0.00000000      23.83580500      27.31710000
Li       1.99800000      20.14169500      33.69960000
Li       1.99800000      17.55330500      27.31710000
Nb       0.00000000      15.70625000      29.39779500
Nb       0.00000000      21.98875000      35.78029500
Nb       1.99800000      21.98875000      29.39779500
Nb       1.99800000      15.70625000      35.78029500
Cl       0.00000000      13.99741000      30.84024000
Cl       0.00000000      23.69759000      37.22274000
Cl       1.99800000      20.27991000      30.84024000
Cl       1.99800000      17.41509000      37.22274000
Cl       0.00000000      12.94195000      28.23618000
Cl       0.00000000      24.75305000      34.61868000
Cl       1.99800000      19.22445000      28.23618000
Cl       1.99800000      18.47055000      34.61868000
Cl       0.00000000      17.28944000      30.55941000
Cl       0.00000000      20.40556000      36.94191000
Cl       1.99800000      23.57194000      30.55941000
Cl       1.99800000      14.12306000      36.94191000
Cl       0.00000000      16.64862500      27.08733000
Cl       0.00000000      21.04637500      33.46983000
Cl       1.99800000      22.93112500      27.08733000
Cl       1.99800000      14.76387500      33.46983000
O        0.00000000      15.75651000      35.03992500
O        0.00000000      21.93849000      28.65742500
O        1.99800000      22.03901000      35.03992500
O        1.99800000      15.65599000      28.65742500
Li       3.99600000       1.29419500       8.16960000
Li       3.99600000      11.27080500       1.78710000
Li       5.99400000       7.57669500       8.16960000
Li       5.99400000       4.98830500       1.78710000
Nb       3.99600000       3.14125000       3.86779500
Nb       3.99600000       9.42375000      10.25029500
Nb       5.99400000       9.42375000       3.86779500
Nb       5.99400000       3.14125000      10.25029500
Cl       3.99600000       1.43241000       5.31024000
Cl       3.99600000      11.13259000      11.69274000
Cl       5.99400000       7.71491000       5.31024000
Cl       5.99400000       4.85009000      11.69274000
Cl       3.99600000       0.37695000       2.70618000
Cl       3.99600000      12.18805000       9.08868000
Cl       5.99400000       6.65945000       2.70618000
Cl       5.99400000       5.90555000       9.08868000
Cl       3.99600000       4.72444000       5.02941000
Cl       3.99600000       7.84056000      11.41191000
Cl       5.99400000      11.00694000       5.02941000
Cl       5.99400000       1.55806000      11.41191000
Cl       3.99600000       4.08362500       1.55733000
Cl       3.99600000       8.48137500       7.93983000
Cl       5.99400000      10.36612500       1.55733000
Cl       5.99400000       2.19887500       7.93983000
O        3.99600000       3.19151000       9.50992500
O        3.99600000       9.37349000       3.12742500
O        5.99400000       9.47401000       9.50992500
O        5.99400000       3.09099000       3.12742500
Li       3.99600000       1.29419500      20.93460000
Li       3.99600000      11.27080500      14.55210000
Li       5.99400000       7.57669500      20.93460000
Li       5.99400000       4.98830500      14.55210000
Nb       3.99600000       3.14125000      16.63279500
Nb       3.99600000       9.42375000      23.01529500
Nb       5.99400000       9.42375000      16.63279500
Nb       5.99400000       3.14125000      23.01529500
Cl       3.99600000       1.43241000      18.07524000
Cl       3.99600000      11.13259000      24.45774000
Cl       5.99400000       7.71491000      18.07524000
Cl       5.99400000       4.85009000      24.45774000
Cl       3.99600000       0.37695000      15.47118000
Cl       3.99600000      12.18805000      21.85368000
Cl       5.99400000       6.65945000      15.47118000
Cl       5.99400000       5.90555000      21.85368000
Cl       3.99600000       4.72444000      17.79441000
Cl       3.99600000       7.84056000      24.17691000
Cl       5.99400000      11.00694000      17.79441000
Cl       5.99400000       1.55806000      24.17691000
Cl       3.99600000       4.08362500      14.32233000
Cl       3.99600000       8.48137500      20.70483000
Cl       5.99400000      10.36612500      14.32233000
Cl       5.99400000       2.19887500      20.70483000
O        3.99600000       3.19151000      22.27492500
O        3.99600000       9.37349000      15.89242500
O        5.99400000       9.47401000      22.27492500
O        5.99400000       3.09099000      15.89242500
Li       3.99600000       1.29419500      33.69960000
Li       3.99600000      11.27080500      27.31710000
Li       5.99400000       7.57669500      33.69960000
Li       5.99400000       4.98830500      27.31710000
Nb       3.99600000       3.14125000      29.39779500
Nb       3.99600000       9.42375000      35.78029500
Nb       5.99400000       9.42375000      29.39779500
Nb       5.99400000       3.14125000      35.78029500
Cl       3.99600000       1.43241000      30.84024000
Cl       3.99600000      11.13259000      37.22274000
Cl       5.99400000       7.71491000      30.84024000
Cl       5.99400000       4.85009000      37.22274000
Cl       3.99600000       0.37695000      28.23618000
Cl       3.99600000      12.18805000      34.61868000
Cl       5.99400000       6.65945000      28.23618000
Cl       5.99400000       5.90555000      34.61868000
Cl       3.99600000       4.72444000      30.55941000
Cl       3.99600000       7.84056000      36.94191000
Cl       5.99400000      11.00694000      30.55941000
Cl       5.99400000       1.55806000      36.94191000
Cl       3.99600000       4.08362500      27.08733000
Cl       3.99600000       8.48137500      33.46983000
Cl       5.99400000      10.36612500      27.08733000
Cl       5.99400000       2.19887500      33.46983000
O        3.99600000       3.19151000      35.03992500
O        3.99600000       9.37349000      28.65742500
O        5.99400000       9.47401000      35.03992500
O        5.99400000       3.09099000      28.65742500
Li       3.99600000      13.85919500       8.16960000
Li       3.99600000      23.83580500       1.78710000
Li       5.99400000      20.14169500       8.16960000
Li       5.99400000      17.55330500       1.78710000
Nb       3.99600000      15.70625000       3.86779500
Nb       3.99600000      21.98875000      10.25029500
Nb       5.99400000      21.98875000       3.86779500
Nb       5.99400000      15.70625000      10.25029500
Cl       3.99600000      13.99741000       5.31024000
Cl       3.99600000      23.69759000      11.69274000
Cl       5.99400000      20.27991000       5.31024000
Cl       5.99400000      17.41509000      11.69274000
Cl       3.99600000      12.94195000       2.70618000
Cl       3.99600000      24.75305000       9.08868000
Cl       5.99400000      19.22445000       2.70618000
Cl       5.99400000      18.47055000       9.08868000
Cl       3.99600000      17.28944000       5.02941000
Cl       3.99600000      20.40556000      11.41191000
Cl       5.99400000      23.57194000       5.02941000
Cl       5.99400000      14.12306000      11.41191000
Cl       3.99600000      16.64862500       1.55733000
Cl       3.99600000      21.04637500       7.93983000
Cl       5.99400000      22.93112500       1.55733000
Cl       5.99400000      14.76387500       7.93983000
O        3.99600000      15.75651000       9.50992500
O        3.99600000      21.93849000       3.12742500
O        5.99400000      22.03901000       9.50992500
O        5.99400000      15.65599000       3.12742500
Li       3.99600000      13.85919500      20.93460000
Li       3.99600000      23.83580500      14.55210000
Li       5.99400000      20.14169500      20.93460000
Li       5.99400000      17.55330500      14.55210000
Nb       3.99600000      15.70625000      16.63279500
Nb       3.99600000      21.98875000      23.01529500
Nb       5.99400000      21.98875000      16.63279500
Nb       5.99400000      15.70625000      23.01529500
Cl       3.99600000      13.99741000      18.07524000
Cl       3.99600000      23.69759000      24.45774000
Cl       5.99400000      20.27991000      18.07524000
Cl       5.99400000      17.41509000      24.45774000
Cl       3.99600000      12.94195000      15.47118000
Cl       3.99600000      24.75305000      21.85368000
Cl       5.99400000      19.22445000      15.47118000
Cl       5.99400000      18.47055000      21.85368000
Cl       3.99600000      17.28944000      17.79441000
Cl       3.99600000      20.40556000      24.17691000
Cl       5.99400000      23.57194000      17.79441000
Cl       5.99400000      14.12306000      24.17691000
Cl       3.99600000      16.64862500      14.32233000
Cl       3.99600000      21.04637500      20.70483000
Cl       5.99400000      22.93112500      14.32233000
Cl       5.99400000      14.76387500      20.70483000
O        3.99600000      15.75651000      22.27492500
O        3.99600000      21.93849000      15.89242500
O        5.99400000      22.03901000      22.27492500
O        5.99400000      15.65599000      15.89242500
Li       3.99600000      13.85919500      33.69960000
Li       3.99600000      23.83580500      27.31710000
Li       5.99400000      20.14169500      33.69960000
Li       5.99400000      17.55330500      27.31710000
Nb       3.99600000      15.70625000      29.39779500
Nb       3.99600000      21.98875000      35.78029500
Nb       5.99400000      21.98875000      29.39779500
Nb       5.99400000      15.70625000      35.78029500
Cl       3.99600000      13.99741000      30.84024000
Cl       3.99600000      23.69759000      37.22274000
Cl       5.99400000      20.27991000      30.84024000
Cl       5.99400000      17.41509000      37.22274000
Cl       3.99600000      12.94195000      28.23618000
Cl       3.99600000      24.75305000      34.61868000
Cl       5.99400000      19.22445000      28.23618000
Cl       5.99400000      18.47055000      34.61868000
Cl       3.99600000      17.28944000      30.55941000
Cl       3.99600000      20.40556000      36.94191000
Cl       5.99400000      23.57194000      30.55941000
Cl       5.99400000      14.12306000      36.94191000
Cl       3.99600000      16.64862500      27.08733000
Cl       3.99600000      21.04637500      33.46983000
Cl       5.99400000      22.93112500      27.08733000
Cl       5.99400000      14.76387500      33.46983000
O        3.99600000      15.75651000      35.03992500
O        3.99600000      21.93849000      28.65742500
O        5.99400000      22.03901000      35.03992500
O        5.99400000      15.65599000      28.65742500
