512
Lattice="25.638000488281 0 0 0 16.440000534058 0 0 0 24.493999481201" Properties=species:S:1:pos:R:3 pbc="T T T"
Li 4.571769714355 0.103179745376 2.683428049088
Li 4.562353134155 0.100585810840 8.801952362061
Li 8.273086547852 8.098327636719 3.442764282227
Li 8.271715164185 8.105381011963 9.561990737915
Li 1.849960923195 8.105777740479 5.763678073883
Li 1.843766450882 8.105919837952 11.882161140442
Li 10.960842132568 0.095730744302 0.366295427084
Li 10.964396476746 0.116778291762 6.488149642944
Li 8.251183509827 4.237164497375 3.429146289825
Li 8.248955726624 4.233467102051 9.552531242371
Li 4.573618412018 3.999794721603 2.700648546219
Li 4.566442966461 4.006761074066 8.799882888794
Li 10.968747138977 4.000732898712 0.382916837931
Li 10.974494934082 4.020915508270 6.497857093811
Li 1.863148212433 4.222995758057 5.753014087677
Li 1.842828392982 4.202458381653 11.884758949280
Li 12.815994262695 0.004410450347 3.065676450729
Li 0.005961302202 0.000518273213 9.183452606201
Li 6.403120040894 0.009233293124 0.004979025107
Li 6.415605545044 8.219104766846 6.144374370575
Li 12.807934761047 4.110221385956 3.057651519775
Li 0.014876856469 4.110295295715 9.179841995239
Li 6.381980419159 4.107472419739 0.001665732125
Li 6.399104595184 4.118020057678 6.117362499237
P 1.124949812889 2.059714078903 1.058610677719
P 1.120427250862 2.047789573669 7.178324222565
P 11.702917098999 6.165009498596 5.070944786072
P 11.693367958069 6.163643836975 11.197282791138
P 5.285738945007 6.164906501770 4.112416267395
P 5.291334152222 6.170757770538 10.242206573486
P 7.524203777313 2.057783365250 2.013782978058
P 7.537117481232 2.060308456421 8.138288497925
S 1.989932537079 0.372161954641 1.742910742760
S 1.997111439705 0.379813253880 7.866786479950
S 10.825083732605 7.838063240051 4.377661228180
S 10.822863578796 7.846987724304 10.498373985291
S 4.419178962708 7.851424217224 4.810544967651
S 4.421463966370 7.841740131378 10.931475639343
S 8.390930175781 0.376252353191 1.315730690956
S 8.398684501648 0.377101153135 7.431258678436
S 10.828474044800 4.481272697449 4.374298572540
S 10.828284263611 4.484066963196 10.498592376709
S 1.989575386047 3.730447053909 1.745830535889
S 1.980644345284 3.725684881210 7.869503498077
S 8.396578788757 3.730962991714 1.310528635979
S 8.400655746460 3.734558343887 7.429149627686
S 4.423570632935 4.493052959442 4.808023929596
S 4.414201259613 4.485043048859 10.929889678955
S 11.983678817749 2.052617073059 1.577485799789
S 11.983363151550 2.054652452469 7.699354171753
S 0.843763470650 6.159937381744 4.552452087402
S 0.840946018696 6.174410820007 10.675405502319
S 7.248291015625 6.165191650391 4.638814449310
S 7.240751743317 6.163340568542 10.753474235535
S 5.567332267761 2.050521850586 1.484332680702
S 5.576951026917 2.053940534592 7.606388568878
S 1.377496480942 2.052739858627 5.128967285156
S 1.370173454285 2.054330348969 11.252774238586
S 11.451492309570 6.162537097931 0.998607277870
S 11.447726249695 6.167874336243 7.128971576691
S 5.042792320251 6.159583568573 2.061553001404
S 5.039654254913 6.165475845337 8.182779312134
S 7.783319950104 2.051141738892 4.065806865692
S 7.774275302887 2.059182167053 10.179362297058
Li 4.571769714355 0.103179745376 14.930427789688
Li 4.562353134155 0.100585810840 21.048952102661
Li 8.273086547852 8.098327636719 15.689764022827
Li 8.271715164185 8.105381011963 21.808990478516
Li 1.849960923195 8.105777740479 18.010677814484
Li 1.843766450882 8.105919837952 24.129160881042
Li 10.960842132568 0.095730744302 12.613295167685
Li 10.964396476746 0.116778291762 18.735149383545
Li 8.251183509827 4.237164497375 15.676146030426
Li 8.248955726624 4.233467102051 21.799530982971
Li 4.573618412018 3.999794721603 14.947648286819
Li 4.566442966461 4.006761074066 21.046882629395
Li 10.968747138977 4.000732898712 12.629916578531
Li 10.974494934082 4.020915508270 18.744856834412
Li 1.863148212433 4.222995758057 18.000013828278
Li 1.842828392982 4.202458381653 24.131758689880
Li 12.815994262695 0.004410450347 15.312676191330
Li 0.005961302202 0.000518273213 21.430452346802
Li 6.403120040894 0.009233293124 12.251978765707
Li 6.415605545044 8.219104766846 18.391374111176
Li 12.807934761047 4.110221385956 15.304651260376
Li 0.014876856469 4.110295295715 21.426841735840
Li 6.381980419159 4.107472419739 12.248665472725
Li 6.399104595184 4.118020057678 18.364362239838
P 1.124949812889 2.059714078903 13.305610418320
P 1.120427250862 2.047789573669 19.425323963165
P 11.702917098999 6.165009498596 17.317944526672
P 11.693367958069 6.163643836975 23.444282531738
P 5.285738945007 6.164906501770 16.359416007996
P 5.291334152222 6.170757770538 22.489206314087
P 7.524203777313 2.057783365250 14.260782718658
P 7.537117481232 2.060308456421 20.385288238525
S 1.989932537079 0.372161954641 13.989910483360
S 1.997111439705 0.379813253880 20.113786220551
S 10.825083732605 7.838063240051 16.624660968781
S 10.822863578796 7.846987724304 22.745373725891
S 4.419178962708 7.851424217224 17.057544708252
S 4.421463966370 7.841740131378 23.178475379944
S 8.390930175781 0.376252353191 13.562730431557
S 8.398684501648 0.377101153135 19.678258419037
S 10.828474044800 4.481272697449 16.621298313141
S 10.828284263611 4.484066963196 22.745592117310
S 1.989575386047 3.730447053909 13.992830276489
S 1.980644345284 3.725684881210 20.116503238678
S 8.396578788757 3.730962991714 13.557528376579
S 8.400655746460 3.734558343887 19.676149368286
S 4.423570632935 4.493052959442 17.055023670197
S 4.414201259613 4.485043048859 23.176889419556
S 11.983678817749 2.052617073059 13.824485540390
S 11.983363151550 2.054652452469 19.946353912354
S 0.843763470650 6.159937381744 16.799451828003
S 0.840946018696 6.174410820007 22.922405242920
S 7.248291015625 6.165191650391 16.885814189911
S 7.240751743317 6.163340568542 23.000473976135
S 5.567332267761 2.050521850586 13.731332421303
S 5.576951026917 2.053940534592 19.853388309479
S 1.377496480942 2.052739858627 17.375967025757
S 1.370173454285 2.054330348969 23.499773979187
S 11.451492309570 6.162537097931 13.245607018471
S 11.447726249695 6.167874336243 19.375971317291
S 5.042792320251 6.159583568573 14.308552742004
S 5.039654254913 6.165475845337 20.429779052734
S 7.783319950104 2.051141738892 16.312806606293
S 7.774275302887 2.059182167053 22.426362037659
Li 4.571769714355 8.323180012405 2.683428049088
Li 4.562353134155 8.320586077869 8.801952362061
Li 8.273086547852 16.318327903748 3.442764282227
Li 8.271715164185 16.325381278992 9.561990737915
Li 1.849960923195 16.325778007507 5.763678073883
Li 1.843766450882 16.325920104980 11.882161140442
Li 10.960842132568 8.315731011331 0.366295427084
Li 10.964396476746 8.336778558791 6.488149642944
Li 8.251183509827 12.457164764404 3.429146289825
Li 8.248955726624 12.453467369080 9.552531242371
Li 4.573618412018 12.219794988632 2.700648546219
Li 4.566442966461 12.226761341095 8.799882888794
Li 10.968747138977 12.220733165741 0.382916837931
Li 10.974494934082 12.240915775299 6.497857093811
Li 1.863148212433 12.442996025085 5.753014087677
Li 1.842828392982 12.422458648682 11.884758949280
Li 12.815994262695 8.224410717376 3.065676450729
Li 0.005961302202 8.220518540242 9.183452606201
Li 6.403120040894 8.229233560152 0.004979025107
Li 6.415605545044 16.439105033875 6.144374370575
Li 12.807934761047 12.330221652985 3.057651519775
Li 0.014876856469 12.330295562744 9.179841995239
Li 6.381980419159 12.327472686768 0.001665732125
Li 6.399104595184 12.338020324707 6.117362499237
P 1.124949812889 10.279714345932 1.058610677719
P 1.120427250862 10.267789840698 7.178324222565
P 11.702917098999 14.385009765625 5.070944786072
P 11.693367958069 14.383644104004 11.197282791138
P 5.285738945007 14.384906768799 4.112416267395
P 5.291334152222 14.390758037567 10.242206573486
P 7.524203777313 10.277783632278 2.013782978058
P 7.537117481232 10.280308723450 8.138288497925
S 1.989932537079 8.592162221670 1.742910742760
S 1.997111439705 8.599813520908 7.866786479950
S 10.825083732605 16.058063507080 4.377661228180
S 10.822863578796 16.066987991333 10.498373985291
S 4.419178962708 16.071424484253 4.810544967651
S 4.421463966370 16.061740398407 10.931475639343
S 8.390930175781 8.596252620220 1.315730690956
S 8.398684501648 8.597101420164 7.431258678436
S 10.828474044800 12.701272964478 4.374298572540
S 10.828284263611 12.704067230225 10.498592376709
S 1.989575386047 11.950447320938 1.745830535889
S 1.980644345284 11.945685148239 7.869503498077
S 8.396578788757 11.950963258743 1.310528635979
S 8.400655746460 11.954558610916 7.429149627686
S 4.423570632935 12.713053226471 4.808023929596
S 4.414201259613 12.705043315887 10.929889678955
S 11.983678817749 10.272617340088 1.577485799789
S 11.983363151550 10.274652719498 7.699354171753
S 0.843763470650 14.379937648773 4.552452087402
S 0.840946018696 14.394411087036 10.675405502319
S 7.248291015625 14.385191917419 4.638814449310
S 7.240751743317 14.383340835571 10.753474235535
S 5.567332267761 10.270522117615 1.484332680702
S 5.576951026917 10.273940801620 7.606388568878
S 1.377496480942 10.272740125656 5.128967285156
S 1.370173454285 10.274330615997 11.252774238586
S 11.451492309570 14.382537364960 0.998607277870
S 11.447726249695 14.387874603271 7.128971576691
S 5.042792320251 14.379583835602 2.061553001404
S 5.039654254913 14.385476112366 8.182779312134
S 7.783319950104 10.271142005920 4.065806865692
S 7.774275302887 10.279182434082 10.179362297058
Li 4.571769714355 8.323180012405 14.930427789688
Li 4.562353134155 8.320586077869 21.048952102661
Li 8.273086547852 16.318327903748 15.689764022827
Li 8.271715164185 16.325381278992 21.808990478516
Li 1.849960923195 16.325778007507 18.010677814484
Li 1.843766450882 16.325920104980 24.129160881042
Li 10.960842132568 8.315731011331 12.613295167685
Li 10.964396476746 8.336778558791 18.735149383545
Li 8.251183509827 12.457164764404 15.676146030426
Li 8.248955726624 12.453467369080 21.799530982971
Li 4.573618412018 12.219794988632 14.947648286819
Li 4.566442966461 12.226761341095 21.046882629395
Li 10.968747138977 12.220733165741 12.629916578531
Li 10.974494934082 12.240915775299 18.744856834412
Li 1.863148212433 12.442996025085 18.000013828278
Li 1.842828392982 12.422458648682 24.131758689880
Li 12.815994262695 8.224410717376 15.312676191330
Li 0.005961302202 8.220518540242 21.430452346802
Li 6.403120040894 8.229233560152 12.251978765707
Li 6.415605545044 16.439105033875 18.391374111176
Li 12.807934761047 12.330221652985 15.304651260376
Li 0.014876856469 12.330295562744 21.426841735840
Li 6.381980419159 12.327472686768 12.248665472725
Li 6.399104595184 12.338020324707 18.364362239838
P 1.124949812889 10.279714345932 13.305610418320
P 1.120427250862 10.267789840698 19.425323963165
P 11.702917098999 14.385009765625 17.317944526672
P 11.693367958069 14.383644104004 23.444282531738
P 5.285738945007 14.384906768799 16.359416007996
P 5.291334152222 14.390758037567 22.489206314087
P 7.524203777313 10.277783632278 14.260782718658
P 7.537117481232 10.280308723450 20.385288238525
S 1.989932537079 8.592162221670 13.989910483360
S 1.997111439705 8.599813520908 20.113786220551
S 10.825083732605 16.058063507080 16.624660968781
S 10.822863578796 16.066987991333 22.745373725891
S 4.419178962708 16.071424484253 17.057544708252
S 4.421463966370 16.061740398407 23.178475379944
S 8.390930175781 8.596252620220 13.562730431557
S 8.398684501648 8.597101420164 19.678258419037
S 10.828474044800 12.701272964478 16.621298313141
S 10.828284263611 12.704067230225 22.745592117310
S 1.989575386047 11.950447320938 13.992830276489
S 1.980644345284 11.945685148239 20.116503238678
S 8.396578788757 11.950963258743 13.557528376579
S 8.400655746460 11.954558610916 19.676149368286
S 4.423570632935 12.713053226471 17.055023670197
S 4.414201259613 12.705043315887 23.176889419556
S 11.983678817749 10.272617340088 13.824485540390
S 11.983363151550 10.274652719498 19.946353912354
S 0.843763470650 14.379937648773 16.799451828003
S 0.840946018696 14.394411087036 22.922405242920
S 7.248291015625 14.385191917419 16.885814189911
S 7.240751743317 14.383340835571 23.000473976135
S 5.567332267761 10.270522117615 13.731332421303
S 5.576951026917 10.273940801620 19.853388309479
S 1.377496480942 10.272740125656 17.375967025757
S 1.370173454285 10.274330615997 23.499773979187
S 11.451492309570 14.382537364960 13.245607018471
S 11.447726249695 14.387874603271 19.375971317291
S 5.042792320251 14.379583835602 14.308552742004
S 5.039654254913 14.385476112366 20.429779052734
S 7.783319950104 10.271142005920 16.312806606293
S 7.774275302887 10.279182434082 22.426362037659
Li 17.390769958496 0.103179745376 2.683428049088
Li 17.381353378296 0.100585810840 8.801952362061
Li 21.092086791992 8.098327636719 3.442764282227
Li 21.090715408325 8.105381011963 9.561990737915
Li 14.668961167336 8.105777740479 5.763678073883
Li 14.662766695023 8.105919837952 11.882161140442
Li 23.779842376709 0.095730744302 0.366295427084
Li 23.783396720886 0.116778291762 6.488149642944
Li 21.070183753967 4.237164497375 3.429146289825
Li 21.067955970764 4.233467102051 9.552531242371
Li 17.392618656158 3.999794721603 2.700648546219
Li 17.385443210602 4.006761074066 8.799882888794
Li 23.787747383118 4.000732898712 0.382916837931
Li 23.793495178223 4.020915508270 6.497857093811
Li 14.682148456573 4.222995758057 5.753014087677
Li 14.661828637123 4.202458381653 11.884758949280
Li 25.634994506836 0.004410450347 3.065676450729
Li 12.824961546343 0.000518273213 9.183452606201
Li 19.222120285034 0.009233293124 0.004979025107
Li 19.234605789185 8.219104766846 6.144374370575
Li 25.626935005188 4.110221385956 3.057651519775
Li 12.833877100609 4.110295295715 9.179841995239
Li 19.200980663300 4.107472419739 0.001665732125
Li 19.218104839325 4.118020057678 6.117362499237
P 13.943950057030 2.059714078903 1.058610677719
P 13.939427495003 2.047789573669 7.178324222565
P 24.521917343140 6.165009498596 5.070944786072
P 24.512368202209 6.163643836975 11.197282791138
P 18.104739189148 6.164906501770 4.112416267395
P 18.110334396362 6.170757770538 10.242206573486
P 20.343204021454 2.057783365250 2.013782978058
P 20.356117725372 2.060308456421 8.138288497925
S 14.808932781219 0.372161954641 1.742910742760
S 14.816111683846 0.379813253880 7.866786479950
S 23.644083976746 7.838063240051 4.377661228180
S 23.641863822937 7.846987724304 10.498373985291
S 17.238179206848 7.851424217224 4.810544967651
S 17.240464210510 7.841740131378 10.931475639343
S 21.209930419922 0.376252353191 1.315730690956
S 21.217684745789 0.377101153135 7.431258678436
S 23.647474288940 4.481272697449 4.374298572540
S 23.647284507751 4.484066963196 10.498592376709
S 14.808575630188 3.730447053909 1.745830535889
S 14.799644589424 3.725684881210 7.869503498077
S 21.215579032898 3.730962991714 1.310528635979
S 21.219655990601 3.734558343887 7.429149627686
S 17.242570877075 4.493052959442 4.808023929596
S 17.233201503754 4.485043048859 10.929889678955
S 24.802679061890 2.052617073059 1.577485799789
S 24.802363395691 2.054652452469 7.699354171753
S 13.662763714790 6.159937381744 4.552452087402
S 13.659946262836 6.174410820007 10.675405502319
S 20.067291259766 6.165191650391 4.638814449310
S 20.059751987457 6.163340568542 10.753474235535
S 18.386332511902 2.050521850586 1.484332680702
S 18.395951271057 2.053940534592 7.606388568878
S 14.196496725082 2.052739858627 5.128967285156
S 14.189173698425 2.054330348969 11.252774238586
S 24.270492553711 6.162537097931 0.998607277870
S 24.266726493835 6.167874336243 7.128971576691
S 17.861792564392 6.159583568573 2.061553001404
S 17.858654499054 6.165475845337 8.182779312134
S 20.602320194244 2.051141738892 4.065806865692
S 20.593275547028 2.059182167053 10.179362297058
Li 17.390769958496 0.103179745376 14.930427789688
Li 17.381353378296 0.100585810840 21.048952102661
Li 21.092086791992 8.098327636719 15.689764022827
Li 21.090715408325 8.105381011963 21.808990478516
Li 14.668961167336 8.105777740479 18.010677814484
Li 14.662766695023 8.105919837952 24.129160881042
Li 23.779842376709 0.095730744302 12.613295167685
Li 23.783396720886 0.116778291762 18.735149383545
Li 21.070183753967 4.237164497375 15.676146030426
Li 21.067955970764 4.233467102051 21.799530982971
Li 17.392618656158 3.999794721603 14.947648286819
Li 17.385443210602 4.006761074066 21.046882629395
Li 23.787747383118 4.000732898712 12.629916578531
Li 23.793495178223 4.020915508270 18.744856834412
Li 14.682148456573 4.222995758057 18.000013828278
Li 14.661828637123 4.202458381653 24.131758689880
Li 25.634994506836 0.004410450347 15.312676191330
Li 12.824961546343 0.000518273213 21.430452346802
Li 19.222120285034 0.009233293124 12.251978765707
Li 19.234605789185 8.219104766846 18.391374111176
Li 25.626935005188 4.110221385956 15.304651260376
Li 12.833877100609 4.110295295715 21.426841735840
Li 19.200980663300 4.107472419739 12.248665472725
Li 19.218104839325 4.118020057678 18.364362239838
P 13.943950057030 2.059714078903 13.305610418320
P 13.939427495003 2.047789573669 19.425323963165
P 24.521917343140 6.165009498596 17.317944526672
P 24.512368202209 6.163643836975 23.444282531738
P 18.104739189148 6.164906501770 16.359416007996
P 18.110334396362 6.170757770538 22.489206314087
P 20.343204021454 2.057783365250 14.260782718658
P 20.356117725372 2.060308456421 20.385288238525
S 14.808932781219 0.372161954641 13.989910483360
S 14.816111683846 0.379813253880 20.113786220551
S 23.644083976746 7.838063240051 16.624660968781
S 23.641863822937 7.846987724304 22.745373725891
S 17.238179206848 7.851424217224 17.057544708252
S 17.240464210510 7.841740131378 23.178475379944
S 21.209930419922 0.376252353191 13.562730431557
S 21.217684745789 0.377101153135 19.678258419037
S 23.647474288940 4.481272697449 16.621298313141
S 23.647284507751 4.484066963196 22.745592117310
S 14.808575630188 3.730447053909 13.992830276489
S 14.799644589424 3.725684881210 20.116503238678
S 21.215579032898 3.730962991714 13.557528376579
S 21.219655990601 3.734558343887 19.676149368286
S 17.242570877075 4.493052959442 17.055023670197
S 17.233201503754 4.485043048859 23.176889419556
S 24.802679061890 2.052617073059 13.824485540390
S 24.802363395691 2.054652452469 19.946353912354
S 13.662763714790 6.159937381744 16.799451828003
S 13.659946262836 6.174410820007 22.922405242920
S 20.067291259766 6.165191650391 16.885814189911
S 20.059751987457 6.163340568542 23.000473976135
S 18.386332511902 2.050521850586 13.731332421303
S 18.395951271057 2.053940534592 19.853388309479
S 14.196496725082 2.052739858627 17.375967025757
S 14.189173698425 2.054330348969 23.499773979187
S 24.270492553711 6.162537097931 13.245607018471
S 24.266726493835 6.167874336243 19.375971317291
S 17.861792564392 6.159583568573 14.308552742004
S 17.858654499054 6.165475845337 20.429779052734
S 20.602320194244 2.051141738892 16.312806606293
S 20.593275547028 2.059182167053 22.426362037659
Li 17.390769958496 8.323180012405 2.683428049088
Li 17.381353378296 8.320586077869 8.801952362061
Li 21.092086791992 16.318327903748 3.442764282227
Li 21.090715408325 16.325381278992 9.561990737915
Li 14.668961167336 16.325778007507 5.763678073883
Li 14.662766695023 16.325920104980 11.882161140442
Li 23.779842376709 8.315731011331 0.366295427084
Li 23.783396720886 8.336778558791 6.488149642944
Li 21.070183753967 12.457164764404 3.429146289825
Li 21.067955970764 12.453467369080 9.552531242371
Li 17.392618656158 12.219794988632 2.700648546219
Li 17.385443210602 12.226761341095 8.799882888794
Li 23.787747383118 12.220733165741 0.382916837931
Li 23.793495178223 12.240915775299 6.497857093811
Li 14.682148456573 12.442996025085 5.753014087677
Li 14.661828637123 12.422458648682 11.884758949280
Li 25.634994506836 8.224410717376 3.065676450729
Li 12.824961546343 8.220518540242 9.183452606201
Li 19.222120285034 8.229233560152 0.004979025107
Li 19.234605789185 16.439105033875 6.144374370575
Li 25.626935005188 12.330221652985 3.057651519775
Li 12.833877100609 12.330295562744 9.179841995239
Li 19.200980663300 12.327472686768 0.001665732125
Li 19.218104839325 12.338020324707 6.117362499237
P 13.943950057030 10.279714345932 1.058610677719
P 13.939427495003 10.267789840698 7.178324222565
P 24.521917343140 14.385009765625 5.070944786072
P 24.512368202209 14.383644104004 11.197282791138
P 18.104739189148 14.384906768799 4.112416267395
P 18.110334396362 14.390758037567 10.242206573486
P 20.343204021454 10.277783632278 2.013782978058
P 20.356117725372 10.280308723450 8.138288497925
S 14.808932781219 8.592162221670 1.742910742760
S 14.816111683846 8.599813520908 7.866786479950
S 23.644083976746 16.058063507080 4.377661228180
S 23.641863822937 16.066987991333 10.498373985291
S 17.238179206848 16.071424484253 4.810544967651
S 17.240464210510 16.061740398407 10.931475639343
S 21.209930419922 8.596252620220 1.315730690956
S 21.217684745789 8.597101420164 7.431258678436
S 23.647474288940 12.701272964478 4.374298572540
S 23.647284507751 12.704067230225 10.498592376709
S 14.808575630188 11.950447320938 1.745830535889
S 14.799644589424 11.945685148239 7.869503498077
S 21.215579032898 11.950963258743 1.310528635979
S 21.219655990601 11.954558610916 7.429149627686
S 17.242570877075 12.713053226471 4.808023929596
S 17.233201503754 12.705043315887 10.929889678955
S 24.802679061890 10.272617340088 1.577485799789
S 24.802363395691 10.274652719498 7.699354171753
S 13.662763714790 14.379937648773 4.552452087402
S 13.659946262836 14.394411087036 10.675405502319
S 20.067291259766 14.385191917419 4.638814449310
S 20.059751987457 14.383340835571 10.753474235535
S 18.386332511902 10.270522117615 1.484332680702
S 18.395951271057 10.273940801620 7.606388568878
S 14.196496725082 10.272740125656 5.128967285156
S 14.189173698425 10.274330615997 11.252774238586
S 24.270492553711 14.382537364960 0.998607277870
S 24.266726493835 14.387874603271 7.128971576691
S 17.861792564392 14.379583835602 2.061553001404
S 17.858654499054 14.385476112366 8.182779312134
S 20.602320194244 10.271142005920 4.065806865692
S 20.593275547028 10.279182434082 10.179362297058
Li 17.390769958496 8.323180012405 14.930427789688
Li 17.381353378296 8.320586077869 21.048952102661
Li 21.092086791992 16.318327903748 15.689764022827
Li 21.090715408325 16.325381278992 21.808990478516
Li 14.668961167336 16.325778007507 18.010677814484
Li 14.662766695023 16.325920104980 24.129160881042
Li 23.779842376709 8.315731011331 12.613295167685
Li 23.783396720886 8.336778558791 18.735149383545
Li 21.070183753967 12.457164764404 15.676146030426
Li 21.067955970764 12.453467369080 21.799530982971
Li 17.392618656158 12.219794988632 14.947648286819
Li 17.385443210602 12.226761341095 21.046882629395
Li 23.787747383118 12.220733165741 12.629916578531
Li 23.793495178223 12.240915775299 18.744856834412
Li 14.682148456573 12.442996025085 18.000013828278
Li 14.661828637123 12.422458648682 24.131758689880
Li 25.634994506836 8.224410717376 15.312676191330
Li 12.824961546343 8.220518540242 21.430452346802
Li 19.222120285034 8.229233560152 12.251978765707
Li 19.234605789185 16.439105033875 18.391374111176
Li 25.626935005188 12.330221652985 15.304651260376
Li 12.833877100609 12.330295562744 21.426841735840
Li 19.200980663300 12.327472686768 12.248665472725
Li 19.218104839325 12.338020324707 18.364362239838
P 13.943950057030 10.279714345932 13.305610418320
P 13.939427495003 10.267789840698 19.425323963165
P 24.521917343140 14.385009765625 17.317944526672
P 24.512368202209 14.383644104004 23.444282531738
P 18.104739189148 14.384906768799 16.359416007996
P 18.110334396362 14.390758037567 22.489206314087
P 20.343204021454 10.277783632278 14.260782718658
P 20.356117725372 10.280308723450 20.385288238525
S 14.808932781219 8.592162221670 13.989910483360
S 14.816111683846 8.599813520908 20.113786220551
S 23.644083976746 16.058063507080 16.624660968781
S 23.641863822937 16.066987991333 22.745373725891
S 17.238179206848 16.071424484253 17.057544708252
S 17.240464210510 16.061740398407 23.178475379944
S 21.209930419922 8.596252620220 13.562730431557
S 21.217684745789 8.597101420164 19.678258419037
S 23.647474288940 12.701272964478 16.621298313141
S 23.647284507751 12.704067230225 22.745592117310
S 14.808575630188 11.950447320938 13.992830276489
S 14.799644589424 11.945685148239 20.116503238678
S 21.215579032898 11.950963258743 13.557528376579
S 21.219655990601 11.954558610916 19.676149368286
S 17.242570877075 12.713053226471 17.055023670197
S 17.233201503754 12.705043315887 23.176889419556
S 24.802679061890 10.272617340088 13.824485540390
S 24.802363395691 10.274652719498 19.946353912354
S 13.662763714790 14.379937648773 16.799451828003
S 13.659946262836 14.394411087036 22.922405242920
S 20.067291259766 14.385191917419 16.885814189911
S 20.059751987457 14.383340835571 23.000473976135
S 18.386332511902 10.270522117615 13.731332421303
S 18.395951271057 10.273940801620 19.853388309479
S 14.196496725082 10.272740125656 17.375967025757
S 14.189173698425 10.274330615997 23.499773979187
S 24.270492553711 14.382537364960 13.245607018471
S 24.266726493835 14.387874603271 19.375971317291
S 17.861792564392 14.379583835602 14.308552742004
S 17.858654499054 14.385476112366 20.429779052734
S 20.602320194244 10.271142005920 16.312806606293
S 20.593275547028 10.279182434082 22.426362037659
