30
Properties=species:S:1:pos:R:3 pbc="F F F"
Cl       0.00000000       0.00000000       0.00000000
Cl      -4.00293113       2.41230935      -1.79351449
Cl      -0.73785269       3.20950945      -1.77924965
Cl      -2.43426930       2.02163024       1.14322550
Cl      -3.37099952      -0.78811490      -0.86690133
Cl       0.79027514      -3.17325144       5.35732313
Cl      -0.14610563       1.44341626       3.89412106
Cl       2.58620579      -0.38667365       5.29673025
Cl      -0.40554151      -0.25394107       7.03070030
Cl      -2.11508261      -1.54384058       4.10730023
Cl       2.82427817      -3.60128462      -2.15744189
Cl      -0.48046051      -3.40090270      -0.88387696
Cl       3.16205843      -0.20631010      -1.24111938
Cl       3.49711061      -2.86417068       7.61008540
Cl       3.75182856      -5.21955242       5.23129375
Cl       5.47090552      -2.04272575       4.55473587
O       -1.60455646      -1.89343959      -3.68014394
O       -0.25739208      -0.31678545      -4.99951467
O       -1.22124167       0.37652658      -2.88189024
O        0.61547405      -1.21196732      -2.92196281
O        1.90319209      -2.40108853       0.86851253
O        0.92593272      -1.31399846       2.80777562
O        2.81553570      -2.82885983       3.07858222
O        3.16003331      -0.66506426       2.02748617
S       -0.64555642      -0.79344254      -3.68212040
S        2.20390343      -1.78323407       2.19736500
Zr      -1.91076770       1.19723900      -1.11357257
Zr       0.06819351      -0.70893473       4.74425372
Zr       1.47151686      -1.97773457      -1.20845149
Zr       3.33751905      -2.85479839       5.19405338
