20
Properties=species:S:1:pos:R:3 pbc="F F F"
Cl       0.00000000       0.00000000       0.00000000
Cl      -0.71219056      -0.50065353       3.50281736
Cl      -1.20015601      -3.19527525       1.27782240
Cl       3.76988063      -6.78117863      -2.20183634
Cl       6.30546446      -3.84695483      -2.15368205
Cl       4.36283835      -4.73728225      -4.97260481
Cl       2.50732627      -2.75759866      -3.05404238
Cl       1.35649863      -3.14895616       3.72417740
Cl       3.28054641      -0.97803345       5.59733002
Cl       4.52541068      -4.25858141       4.87946105
Cl       5.94988022      -1.34964273       3.23469885
Cl       2.69116407      -0.45110000       2.29397862
O        2.08456942      -5.08578771       1.20287903
O        1.79812678      -2.78748716       0.51583260
O        3.79210517      -3.42459452       1.78674991
O        3.55410449      -4.12109346      -0.49738944
S        2.79501572      -3.87689923       0.75472141
Zr       4.11653032      -4.49772691      -2.54257776
Zr       3.91480393      -2.38202849       3.64002130
Zr       0.46798908      -1.50089195       1.69004044
