10
Properties=species:S:1:pos:R:3 pbc="F F F"
Cl       0.00000000       0.00000000       0.00000000
Cl      -1.55839308       0.11728077       3.39624101
Cl       1.21015164      -1.69341318       2.90643446
Cl      -0.03873259       2.96011692       1.95397776
O        4.47280120       1.04525083       2.66363315
O        2.47902880       1.01708372       1.17302317
O        2.16449881       1.32799584       3.47143250
O        3.30916409       3.11325914       2.16497188
S        3.15840015       1.67582300       2.38016016
Zr       0.51058731       0.56718780       2.24970264
