30
Properties=species:S:1:pos:R:3 pbc="F F F"
Cl       0.00000000       0.00000000       0.00000000
Cl       2.60298618       2.36845613       0.71790937
Cl       0.08172383       3.11241177      -1.51279912
Cl      -0.22073831       4.57526387       1.67863123
Cl      -2.46011775       2.13186063       0.78475641
Cl       3.08942026       1.78541220       6.91828854
Cl       5.29738435       4.69357363       6.33299241
Cl       5.41639128       2.30696582       3.92653855
Cl       2.87389272       4.87630778       3.38237114
Cl       1.87972508       4.79214306       6.47797378
Cl      -2.99511224       5.18313729      -0.76786128
Cl      -5.80743828       2.96890835       0.06584958
Cl      -4.86459930       3.64508077      -3.29232659
Cl      -1.37485205       4.04319084       7.47547359
Cl       1.30499799       3.17950476       9.60429705
Cl      -0.20044968       0.57899430       7.65734256
O       -4.04702710       0.43164542      -3.99521601
O       -2.52550174       1.71609679      -2.47471066
O       -4.52422407       0.82682166      -1.62232352
O       -2.64516780      -0.68521459      -2.33298914
O        0.78840704       0.17481902       4.60381025
O        0.47326283       2.57050315       5.07082624
O        2.47257477       1.83373202       3.91748059
O        0.29724302       1.73185159       2.80066901
S       -3.45161058       0.49679678      -2.66418014
S        1.00659016       1.52015768       4.11539001
Zr       0.21017743       2.28761921       0.73679140
Zr      -3.86033415       2.98590699      -1.20262381
Zr       3.75174556       3.44747875       5.16318028
Zr       0.62916379       2.73132846       7.42757916
