30
Properties=species:S:1:pos:R:3 pbc="F F F"
Cl       0.00000000       0.00000000       0.00000000
Cl      -0.42371650      -2.72453321       1.62271182
Cl      -3.43067342       0.53089857      -0.51968929
Cl       2.50248236       0.27211762       7.02182546
Cl       2.21233345       0.66169393       3.42110568
Cl       0.24989068       2.78869752       5.85583060
Cl      -6.01318163      -5.68516160       0.18940342
Cl      -6.05012286      -1.84150349      -1.03417214
Cl      -3.76479991      -2.77907423       1.47564513
Cl      -8.36352436      -4.07603441      -1.91665811
Cl      -5.58486373      -5.08141741      -3.78520405
Cl       0.79366795      -2.10723294       5.12299680
Cl      -3.75252762      -2.15747954       6.88824785
Cl      -1.04825795      -0.21844394       7.04675898
Cl      -0.65236271      -3.60592421       8.01807217
Cl      -1.87409012      -4.68306171       4.83911561
O       -1.54655983      -4.56889337      -1.68189615
O       -2.69341571      -3.28490066      -3.44354590
O       -3.88604390      -4.01985332      -1.44873140
O       -2.20678147      -2.28080369      -1.27674453
O       -2.40141749      -0.15457852       2.33461043
O       -2.12314954      -1.60420343       4.27992407
O       -0.78795636       0.40796247       4.00438085
O       -3.17702575       0.58322223       4.52556872
S       -2.55410668      -3.57091587      -2.01590086
S       -2.16494598      -0.17328115       3.80706716
Zr      -2.20338113      -1.18804985       0.47281061
Zr       0.83892168       0.50216929       5.37433274
Zr      -5.96565524      -4.18310261      -1.57697045
Zr      -1.53870976      -2.65360533       6.08159590
