272
Lattice="19.362712117104 0.0 0.0 0.0 26.332733905827997 0.0 0.0 0.0 16.103729978580002" Properties=species:S:1:pos:R:3:spacegroup_kinds:I:1 spacegroup="P 1" unit_cell=conventional occupancy="_JSON {\"0\": {\"Cl\": 1.0}, \"1\": {\"Cl\": 1.0}, \"2\": {\"Cl\": 1.0}, \"3\": {\"Cl\": 1.0}, \"4\": {\"Cl\": 1.0}, \"5\": {\"Cl\": 1.0}, \"6\": {\"Cl\": 1.0}, \"7\": {\"Cl\": 1.0}, \"8\": {\"Cl\": 1.0}, \"9\": {\"Cl\": 1.0}, \"10\": {\"Cl\": 1.0}, \"11\": {\"Cl\": 1.0}, \"12\": {\"Cl\": 1.0}, \"13\": {\"Cl\": 1.0}, \"14\": {\"Cl\": 1.0}, \"15\": {\"Cl\": 1.0}, \"16\": {\"Cl\": 1.0}, \"17\": {\"Cl\": 1.0}, \"18\": {\"Cl\": 1.0}, \"19\": {\"Cl\": 1.0}, \"20\": {\"Cl\": 1.0}, \"21\": {\"Cl\": 1.0}, \"22\": {\"Cl\": 1.0}, \"23\": {\"Cl\": 1.0}, \"24\": {\"Cl\": 1.0}, \"25\": {\"Cl\": 1.0}, \"26\": {\"Cl\": 1.0}, \"27\": {\"Cl\": 1.0}, \"28\": {\"Cl\": 1.0}, \"29\": {\"Cl\": 1.0}, \"30\": {\"Cl\": 1.0}, \"31\": {\"Cl\": 1.0}, \"32\": {\"Cl\": 1.0}, \"33\": {\"Cl\": 1.0}, \"34\": {\"Cl\": 1.0}, \"35\": {\"Cl\": 1.0}, \"36\": {\"Cl\": 1.0}, \"37\": {\"Cl\": 1.0}, \"38\": {\"Cl\": 1.0}, \"39\": {\"Cl\": 1.0}, \"40\": {\"Cl\": 1.0}, \"41\": {\"Cl\": 1.0}, \"42\": {\"Cl\": 1.0}, \"43\": {\"Cl\": 1.0}, \"44\": {\"Cl\": 1.0}, \"45\": {\"Cl\": 1.0}, \"46\": {\"Cl\": 1.0}, \"47\": {\"Cl\": 1.0}, \"48\": {\"Cl\": 1.0}, \"49\": {\"Cl\": 1.0}, \"50\": {\"Cl\": 1.0}, \"51\": {\"Cl\": 1.0}, \"52\": {\"Cl\": 1.0}, \"53\": {\"Cl\": 1.0}, \"54\": {\"Cl\": 1.0}, \"55\": {\"Cl\": 1.0}, \"56\": {\"Cl\": 1.0}, \"57\": {\"Cl\": 1.0}, \"58\": {\"Cl\": 1.0}, \"59\": {\"Cl\": 1.0}, \"60\": {\"Cl\": 1.0}, \"61\": {\"Cl\": 1.0}, \"62\": {\"Cl\": 1.0}, \"63\": {\"Cl\": 1.0}, \"64\": {\"Li\": 1.0}, \"65\": {\"Li\": 1.0}, \"66\": {\"Li\": 1.0}, \"67\": {\"Li\": 1.0}, \"68\": {\"Li\": 1.0}, \"69\": {\"Li\": 1.0}, \"70\": {\"Li\": 1.0}, \"71\": {\"Li\": 1.0}, \"72\": {\"Li\": 1.0}, \"73\": {\"Li\": 1.0}, \"74\": {\"Li\": 1.0}, \"75\": {\"Li\": 1.0}, \"76\": {\"Li\": 1.0}, \"77\": {\"Li\": 1.0}, \"78\": {\"Li\": 1.0}, \"79\": {\"Li\": 1.0}, \"80\": {\"O\": 1.0}, \"81\": {\"O\": 1.0}, \"82\": {\"O\": 1.0}, \"83\": {\"O\": 1.0}, \"84\": {\"O\": 1.0}, \"85\": {\"O\": 1.0}, \"86\": {\"O\": 1.0}, \"87\": {\"O\": 1.0}, \"88\": {\"O\": 1.0}, \"89\": {\"O\": 1.0}, \"90\": {\"O\": 1.0}, \"91\": {\"O\": 1.0}, \"92\": {\"O\": 1.0}, \"93\": {\"O\": 1.0}, \"94\": {\"O\": 1.0}, \"95\": {\"O\": 1.0}, \"96\": {\"O\": 1.0}, \"97\": {\"O\": 1.0}, \"98\": {\"O\": 1.0}, \"99\": {\"O\": 1.0}, \"100\": {\"O\": 1.0}, \"101\": {\"O\": 1.0}, \"102\": {\"O\": 1.0}, \"103\": {\"O\": 1.0}, \"104\": {\"O\": 1.0}, \"105\": {\"O\": 1.0}, \"106\": {\"O\": 1.0}, \"107\": {\"O\": 1.0}, \"108\": {\"O\": 1.0}, \"109\": {\"O\": 1.0}, \"110\": {\"O\": 1.0}, \"111\": {\"O\": 1.0}, \"112\": {\"S\": 1.0}, \"113\": {\"S\": 1.0}, \"114\": {\"S\": 1.0}, \"115\": {\"S\": 1.0}, \"116\": {\"S\": 1.0}, \"117\": {\"S\": 1.0}, \"118\": {\"S\": 1.0}, \"119\": {\"S\": 1.0}, \"120\": {\"Zr\": 1.0}, \"121\": {\"Zr\": 1.0}, \"122\": {\"Zr\": 1.0}, \"123\": {\"Zr\": 1.0}, \"124\": {\"Zr\": 1.0}, \"125\": {\"Zr\": 1.0}, \"126\": {\"Zr\": 1.0}, \"127\": {\"Zr\": 1.0}, \"128\": {\"Zr\": 1.0}, \"129\": {\"Zr\": 1.0}, \"130\": {\"Zr\": 1.0}, \"131\": {\"Zr\": 1.0}, \"132\": {\"Zr\": 1.0}, \"133\": {\"Zr\": 1.0}, \"134\": {\"Zr\": 1.0}, \"135\": {\"Zr\": 1.0}}" pbc="T T T"
Cl       1.93755992       9.73957771       6.00739969        0
Cl       4.54054610      12.10803384       6.72530906        1
Cl       2.01928375      12.85198949       4.49460057        2
Cl       1.71682161       1.14847463       7.68603092        3
Cl       9.75661468       9.49816749      16.10162546        4
Cl      18.84015429      11.87143835       6.79215610        5
Cl       8.19822161       9.61544826       3.39413650        6
Cl      10.96676632       7.80475431       2.90432994        7
Cl       5.02698018      11.52498991      12.92568823        8
Cl       7.23494427       1.26678439      12.34039210        9
Cl       7.35395120      12.04654354       9.93393825       10
Cl       4.81145264       1.44951854       9.38977083       11
Cl      11.41524990      12.16998129       9.71198672       12
Cl       3.81728500       1.36535382      12.48537347       13
Cl      10.70305935      11.66932776      13.21480409       14
Cl      10.21509390       8.97470603      10.98980912       15
Cl       8.44982027       6.05648155       9.87048875       16
Cl       2.83131184       7.01670767      12.44948658       17
Cl       2.40759534       4.29217447      14.07219840       18
Cl      18.76335054       7.54760624      11.92979729       19
Cl       4.44688914       8.46879090       8.07697426       20
Cl       7.71196758       9.26599100       8.09123911       21
Cl       6.01555097       8.07811179      11.01371426       22
Cl       5.07882076       5.26836665       9.00358742       23
Cl       9.24009542       2.88323011      15.22781188       24
Cl       5.33379420       7.28882529       3.36758206       25
Cl       5.04364529       7.67840160      15.87059225       26
Cl       3.08120252       9.80540519       2.20158720       27
Cl       8.30371465       7.49989781      13.76460981       28
Cl      11.03602606       5.66980790      15.16721900       29
Cl       8.04427876       5.80254048       0.79745908       30
Cl       6.33473766       4.51264097      13.97778898       31
Cl      15.18513053       5.38880265       7.51015038       32
Cl      17.72071437       8.32302646       7.55830467       33
Cl      15.77808825       7.43269903       4.73938191       34
Cl      13.92257618       9.41238262       6.65794434       35
Cl      18.30515980       1.75634805       5.23953841       36
Cl       9.71788209      12.45828441       1.95187324       37
Cl      15.49283376      12.70848606       6.07324927       38
Cl      16.43567274       0.21829153       2.71507311       39
Cl      12.77174854       9.02102513      13.43616413       40
Cl      14.69579631      11.19194783      15.30931675       41
Cl      15.94066058       7.91139987      14.59144777       42
Cl      17.36513013      10.82033856      12.94668558       43
Cl       0.56270787       0.61640160      13.48287328       44
Cl      14.10641397      11.71888129      12.00596535       45
Cl       3.24255791      12.91908247      15.61169674       46
Cl       1.73711025      10.31857201      13.66474225       47
Cl      16.18084233       1.33154607      12.63888999       48
Cl      11.27409845       2.45519693       7.71304686       49
Cl       7.96935976       2.65557885       8.98661179       50
Cl      11.61187870       5.85017145       8.62936937       51
Cl      16.14390110       5.17520418      11.41531444       52
Cl      18.42922405       4.23763344      13.92513170       53
Cl      13.83049960       2.94067326      10.53282847       54
Cl      16.60916023       1.93529027       8.66428252       55
Cl       3.62497980       4.90947474       1.46875339       56
Cl      11.94693088       3.19231087       1.37684418       57
Cl      12.20164883       0.83692913      15.10178251       58
Cl      13.92072579       4.01375580      14.42522462       59
Cl      18.44149634       4.85922813       3.23400444       60
Cl       1.78305389       6.79826373       3.39251557       61
Cl       2.17894913       3.41078346       4.36382877       62
Cl       0.95722172       2.33364596       1.18487221       63
Li      12.00587348      10.53874117      15.28065278       64
Li       1.24694952      10.49621764       3.77063307       65
Li      11.47811091       6.97139223      10.74813010       66
Li       3.63216622       8.22822426      10.47887088       67
Li       8.64861686       7.04698536       3.54094785       68
Li       6.05094874       3.40744425       7.78091952       69
Li       4.30047762       5.91652299      14.11865454       70
Li      11.73772094       0.69954927       1.51891530       71
Li      18.89538071       2.47308315       7.65254914       72
Li      14.88630161       9.77862590       4.39964044       73
Li      18.56613098       7.34427527       2.76335795       74
Li      13.65323668       5.20774144      11.63906215       75
Li       2.37980641       1.10643757      10.14301435       76
Li       5.67122813      10.68731164       8.53573059       77
Li       0.75198695       2.75710413      14.84765079       78
Li      15.72741672      11.22428229       1.46067103       79
O       17.25324493      10.17122313       2.01218368       80
O       18.77477030      11.45567451       3.53268903       81
O       16.77604797      10.56639937       4.38507617       82
O       18.65510424       9.05436312       3.67441055       83
O        2.72596696       9.91439674      10.61120994       84
O        2.41082275      12.31008086      11.07822593       85
O        4.41013470      11.57330973       9.92488028       86
O        2.23480294      11.47142930       8.80806870       87
O        6.84526381       4.16304195       6.19034481       88
O        8.19242820       5.73969610       4.87097408       89
O        7.22857861       6.43300813       6.98859851       90
O        9.06529432       4.84451423       6.94852595       91
O       10.35301236       3.65539302      10.73900128       92
O        9.37575300       4.74248309      12.67826437       93
O       11.26535597       3.22762172      12.94907098       94
O       11.60985358       5.39141729      11.89797492       95
O       14.22941588      10.54341832       2.66152863       96
O       12.23564348      10.51525121       1.17091865       97
O       11.92111349      10.82616333       3.46932798       98
O       13.06577877      12.61142663       2.16286736       99
O       13.49981933       7.08419357      10.91486576      100
O       13.21337669       9.38249412      10.22781933      101
O       15.20735507       8.74538676      11.49873664      102
O       14.96935439       8.04888782       9.21459728      103
O        1.28475201       2.44781430      10.76759043      104
O        0.13789613       3.73180701       9.00594068      105
O       18.30798005       2.99685435      11.00075518      106
O        0.62453038       4.73590398      11.17274205      107
O        0.42989435       6.86212916      14.78409700      108
O        0.70816230       5.41250424       0.62568067      109
O        2.04335548       7.42467014       0.35013745      110
O       19.01699820       7.59992990       0.87132532      111
S       17.84866146      10.23637449       3.34321955      112
S        2.94415008      11.25973540      10.12278970      113
S        7.80426385       5.26303900       6.18836836      114
S       10.65372371       4.27324748      12.06785375      115
S       12.91501483      11.17399049       2.37805564      116
S       14.21026562       8.29308205      10.46670813      117
S        0.27720516       3.44579181      10.43358572      118
S        0.66636586       6.84342652       0.15282376      119
Zr       2.14773736      12.02719692       6.74419109      120
Zr      17.43993789      12.72548470       4.80477588      121
Zr       5.68930548       0.02068951      11.17057997      122
Zr       2.56672371      12.47090617      13.43497885      123
Zr       0.62793071       5.82865782      12.92229718      124
Zr       6.53905258       7.25372055       8.75691618      125
Zr       3.67023352       7.51887696       1.72008934      126
Zr       8.51801379       5.34754682      14.61474248      127
Zr      15.53178023       7.67225437       7.16940897      128
Zr      10.26720199      10.06535529       2.24759812      129
Zr      15.33005384       9.78795280      13.35200802      130
Zr      11.88323899      10.66908934      11.40202717      131
Zr       9.92133713       4.07874697       8.66203726      132
Zr      16.22836872       2.83360506      10.87251613      133
Zr      11.78733933       3.20168316      15.06454213      134
Zr       1.29260208       4.36310235       2.42735249      135
Cl       1.93755992      22.90594467       6.00739969        0
Cl       4.54054610      25.27440079       6.72530906        1
Cl       2.01928375      26.01835644       4.49460057        2
Cl       1.71682161      14.31484158       7.68603092        3
Cl       9.75661468      22.66453444      16.10162546        4
Cl      18.84015429      25.03780530       6.79215610        5
Cl       8.19822161      22.78181521       3.39413650        6
Cl      10.96676632      20.97112127       2.90432994        7
Cl       5.02698018      24.69135687      12.92568823        8
Cl       7.23494427      14.43315134      12.34039210        9
Cl       7.35395120      25.21291049       9.93393825       10
Cl       4.81145264      14.61588549       9.38977083       11
Cl      11.41524990      25.33634824       9.71198672       12
Cl       3.81728500      14.53172078      12.48537347       13
Cl      10.70305935      24.83569471      13.21480409       14
Cl      10.21509390      22.14107299      10.98980912       15
Cl       8.44982027      19.22284850       9.87048875       16
Cl       2.83131184      20.18307463      12.44948658       17
Cl       2.40759534      17.45854142      14.07219840       18
Cl      18.76335054      20.71397320      11.92979729       19
Cl       4.44688914      21.63515786       8.07697426       20
Cl       7.71196758      22.43235795       8.09123911       21
Cl       6.01555097      21.24447874      11.01371426       22
Cl       5.07882076      18.43473360       9.00358742       23
Cl       9.24009542      16.04959706      15.22781188       24
Cl       5.33379420      20.45519225       3.36758206       25
Cl       5.04364529      20.84476855      15.87059225       26
Cl       3.08120252      22.97177214       2.20158720       27
Cl       8.30371465      20.66626476      13.76460981       28
Cl      11.03602606      18.83617485      15.16721900       29
Cl       8.04427876      18.96890743       0.79745908       30
Cl       6.33473766      17.67900793      13.97778898       31
Cl      15.18513053      18.55516961       7.51015038       32
Cl      17.72071437      21.48939341       7.55830467       33
Cl      15.77808825      20.59906598       4.73938191       34
Cl      13.92257618      22.57874958       6.65794434       35
Cl      18.30515980      14.92271500       5.23953841       36
Cl       9.71788209      25.62465136       1.95187324       37
Cl      15.49283376      25.87485301       6.07324927       38
Cl      16.43567274      13.38465849       2.71507311       39
Cl      12.77174854      22.18739208      13.43616413       40
Cl      14.69579631      24.35831478      15.30931675       41
Cl      15.94066058      21.07776683      14.59144777       42
Cl      17.36513013      23.98670551      12.94668558       43
Cl       0.56270787      13.78276855      13.48287328       44
Cl      14.10641397      24.88524824      12.00596535       45
Cl       3.24255791      26.08544942      15.61169674       46
Cl       1.73711025      23.48493897      13.66474225       47
Cl      16.18084233      14.49791302      12.63888999       48
Cl      11.27409845      15.62156389       7.71304686       49
Cl       7.96935976      15.82194580       8.98661179       50
Cl      11.61187870      19.01653840       8.62936937       51
Cl      16.14390110      18.34157114      11.41531444       52
Cl      18.42922405      17.40400040      13.92513170       53
Cl      13.83049960      16.10704021      10.53282847       54
Cl      16.60916023      15.10165722       8.66428252       55
Cl       3.62497980      18.07584169       1.46875339       56
Cl      11.94693088      16.35867782       1.37684418       57
Cl      12.20164883      14.00329608      15.10178251       58
Cl      13.92072579      17.18012275      14.42522462       59
Cl      18.44149634      18.02559508       3.23400444       60
Cl       1.78305389      19.96463068       3.39251557       61
Cl       2.17894913      16.57715041       4.36382877       62
Cl       0.95722172      15.50001292       1.18487221       63
Li      12.00587348      23.70510812      15.28065278       64
Li       1.24694952      23.66258460       3.77063307       65
Li      11.47811091      20.13775919      10.74813010       66
Li       3.63216622      21.39459121      10.47887088       67
Li       8.64861686      20.21335231       3.54094785       68
Li       6.05094874      16.57381120       7.78091952       69
Li       4.30047762      19.08288995      14.11865454       70
Li      11.73772094      13.86591622       1.51891530       71
Li      18.89538071      15.63945011       7.65254914       72
Li      14.88630161      22.94499285       4.39964044       73
Li      18.56613098      20.51064222       2.76335795       74
Li      13.65323668      18.37410839      11.63906215       75
Li       2.37980641      14.27280452      10.14301435       76
Li       5.67122813      23.85367860       8.53573059       77
Li       0.75198695      15.92347108      14.84765079       78
Li      15.72741672      24.39064925       1.46067103       79
O       17.25324493      23.33759008       2.01218368       80
O       18.77477030      24.62204146       3.53268903       81
O       16.77604797      23.73276632       4.38507617       82
O       18.65510424      22.22073008       3.67441055       83
O        2.72596696      23.08076369      10.61120994       84
O        2.41082275      25.47644782      11.07822593       85
O        4.41013470      24.73967668       9.92488028       86
O        2.23480294      24.63779626       8.80806870       87
O        6.84526381      17.32940891       6.19034481       88
O        8.19242820      18.90606305       4.87097408       89
O        7.22857861      19.59937508       6.98859851       90
O        9.06529432      18.01088118       6.94852595       91
O       10.35301236      16.82175997      10.73900128       92
O        9.37575300      17.90885004      12.67826437       93
O       11.26535597      16.39398867      12.94907098       94
O       11.60985358      18.55778424      11.89797492       95
O       14.22941588      23.70978527       2.66152863       96
O       12.23564348      23.68161817       1.17091865       97
O       11.92111349      23.99253028       3.46932798       98
O       13.06577877      25.77779358       2.16286736       99
O       13.49981933      20.25056053      10.91486576      100
O       13.21337669      22.54886108      10.22781933      101
O       15.20735507      21.91175372      11.49873664      102
O       14.96935439      21.21525477       9.21459728      103
O        1.28475201      15.61418125      10.76759043      104
O        0.13789613      16.89817397       9.00594068      105
O       18.30798005      16.16322130      11.00075518      106
O        0.62453038      17.90227094      11.17274205      107
O        0.42989435      20.02849611      14.78409700      108
O        0.70816230      18.57887119       0.62568067      109
O        2.04335548      20.59103710       0.35013745      110
O       19.01699820      20.76629686       0.87132532      111
S       17.84866146      23.40274144       3.34321955      112
S        2.94415008      24.42610235      10.12278970      113
S        7.80426385      18.42940596       6.18836836      114
S       10.65372371      17.43961443      12.06785375      115
S       12.91501483      24.34035744       2.37805564      116
S       14.21026562      21.45944900      10.46670813      117
S        0.27720516      16.61215876      10.43358572      118
S        0.66636586      20.00979347       0.15282376      119
Zr       2.14773736      25.19356387       6.74419109      120
Zr      17.43993789      25.89185165       4.80477588      121
Zr       5.68930548      13.18705647      11.17057997      122
Zr       2.56672371      25.63727313      13.43497885      123
Zr       0.62793071      18.99502477      12.92229718      124
Zr       6.53905258      20.42008750       8.75691618      125
Zr       3.67023352      20.68524392       1.72008934      126
Zr       8.51801379      18.51391377      14.61474248      127
Zr      15.53178023      20.83862133       7.16940897      128
Zr      10.26720199      23.23172225       2.24759812      129
Zr      15.33005384      22.95431975      13.35200802      130
Zr      11.88323899      23.83545629      11.40202717      131
Zr       9.92133713      17.24511393       8.66203726      132
Zr      16.22836872      15.99997201      10.87251613      133
Zr      11.78733933      16.36805011      15.06454213      134
Zr       1.29260208      17.52946930       2.42735249      135
